time,ASR_ext,ASR_strain,ASR_strain_xx,ASR_strain_yy,ASR_strain_zz,disp_x_101,disp_x_102,disp_x_103,disp_x_104,disp_x_105,disp_x_106,disp_x_p1_neg,disp_x_p1_pos,disp_x_p2_neg,disp_x_p2_pos,disp_x_p3_neg,disp_x_p3_pos,disp_x_p4_neg,disp_x_p4_pos,disp_x_p5_neg,disp_x_p5_pos,disp_x_p6_neg,disp_x_p6_pos,disp_y_101,disp_y_102,disp_y_103,disp_y_104,disp_y_105,disp_y_106,disp_y_p1_neg,disp_y_p1_pos,disp_y_p2_neg,disp_y_p2_pos,disp_y_p3_neg,disp_y_p3_pos,disp_y_p4_neg,disp_y_p4_pos,disp_y_p5_neg,disp_y_p5_pos,disp_y_p6_neg,disp_y_p6_pos,disp_y_p7_neg,disp_y_p7_pos,disp_y_p8_neg,disp_y_p8_pos,disp_z_101,disp_z_102,disp_z_103,disp_z_104,disp_z_105,disp_z_106,disp_z_p1_neg,disp_z_p1_pos,disp_z_p2_neg,disp_z_p2_pos,disp_z_p3_neg,disp_z_p3_pos,disp_z_p4_neg,disp_z_p4_pos,disp_z_p5_neg,disp_z_p5_pos,disp_z_p6_neg,disp_z_p6_pos,error,error_ASR,humidity,humidity_bc,ndof,nelem,strain_xx,strain_yy,strain_zz,temp,temp_bc,thermal_strain_xx,thermal_strain_yy,thermal_strain_zz,vonmises,vstrain
2419200,0,0,0,0,0,0,0,0,0,0,0,0,0,0,0,0,0,0,0,0,0,0,0,0,0,0,0,0,0,0,0,0,0,0,0,0,0,0,0,0,0,0,0,0,0,0,0,0,0,0,0,0,0,0,0,0,0,0,0,0,0,0,0,0,0,0,0,0,0,0,0,0,0,0,0,0,0,0,0
2505600,0.009435648470288,0.00016748193495647,5.5827311652156e-05,5.5827311652156e-05,5.5827311652156e-05,-5.043728384391e-05,5.0437282765401e-05,1.1497904570437e-11,-1.2639756808959e-11,-7.8671261720486e-13,-2.5656197838414e-13,-4.9555188151494e-05,4.9555194065309e-05,-4.9555195245653e-05,4.9555186837602e-05,-4.9555190929985e-05,4.9555197539362e-05,-4.9555198342257e-05,4.9555190088814e-05,-5.107982361935e-05,5.107984923507e-05,-5.1079849924534e-05,5.1079822506232e-05,-5.9842348171679e-12,-6.5458364832328e-12,-2.7903968775334e-12,-2.7017546489118e-12,-5.0437286364496e-05,5.0437280227024e-05,-4.9555193205349e-05,4.9555191615663e-05,-4.9555193536751e-05,4.9555191870052e-05,-4.955519370983e-05,4.9555191687786e-05,-4.9555193442584e-05,4.9555191642179e-05,-5.107983956273e-05,5.107983007678e-05,-5.1079832042965e-05,5.1079823528744e-05,-5.1079841888851e-05,5.1079822656455e-05,-5.1079840652969e-05,5.1079820779812e-05,-1.242236194287e-11,1.1908240685686e-11,-5.0437283590894e-05,5.0437283032895e-05,-2.6234941371432e-13,-3.3643050352905e-13,-4.9555197702549e-05,4.9555187122362e-05,-4.9555198403038e-05,4.955518801669e-05,-4.9555187808616e-05,4.9555197166522e-05,-4.9555188579837e-05,4.9555197803337e-05,-5.1079814874206e-05,5.1079840805341e-05,-5.1079840980119e-05,5.1079814577688e-05,0.00031871867527627,0.00047266495927983,0.8060835233648,0.89000107803809,1368840,32768,0.0002101331965965,0.00021013319655945,0.00021013319662666,29.888666095262,31.134358773236,0.0001543093287621,0.0001543093287621,0.0001543093287621,279206.27009623,0.00063059861266122
2592000,0.020800799309803,0.00036895405599851,0.00012298468533637,0.00012298468534742,0.00012298468531473,-6.9999732132638e-05,6.9999732180058e-05,1.2541596406956e-11,-1.2410566226015e-11,-1.9808941173974e-13,2.6944213637474e-13,-6.9446621518767e-05,6.9446629423588e-05,-6.9446629352543e-05,6.9446621603853e-05,-6.944662169608e-05,6.9446629808132e-05,-6.9446629801185e-05,6.9446622020344e-05,-7.0469604957713e-05,7.0469630542129e-05,-7.0469629492475e-05,7.046960503501e-05,-1.7598434043523e-12,-2.226764455492e-12,-8.7783287949927e-13,-6.2198246577438e-13,-6.9999733051952e-05,6.9999731232532e-05,-6.9446625786014e-05,6.9446625508633e-05,-6.9446625548752e-05,6.9446625653919e-05,-6.9446626084087e-05,6.9446625359901e-05,-6.9446625762753e-05,6.944662568308e-05,-7.0469619005114e-05,7.0469615266489e-05,-7.0469615818731e-05,7.0469613096769e-05,-7.0469619338116e-05,7.0469612739835e-05,-7.0469619141327e-05,7.0469611426808e-05,-1.2540635939974e-11,1.237251014044e-11,-6.9999732213871e-05,6.9999732062976e-05,8.1405809064294e-14,-1.721244328932e-13,-6.9446630012463e-05,6.9446621587161e-05,-6.9446629875148e-05,6.9446621013657e-05,-6.9446621555108e-05,6.9446630041433e-05,-6.9446621648813e-05,6.9446629731112e-05,-7.0469601414511e-05,7.0469626456256e-05,-7.0469626870331e-05,7.0469601875013e-05,0.00025458168911343,0.00042295414766873,0.80782101287137,0.89156329086413,1368840,32768,0.0002916229817717,0.00029162298171294,0.00029162298169703,31.683829467735,31.842440110251,0.00016867063574188,0.00016867063574188,0.00016867063574188,149452.49919258,0.00087525189093328
2678400,0.033287343188527,0.00059095576304954,0.00019698525436484,0.00019698525436607,0.00019698525431863,-8.9315121195414e-05,8.931512129849e-05,1.3077852855572e-11,-1.2922282325057e-11,-1.9042261654331e-13,2.9970560155254e-13,-8.8730880682552e-05,8.8730889135474e-05,-8.8730888761398e-05,8.8730880558692e-05,-8.8730881209583e-05,8.8730889174804e-05,-8.8730889262663e-05,8.8730880774742e-05,-8.9868825723827e-05,8.9868852235117e-05,-8.9868851687469e-05,8.9868825883663e-05,-1.3058318650858e-12,-1.7898131275846e-12,-8.5598838874524e-13,-5.7411943163369e-13,-8.9315122093979e-05,8.93151203883e-05,-8.873088511096e-05,8.8730885179418e-05,-8.8730885007667e-05,8.8730884634839e-05,-8.8730885230625e-05,8.8730884353704e-05,-8.8730885411306e-05,8.8730885152726e-05,-8.9868840229544e-05,8.9868836825613e-05,-8.9868837906358e-05,8.9868835204039e-05,-8.9868840073399e-05,8.9868835314666e-05,-8.9868840392054e-05,8.9868834120239e-05,-1.3049498052674e-11,1.2932870387628e-11,-8.9315121305355e-05,8.9315121187512e-05,9.7370786418724e-14,-1.8563401283186e-13,-8.873088946128e-05,8.8730880645218e-05,-8.8730889687733e-05,8.8730880415428e-05,-8.8730880706526e-05,8.8730890002322e-05,-8.8730880881287e-05,8.8730889457963e-05,-8.9868823190395e-05,8.9868849356708e-05,-8.9868849487224e-05,8.9868823184645e-05,0.00019145841063143,0.00036635081577953,0.80925311433927,0.89127806232602,1368840,32768,0.00037207705557686,0.00037207705555265,0.0003720770555747,32.491718807394,32.550521447259,0.00017513375045915,0.00017513375045915,0.00017513375045915,148315.25434366,0.0011168545611124
2764800,0.046405672152827,0.00082453066405237,0.0002748435547044,0.00027484355469832,0.00027484355464965,-0.0001086561581514,0.00010865615815705,1.3222344037054e-11,-1.3202129389892e-11,-1.9747262543508e-13,2.0095794543153e-13,-0.00010800927595083,0.00010800928438126,-0.00010800928439475,0.00010800927582316,-0.00010800927621679,0.00010800928479973,-0.00010800928472779,0.00010800927623625,-0.00010931820636933,0.00010931823325164,-0.00010931823302726,0.00010931820652756,-1.0945613229323e-12,-1.4862543753608e-12,-7.4714768434228e-13,-4.7567283800661e-13,-0.00010865615894251,0.00010865615736198,-0.00010800928061145,0.00010800928009879,-0.00010800928053339,0.00010800928007896,-0.00010800928077053,0.00010800927982661,-0.00010800928068481,0.00010800928011102,-0.00010931822092499,0.00010931821794563,-0.00010931821885877,0.00010931821655295,-0.00010931822081505,0.00010931821671042,-0.00010931822103638,0.00010931821583671,-1.3262190411686e-11,1.3176667434281e-11,-0.00010865615818614,0.00010865615809709,9.4599016314987e-14,-1.7984687896306e-13,-0.00010800928488914,0.00010800927591747,-0.00010800928487147,0.00010800927565706,-0.00010800927592569,0.00010800928500541,-0.00010800927592981,0.00010800928468224,-0.00010931820436145,0.00010931823071646,-0.00010931823092808,0.00010931820427594,0.00012819760460429,0.0003058445054226,0.81051069797485,0.8909928337879,1368840,32768,0.00045263146840325,0.00045263146839503,0.00045263146835074,32.830291224421,32.854492054626,0.00017784232979537,0.00017784232979537,0.00017784232979537,158035.46059784,0.0013588170043128
2851200,0.059664203420694,0.0010608794278969,0.00035362647598652,0.00035362647597891,0.00035362647593146,-0.00012738803361167,0.00012738803362783,1.3218768477167e-11,-1.319135257941e-11,-2.0483099623014e-13,2.2559928089094e-13,-0.00012668259965423,0.00012668260813212,-0.00012668260815777,0.00012668259953875,-0.00012668259999605,0.00012668260865647,-0.00012668260858156,0.00012668260004694,-0.00012815710712762,0.00012815713396625,-0.00012815713363301,0.00012815710724136,-9.4998636827443e-13,-1.3728064697929e-12,-6.9594342322966e-13,-3.8882175227707e-13,-0.00012738803437156,0.0001273880328635,-0.0001266826044012,0.0001266826038123,-0.00012668260433766,0.0001266826038291,-0.00012668260461099,0.00012668260356826,-0.00012668260448587,0.00012668260381355,-0.00012815712163647,0.00012815711882345,-0.00012815711955439,0.0001281571174365,-0.0001281571214372,0.00012815711775872,-0.0001281571216004,0.00012815711677081,-1.3279676542938e-11,1.3185204309515e-11,-0.00012738803365472,0.00012738803356076,1.1040645436449e-13,-1.9981788834773e-13,-0.00012668260868112,0.00012668259964526,-0.00012668260868232,0.0001266825993977,-0.00012668259964932,0.00012668260878551,-0.0001266825996771,0.00012668260848833,-0.00012815710532625,0.0001281571315855,-0.00012815713175666,0.00012815710529432,6.7586995977703e-05,0.00024437881072479,0.81162279852678,0.89070760524979,1368840,32768,0.00053064256621544,0.00053064256620618,0.00053064256616541,32.734776020166,32.729407882756,0.00017707820816132,0.00017707820816132,0.00017707820816132,167205.6524067,0.0015931958111656
2937600,0.073022628034616,0.0012992621410616,0.00043308738037339,0.00043308738036601,0.00043308738032217,-0.00014623235927813,0.00014623235926916,1.3027816494443e-11,-1.3028711562687e-11,-1.8634748368288e-13,1.8163656877456e-13,-0.00014545652744091,0.0001454565359226,-0.0001454565359482,0.0001454565273206,-0.00014545652792759,0.00014545653645377,-0.00014545653641938,0.00014545652793189,-0.00014711728767277,0.00014711731412716,-0.00014711731386342,0.00014711728773379,-8.5561957464461e-13,-1.2153853561058e-12,-5.9899558712539e-13,-3.0031542851098e-13,-0.00014623235995918,0.00014623235858363,-0.00014545653221683,0.00014545653158473,-0.00014545653217309,0.00014545653171046,-0.00014545653241895,0.00014545653147271,-0.00014545653228105,0.00014545653160498,-0.0001471173018623,0.00014711729927921,-0.00014711729982878,0.00014711729795649,-0.00014711730164314,0.00014711729823494,-0.00014711730175122,0.00014711729732079,-1.3111765768085e-11,1.3033145191949e-11,-0.00014623235930265,0.00014623235922504,1.1343039139705e-13,-1.8863923352443e-13,-0.00014545653646004,0.00014545652754406,-0.00014545653645569,0.00014545652730139,-0.00014545652753255,0.00014545653657675,-0.00014545652755454,0.00014545653628256,-0.00014711728583129,0.00014711731179608,-0.00014711731194393,0.0001471172857959,1.1210025925156e-05,0.00018225419511579,0.81262232205681,0.89042237671168,1368840,32768,0.00060911582971834,0.000609115829709,0.00060911582967751,32.612460837179,32.604323710885,0.00017609968669743,0.00017609968669743,0.00017609968669743,180334.77679444,0.001829018534162
3024000,0.086467422540517,0.0015391391514526,0.00051304638383792,0.00051304638383019,0.00051304638378452,-0.00016519357273416,0.00016519357270945,1.2792438449786e-11,-1.2809708098681e-11,-1.6805420429471e-13,1.467940670126e-13,-0.000164352170665,0.00016435217879109,-0.0001643521788219,0.0001643521705489,-0.00016435217118846,0.00016435217957205,-0.0001643521795636,0.00016435217116171,-0.00016618377822928,0.00016618380428776,-0.00016618380405889,0.00016618377823476,-8.5224727693069e-13,-1.159441153398e-12,-5.302932557874e-13,-2.2668276984992e-13,-0.00016519357334736,0.00016519357209168,-0.00016435217533448,0.00016435217481038,-0.00016435217528859,0.0001643521747176,-0.00016435217552508,0.0001643521744909,-0.00016435217537251,0.00016435217484945,-0.00016618379212124,0.00016618378971692,-0.00016618379011339,0.00016618378843425,-0.00016618379193122,0.00016618378859968,-0.00016618379204084,0.00016618378776853,-1.2904424013998e-11,1.2833179326504e-11,-0.00016519357276695,0.00016519357269389,1.1441668479588e-13,-1.9277618802566e-13,-0.00016435217954967,0.00016435217080163,-0.00016435217953076,0.00016435217053353,-0.00016435217077673,0.00016435217967935,-0.0001643521707847,0.00016435217936078,-0.00016618377641219,0.00016618380198784,-0.0001661838021134,0.00016618377637822,5.7584001240486e-05,0.00011978930951171,0.81259733857767,0.87677430802202,1368840,32768,0.00068806963030778,0.00068806963029828,0.00068806963034365,32.487650031867,32.479239539014,0.00017510120025493,0.00017510120025493,0.00017510120025493,191460.8781829,0.0020663413814065
3110400,0.099987853482694,0.0017799515726674,0.00059331719090805,0.00059331719090047,0.00059331719085891,-0.00018423349183381,0.00018423349179964,1.2729377140972e-11,-1.2741804886313e-11,-1.5808042075166e-13,1.2129269165035e-13,-0.0001833409232615,0.00018334093147371,-0.00018334093151546,0.00018334092313821,-0.00018334092366235,0.00018334093191804,-0.0001833409319447,0.00018334092360112,-0.00018530247574284,0.00018530250175896,-0.00018530250160978,0.00018530247583533,-8.6728536164517e-13,-1.1388372019523e-12,-5.4581519336756e-13,-2.5548915086417e-13,-0.00018423349243139,0.00018423349120399,-0.00018334092778717,0.00018334092737156,-0.0001833409276705,0.00018334092745484,-0.00018334092788866,0.00018334092721694,-0.00018334092780685,0.00018334092738373,-0.00018530248974426,0.00018530248725759,-0.00018530248774862,0.00018530248593092,-0.00018530248945588,0.00018530248606655,-0.00018530248963437,0.00018530248527841,-1.2856565740742e-11,1.278296897069e-11,-0.00018423349186396,0.0001842334917934,1.0953954334802e-13,-1.8443885816655e-13,-0.00018334093198496,0.00018334092333251,-0.00018334093194432,0.00018334092307426,-0.00018334092333586,0.00018334093211416,-0.00018334092329357,0.00018334093178571,-0.00018530247398186,0.00018530249943708,-0.00018530249968835,0.00018530247393576,0.00011964959957274,5.7893000127382e-05,0.81127971824708,0.84958561210053,1368840,32768,0.00076734488804809,0.00076734488805211,0.00076734488809784,32.362591764421,32.354155367144,0.00017410073411536,0.00017410073411536,0.00017410073411536,197411.53345305,0.0023046870345599
3196800,0.11357346556338,0.002021464518744,0.00067382150626617,0.000673821506261,0.00067382150621687,-0.00020333302853417,0.00020333302848352,1.2592252918258e-11,-1.263484951402e-11,-1.5013833249465e-13,1.0107158145021e-13,-0.00020240360417241,0.00020240361229743,-0.00020240361232549,0.00020240360404605,-0.00020240360456548,0.00020240361278626,-0.00020240361282287,0.00020240360448521,-0.00020445502162105,0.00020445504738628,-0.00020445504715646,0.00020445502156395,-8.5731847127389e-13,-1.1011931754808e-12,-5.1420569578072e-13,-2.2039407961215e-13,-0.0002033330290993,0.00020333302791518,-0.00020240360860382,0.0002024036082742,-0.00020240360856641,0.00020240360830442,-0.0002024036087929,0.00020240360810813,-0.00020240360862589,0.00020240360832595,-0.00020445503535931,0.00020445503295391,-0.00020445503333566,0.00020445503169682,-0.00020445503520905,0.00020445503182949,-0.00020445503528072,0.00020445503103151,-1.2732153232635e-11,1.2678605195697e-11,-0.00020333302854607,0.00020333302848899,1.1916217217744e-13,-1.7837591838519e-13,-0.00020240361278978,0.00020240360426955,-0.00020240361276016,0.00020240360401586,-0.00020240360424642,0.00020240361291761,-0.0002024036042389,0.00020240361260637,-0.0002044550197373,0.00020445504512447,-0.00020445504521321,0.00020445501977096,0.00018236666688932,1.9284177280842e-05,0.8097651172931,0.82666567875123,1368840,32768,0.00084686206142103,0.00084686206141434,0.00084686206145716,32.237508453977,32.229071195273,0.00017310006763181,0.00017310006763181,0.00017310006763181,198443.7389087,0.0025438169585968
3283200,0.12721365221939,0.0022625471827216,0.00075418239425852,0.00075418239425357,0.00075418239420948,-0.00022239970189354,0.00022239970186331,1.2553063416941e-11,-1.2577409768765e-11,-1.3323840024657e-13,1.0294467864014e-13,-0.00022147306202587,0.00022147307005989,-0.00022147307011468,0.00022147306190149,-0.00022147306231467,0.0002214730704622,-0.00022147307051646,0.00022147306230159,-0.00022350618274168,0.00022350620840253,-0.00022350620819814,0.00022350618265378,-8.5993411930882e-13,-1.0884455134426e-12,-5.0527510830992e-13,-2.3347263595359e-13,-0.00022239970245199,0.00022239970129534,-0.00022147306637098,0.00022147306614161,-0.0002214730663153,0.00022147306612791,-0.00022147306648381,0.00022147306592787,-0.0002214730664117,0.00022147306616338,-0.00022350619657962,0.00022350619407101,-0.00022350619443127,0.00022350619276638,-0.00022350619626599,0.00022350619277181,-0.00022350619634061,0.00022350619212559,-1.2685388896547e-11,1.2643472677059e-11,-0.00022239970190453,0.00022239970185601,1.1265191150261e-13,-1.6283446669529e-13,-0.00022147307052192,0.00022147306211124,-0.00022147307049548,0.00022147306191494,-0.00022147306214837,0.00022147307064726,-0.00022147306210609,0.00022147307034518,-0.00022350618086526,0.000223506206221,-0.00022350620624573,0.00022350618083123,0.00024510029657186,7.3872479715183e-05,0.80501652439603,0.76479338888032,1368840,32768,0.00092623612511709,0.00092623612509728,0.00092623612512478,32.112424427443,32.103987023402,0.00017209939541954,0.00017209939541954,0.00017209939541954,186732.46920052,0.0027825733447589
3369600,0.14089824966146,0.0025034551488155,0.00083448504962837,0.00083448504961888,0.00083448504956828,-0.00024145465930113,0.00024145465925868,1.2517477636415e-11,-1.2559577835577e-11,-1.4002475910443e-13,9.1261638490177e-14,-0.00024055668869498,0.00024055669677168,-0.00024055669678907,0.000240556688574,-0.00024055668898959,0.00024055669713519,-0.00024055669717676,0.00024055668893834,-0.00024250246538844,0.00024250249095886,-0.00024250249086853,0.00024250246539437,-8.4079669291465e-13,-1.0653441603495e-12,-5.0176070831949e-13,-2.6145125181431e-13,-0.00024145465986085,0.00024145465870291,-0.00024055669297834,0.00024055669275385,-0.0002405566929899,0.00024055669278052,-0.00024055669314539,0.00024055669259389,-0.00024055669302989,0.00024055669281119,-0.00024250247909952,0.00024250247665796,-0.00024250247713562,0.00024250247534692,-0.00024250247891796,0.00024250247547822,-0.00024250247900957,0.00024250247475435,-1.2656405281977e-11,1.2632561370686e-11,-0.00024145465929365,0.00024145465926804,1.097533052001e-13,-1.3301014986652e-13,-0.00024055669728331,0.00024055668880368,-0.00024055669711427,0.00024055668857613,-0.0002405566888152,0.00024055669736653,-0.00024055668872466,0.00024055669703074,-0.00024250246343942,0.00024250248874144,-0.00024250248881729,0.00024250246341071,0.00030791884949158,0.00013647954201299,0.80170265575874,0.73261215393987,1368840,32768,0.0010055551321737,0.0010055551321819,0.0010055551321776,31.987338936005,31.978902851532,0.00017109871148803,0.00017109871148803,0.00017109871148803,168760.40931045,0.003021220878273
3456000,0.15461649563819,0.0027439527395071,0.00091465091319352,0.00091465091318798,0.00091465091312556,-0.00026047269605736,0.00026047269603542,1.249099729096e-11,-1.2487967765863e-11,-1.0482788581534e-13,8.0412366986797e-14,-0.00025963224986412,0.00025963225792077,-0.00025963225793467,0.00025963224980213,-0.00025963225019645,0.00025963225831065,-0.00025963225831849,0.00025963225011416,-0.00026141534782262,0.00026141537334402,-0.00026141537308533,0.00026141534789631,-7.9196866251863e-13,-9.6925571343269e-13,-4.6600545135334e-13,-2.3614847332624e-13,-0.00026047269658514,0.00026047269549904,-0.00025963225417292,0.00025963225394462,-0.00025963225414331,0.00025963225399158,-0.00025963225436661,0.00025963225381488,-0.0002596322542431,0.00025963225400704,-0.00026141536138179,0.00026141535915286,-0.00026141535952377,0.00026141535769833,-0.00026141536132085,0.00026141535791575,-0.00026141536132028,0.00026141535729415,-1.2623218626689e-11,1.2574508655186e-11,-0.00026047269606544,0.00026047269599696,8.253725795519e-14,-1.5087969587592e-13,-0.00025963225842604,0.00025963225006737,-0.00025963225832806,0.00025963224972363,-0.00025963224996645,0.00025963225847873,-0.00025963224994237,0.00025963225817577,-0.00026141534583102,0.0002614153709653,-0.00026141537118144,0.00026141534590372,0.00037070586344997,0.00019966985100915,0.79821827489716,0.7004309189994,1368840,32768,0.0010847141891939,0.001084714189176,0.0010847141891307,31.862253132536,31.853818679661,0.00017009802506029,0.00017009802506029,0.00017009802506029,145785.62549284,0.0032594437489287
3542400,0.16849664810291,0.002986230521606,0.00099541017389634,0.0009954101738872,0.00099541017382246,-0.00027987845708872,0.00027987845703319,1.2397020308951e-11,-1.244261162205e-11,-1.0356071864407e-13,4.8595000750202e-14,-0.00027911725614942,0.00027911726414333,-0.00027911726416016,0.00027911725605523,-0.00027911725648851,0.00027911726454787,-0.00027911726462513,0.0002791172563776,-0.00028067244377085,0.0002806724691061,-0.00028067246893611,0.00028067244372241,-7.3472507303571e-13,-8.7875006655337e-13,-4.0781871788869e-13,-1.79163195805e-13,-0.00027987845756469,0.00027987845655183,-0.00027911726043429,0.00027911726022016,-0.00027911726042053,0.0002791172601951,-0.00027911726057705,0.00027911726003619,-0.00027911726045979,0.0002791172602819,-0.00028067245721453,0.00028067245500639,-0.00028067245531789,0.00028067245366068,-0.00028067245710665,0.00028067245376085,-0.00028067245709644,0.00028067245314836,-1.253407698961e-11,1.251703121623e-11,-0.00027987845705285,0.00027987845702846,1.0353486649266e-13,-1.2893764927861e-13,-0.00027911726461792,0.00027911725623768,-0.0002791172645765,0.00027911725602049,-0.0002791172562008,0.00027911726474504,-0.00027911725618899,0.00027911726447605,-0.00028067244174944,0.00028067246690368,-0.00028067246699056,0.00028067244181004,0.0004352279374218,0.00026373671679925,0.79462179701302,0.66824968405895,1368840,32768,0.0011654806259722,0.001165480625961,0.0011654806258877,31.866077873867,31.866037091772,0.00017012862299094,0.00017012862299094,0.00017012862299094,126675.4508435,0.0035025621815939
3628800,0.1826694040799,0.0032326433815349,0.0010775477938741,0.001077547793865,0.0010775477937958,-0.00029986783714199,0.00029986783708124,1.2276595708428e-11,-1.2315406066916e-11,-1.0387767954937e-13,6.0909874539261e-14,-0.00029920957195735,0.00029920957987296,-0.00029920957987859,0.0002992095718586,-0.00029920957224609,0.00029920958021247,-0.00029920958034278,0.00029920957210529,-0.00030047868658549,0.00030047871134462,-0.00030047871125358,0.00030047868668852,-6.5752963350928e-13,-8.1454329273212e-13,-3.6002501618877e-13,-1.3703389459094e-13,-0.00029986783758736,0.00029986783662917,-0.00029920957614241,0.00029920957597871,-0.00029920957613422,0.00029920957592859,-0.00029920957627433,0.00029920957578154,-0.00029920957614081,0.00029920957603658,-0.00030047869961561,0.00030047869765476,-0.000300478698046,0.00030047869670677,-0.00030047869950854,0.00030047869690487,-0.00030047869947217,0.00030047869617904,-1.2417073034589e-11,1.2372703831214e-11,-0.00029986783710365,0.00029986783707349,1.011069259587e-13,-1.2581313443628e-13,-0.00029920958027784,0.00029920957197591,-0.00029920958029122,0.00029920957177382,-0.0002992095719555,0.00029920958043165,-0.00029920957192396,0.00029920958019311,-0.0003004786849019,0.00030047870937971,-0.00030047870962822,0.00030047868488892,0.00050230461550539,0.00032937171932553,0.79172612462803,0.64735214500615,1368840,32768,0.001248669258069,0.001248669258055,0.001248669257973,32.003029349392,32.011945666728,0.00017122423479513,0.00017122423479513,0.00017122423479513,132450.85876485,0.0037530333428719
3715200,0.19713347186921,0.0034837277443869,0.0011612425814933,0.0011612425814847,0.0011612425814089,-0.00032024716933792,0.00032024716929262,1.2395142307499e-11,-1.2431829936717e-11,-1.0586098660776e-13,6.9142961259407e-14,-0.00031970775038352,0.00031970775842886,-0.00031970775843774,0.00031970775028188,-0.00031970775071374,0.00031970775873679,-0.00031970775881384,0.00031970775060415,-0.00032066190855209,0.00032066193376641,-0.00032066193360508,0.00032066190853976,-7.0916677661823e-13,-8.7730775767374e-13,-3.8145056753523e-13,-1.6747869246444e-13,-0.0003202471698028,0.00032024716882201,-0.00031970775462408,0.000319707754496,-0.00031970775455929,0.00031970775450077,-0.0003197077547284,0.00031970775434413,-0.00031970775463882,0.00031970775454037,-0.00032066192190131,0.00032066191968563,-0.00032066192013988,0.00032066191850558,-0.00032066192174595,0.00032066191857906,-0.00032066192173695,0.00032066191798682,-1.2519008788169e-11,1.250057711595e-11,-0.00032024716930124,0.0003202471692843,9.9684660584398e-14,-1.1824803466253e-13,-0.00031970775882275,0.00031970775049473,-0.00031970775880929,0.00031970775030421,-0.00031970775045368,0.00031970775896541,-0.00031970775045888,0.00031970775872235,-0.00032066190653969,0.00032066193164107,-0.00032066193173492,0.00032066190657819,0.00057113469517746,0.00039672503434105,0.79075888033647,0.65446358265354,1368840,32768,0.0013334736027302,0.0013334736027182,0.0013334736026365,32.148097006549,32.157854241684,0.00017238477605239,0.00017238477605239,0.00017238477605239,154274.49416048,0.0040084335898173
3801600,0.2118790209896,0.0037393627935441,0.0012464542645478,0.0012464542645391,0.0012464542644572,-0.00034099978803072,0.00034099978798709,1.2617700905546e-11,-1.2658283283429e-11,-1.0703053911403e-13,7.1986492038552e-14,-0.00034059009724587,0.00034059010545454,-0.0003405901054702,0.00034059009715021,-0.00034059009759817,0.00034059010580548,-0.0003405901058659,0.00034059009749939,-0.00034120856745057,0.00034120859307211,-0.00034120859292035,0.00034120856742038,-7.3624743461684e-13,-9.0929883919169e-13,-3.8182988682964e-13,-1.6532067750796e-13,-0.00034099978851252,0.00034099978750087,-0.00034059010158166,0.00034059010145738,-0.00034059010152452,0.0003405901014658,-0.00034059010168982,0.00034059010131162,-0.00034059010161955,0.0003405901015034,-0.00034120858100439,0.00034120857872569,-0.00034120857926309,0.00034120857756966,-0.00034120858090034,0.00034120857760205,-0.00034120858086515,0.00034120857703459,-1.2739925186383e-11,1.2712209555136e-11,-0.00034099978799349,0.0003409997879692,9.916266182522e-14,-1.2120166501939e-13,-0.0003405901058459,0.00034059009734741,-0.00034059010584004,0.0003405900971769,-0.00034059009731197,0.00034059010596675,-0.00034059009733759,0.00034059010575198,-0.0003412085653867,0.00034120859095229,-0.00034120859103003,0.00034120856541822,0.00064164922054963,0.00046573354164324,0.78997724558809,0.66157502030094,1368840,32768,0.0014198239036204,0.0014198239036112,0.0014198239035058,32.293917476318,32.30376281664,0.00017355133981055,0.00017355133981055,0.00017355133981055,174850.33266312,0.004268556502362
3888000,0.22689415248678,0.0039993809438538,0.0013331269813196,0.0013331269813115,0.0013331269812227,-0.0003621067920136,0.00036210679196235,1.2950422373486e-11,-1.2993688257625e-11,-1.0301286773348e-13,5.1292874214372e-14,-0.00036183847455696,0.00036183848300555,-0.00036183848301847,0.00036183847446481,-0.00036183847489644,0.00036183848330213,-0.00036183848337967,0.00036183847479189,-0.00036209852351236,0.00036209854982977,-0.00036209854969442,0.00036209852350095,-7.8311342201074e-13,-9.3229369553814e-13,-3.8788768706212e-13,-1.6682430069095e-13,-0.00036210679251376,0.00036210679145773,-0.00036183847900405,0.00036183847887997,-0.00036183847892675,0.0003618384788994,-0.00036183847908261,0.00036183847874344,-0.00036183847902055,0.00036183847893817,-0.00036209853748012,0.00036209853510912,-0.00036209853566732,0.00036209853392912,-0.00036209853738016,0.00036209853389052,-0.00036209853740559,0.00036209853342368,-1.3063061579494e-11,1.304064535253e-11,-0.00036210679196838,0.00036210679194449,1.0100752458358e-13,-1.2397335240506e-13,-0.00036183848335505,0.00036183847467027,-0.00036183848337322,0.00036183847451174,-0.0003618384746345,0.00036183848348677,-0.00036183847467594,0.00036183848327759,-0.00036209852141737,0.00036209854768012,-0.00036209854779411,0.00036209852144586,0.00071376935421728,0.00053632935470105,0.7893468489617,0.66868645794834,1368840,32768,0.0015076411220313,0.001507641122022,0.0015076411219001,32.439812797987,32.449671391595,0.00017471850238389,0.00017471850238389,0.00017471850238389,194751.47416221,0.0045331675312718
3974400,0.24216569380986,0.0042635904696003,0.0014211968232381,0.0014211968232302,0.001421196823132,-0.00038355241808454,0.00038355241804016,1.3297038578716e-11,-1.3335214603642e-11,-1.0557700998893e-13,6.6744858049226e-14,-0.00038343907655038,0.00038343908532693,-0.00038343908533997,0.00038343907645554,-0.00038343907696452,0.00038343908562788,-0.00038343908569367,0.00038343907687171,-0.00038331439040837,0.00038331441690311,-0.00038331441675972,0.00038331439034659,-8.1668180093157e-13,-9.8478531254351e-13,-3.8408592085053e-13,-1.7016812501e-13,-0.0003835524186207,0.00038355241749932,-0.00038343908120686,0.00038343908098364,-0.00038343908113951,0.0003834390810824,-0.00038343908129312,0.0003834390809284,-0.00038343908123807,0.00038343908103274,-0.00038331440423597,0.00038331440232911,-0.00038331440284841,0.0003833144017236,-0.00038331440460949,0.00038331440105962,-0.00038331440414472,0.00038331440113825,-1.3403523884487e-11,1.3387681081709e-11,-0.00038355241804719,0.00038355241802739,9.9918116687769e-14,-1.1817657361033e-13,-0.00038343908565313,0.00038343907675469,-0.00038343908568238,0.00038343907661815,-0.00038343907672178,0.00038343908578007,-0.00038343907677044,0.00038343908559237,-0.00038331438881133,0.00038331441521609,-0.00038331441526093,0.00038331438884586,0.00078742984466604,0.00060844166707541,0.78884265697917,0.67579789559573,1368840,32768,0.0015968592947399,0.0015968592947302,0.0015968592946357,32.585715743325,32.595579966551,0.0001758857259466,0.0001758857259466,0.0001758857259466,214396.12317476,0.0048020713523454
4060800,0.25767927286039,0.0045317790576079,0.0015105930192419,0.0015105930192334,0.0015105930191326,-0.00040531995431353,0.00040531995427117,1.3576771783059e-11,-1.3618153518875e-11,-1.109930210041e-13,7.3401272347397e-14,-0.00040537753375633,0.00040537754273939,-0.00040537754275124,0.00040537753366275,-0.00040537753414757,0.00040537754300943,-0.00040537754306586,0.00040537753406553,-0.00040483908273039,0.00040483910978071,-0.00040483910965392,0.00040483908268399,-9.2148473162692e-13,-1.1025786405088e-12,-4.6084108338594e-13,-2.3525969533074e-13,-0.00040531995491898,0.00040531995366082,-0.00040537753850889,0.00040537753825504,-0.00040537753844721,0.00040537753837615,-0.00040537753860664,0.00040537753821497,-0.00040537753854189,0.00040537753830093,-0.00040483909690181,0.0004048390947941,-0.00040483909546092,0.00040483909421654,-0.00040483909726999,0.00040483909354164,-0.00040483909686207,0.00040483909363023,-1.3693629463137e-11,1.3671274079902e-11,-0.00040531995427089,0.00040531995424875,1.0644156445974e-13,-1.2332500456459e-13,-0.00040537754299707,0.0004053775339823,-0.00040537754303841,0.00040537753385823,-0.00040537753394853,0.0004053775431236,-0.00040537753401356,0.00040537754294231,-0.00040483908109574,0.00040483910805177,-0.00040483910811177,0.00040483908110383,0.00086256172826709,0.0006819956043026,0.78844686117382,0.68290933324312,1368840,32768,0.0016874085299767,0.0016874085299665,0.0016874085298414,32.731619515979,32.741488541507,0.00017705295612783,0.00017705295612783,0.00017705295612783,233709.81949899,0.0050750606380271
4147200,0.27341926827486,0.0048037106501054,0.00160123688341,0.0016012368834012,0.0016012368832942,-0.00042739048648231,0.00042739048644809,1.3782812856293e-11,-1.3813299395538e-11,-1.1468804047674e-13,8.8464062189506e-14,-0.00042763555125481,0.00042763556038023,-0.00042763556039523,0.00042763555115925,-0.00042763555165294,0.00042763556066312,-0.00042763556070705,0.00042763555158148,-0.00042665518606824,0.00042665521347369,-0.00042665521328243,0.00042665518603336,-9.8591189577422e-13,-1.1861668222413e-12,-5.1783630545632e-13,-2.7747473657256e-13,-0.00042739048715874,0.00042739048576662,-0.00042763555613708,0.00042763555578445,-0.00042763555606005,0.00042763555591532,-0.00042763555623369,0.0004276355557395,-0.00042763555617196,0.0004276355558291,-0.00042665520043212,0.00042665519834251,-0.00042665519904054,0.00042665519777335,-0.00042665520091476,0.00042665519705496,-0.00042665520040889,0.00042665519712395,-1.3911206948647e-11,1.3882543015487e-11,-0.00042739048645282,0.00042739048642423,1.1010264379275e-13,-1.3440063679986e-13,-0.0004276355606339,0.00042763555148446,-0.00042763556069425,0.00042763555136366,-0.00042763555145297,0.00042763556076155,-0.00042763555153428,0.00042763556058783,-0.00042665518455099,0.00042665521181001,-0.00042665521187934,0.00042665518459416,0.00093908701417776,0.00075691005374009,0.78814694589464,0.69002077089052,1368840,32768,0.0017792097963498,0.0017792097963393,0.0017792097962389,32.877523421223,32.887397116462,0.00017822018736978,0.00017822018736978,0.00017822018736978,252274.31682372,0.0053519003164403
4233600,0.28936885231749,0.0050791276300123,0.0016930425433788,0.0016930425433702,0.0016930425432632,-0.00044974327990354,0.00044974327987668,1.385745814946e-11,-1.3880904094967e-11,-1.2143970186517e-13,1.0209546928879e-13,-0.00045018797111646,0.00045018798028108,-0.00045018798029487,0.00045018797102257,-0.00045018797146976,0.00045018798052322,-0.00045018798055165,0.00045018797141212,-0.00044874738894239,0.000448747416931,-0.00044874741673925,0.00044874738893308,-1.0875042921962e-12,-1.3080669365118e-12,-5.894560145822e-13,-3.7006725352296e-13,-0.00044974328066986,0.00044974327910535,-0.00045018797602978,0.00045018797561564,-0.00045018797595116,0.00045018797573997,-0.00045018797612653,0.00045018797556535,-0.00045018797607732,0.00045018797564779,-0.00044874740386285,0.00044874740121604,-0.00044874740207471,0.00044874740003754,-0.00044874740401634,0.00044874739987412,-0.00044874740394163,0.00044874739933669,-1.3987493662258e-11,1.3967207796683e-11,-0.00044974327987432,0.00044974327985291,1.0110570540775e-13,-1.2251319112964e-13,-0.00045018798048903,0.00045018797135447,-0.00045018798054517,0.00045018797124304,-0.00045018797131872,0.00045018798061637,-0.00045018797139645,0.00045018798045289,-0.00044874738694187,0.00044874741482927,-0.00044874741489583,0.00044874738698724,0.0010169201225998,0.00083309777857708,0.78793422155598,0.69713220853791,1368840,32768,0.0018721765161841,0.0018721765161736,0.0018721765160739,33.023427385222,33.033305691418,0.00017938741908178,0.00017938741908178,0.00017938741908178,269569.16388455,0.0056323323304626
4320000,0.30559775609806,0.0053592473343151,0.0017864157781474,0.0017864157781389,0.0017864157780288,-0.0004726254415011,0.00047262544147757,1.3789183073452e-11,-1.3807469897155e-11,-1.3308258147731e-13,1.0844527530657e-13,-0.00047327771757871,0.00047327772676871,-0.00047327772678217,0.00047327771748675,-0.00047327771794502,0.00047327772692014,-0.00047327772694031,0.00047327771790067,-0.00047136629968576,0.00047136632765575,-0.00047136632748399,0.00047136629967006,-1.1849496682481e-12,-1.4227447420071e-12,-7.0194527664187e-13,-4.7444452075144e-13,-0.00047262544235417,0.00047262544061959,-0.00047327772253769,0.00047327772198918,-0.00047327772242708,0.00047327772220053,-0.00047327772260971,0.00047327772201677,-0.00047327772258553,0.00047327772201751,-0.00047136631476864,0.00047136631177747,-0.00047136631284587,0.00047136631054063,-0.00047136631479861,0.00047136631044471,-0.00047136631476104,0.00047136630984029,-1.3926098331961e-11,1.3904538424425e-11,-0.00047262544147043,0.00047262544144647,1.0612450061641e-13,-1.255203419103e-13,-0.00047327772690359,0.00047327771786433,-0.00047327772696507,0.00047327771775003,-0.00047327771782913,0.0004732777270299,-0.00047327771791238,0.00047327772686252,-0.0004713662975568,0.00047136632545208,-0.00047136632550921,0.00047136629756604,0.0010970935751602,0.00091096316151983,0.78775065699939,0.70348514477375,1368840,32768,0.001967335952844,0.0019673359528338,0.0019673359527156,33.247040287409,33.262008724157,0.00018117632229927,0.00018117632229927,0.00018117632229927,284924.40618162,0.0059194596713195
4406400,0.32217135984881,0.0056451695832535,0.0018817231944607,0.0018817231944521,0.0018817231943407,-0.00049611750657955,0.00049611750655265,1.3547668378031e-11,-1.3567156209161e-11,-1.256643669222e-13,1.0543476433444e-13,-0.00049698865262205,0.00049698866170611,-0.00049698866172225,0.00049698865252513,-0.00049698865301804,0.0004969886617824,-0.00049698866181035,0.00049698865295904,-0.00049458889546928,0.00049458892303035,-0.00049458892285233,0.0004945888955018,-1.2725120006319e-12,-1.4984816194739e-12,-8.0127964645682e-13,-5.3944735848878e-13,-0.000496117507508,0.00049611750561933,-0.00049698865759023,0.00049698865687454,-0.0004969886574464,0.00049698865717588,-0.00049698865763725,0.00049698865698049,-0.00049698865762612,0.00049698865692027,-0.00049458891043807,0.00049458890730361,-0.00049458890845283,0.00049458890599572,-0.00049458891048882,0.00049458890586251,-0.00049458891037447,0.00049458890527012,-1.3704195493293e-11,1.3668048854901e-11,-0.0004961175065483,0.00049611750651199,1.1723680820187e-13,-1.4857680666878e-13,-0.00049698866180231,0.00049698865296393,-0.00049698866186912,0.00049698865283189,-0.00049698865293087,0.00049698866193003,-0.00049698865302007,0.00049698866174583,-0.000494588893289,0.00049458892070301,-0.0004945889208411,0.00049458889328582,0.0011799456913401,0.00099087283124895,0.78747028339155,0.70739061052005,1368840,32768,0.0020650223508224,0.0020650223508123,0.0020650223506729,33.544637660841,33.564636008293,0.00018355710128673,0.00018355710128673,0.00018355710128673,298667.06700846,0.006214296994475
4492800,0.33907490819319,0.0059366532809109,0.0019788844270143,0.0019788844270067,0.0019788844268899,-0.00052006563829659,0.00052006563824231,1.3103371553935e-11,-1.3150809192983e-11,-1.0473488865634e-13,5.3646272907893e-14,-0.00052116944885735,0.00052116945786669,-0.00052116945788307,0.00052116944875909,-0.00052116944952257,0.00052116945790845,-0.00052116945798785,0.00052116944941439,-0.00051826010207439,0.0005182601287692,-0.00051826012863245,0.00051826010202087,-1.3696085270467e-12,-1.5207184107435e-12,-8.7417150054307e-13,-6.114586144767e-13,-0.00052006563928042,0.00052006563725394,-0.00052116945399805,0.00052116945287688,-0.00052116945382578,0.00052116945340019,-0.00052116945399016,0.00052116945323267,-0.0005211694540101,0.00052116945294555,-0.00051826011670246,0.00051826011339909,-0.00051826011468288,0.00051826011207125,-0.00051826011672449,0.00051826011196997,-0.00051826011659775,0.00051826011137266,-1.3292345413266e-11,1.3254411344185e-11,-0.00052006563825478,0.00052006563821645,1.1679171150515e-13,-1.4985991452954e-13,-0.00052116945799773,0.0005211694494365,-0.00052116945804526,0.00052116944928768,-0.00052116944940616,0.00052116945812188,-0.00052116944947622,0.00052116945792133,-0.00051826009986143,0.00051826012649396,-0.00051826012659633,0.00051826009986762,0.0012648365820667,0.0010727469021233,0.78723095699197,0.71129607626636,1368840,32768,0.0021645953682695,0.0021645953682601,0.0021645953681289,33.846775257696,33.86726329243,0.00018597420206157,0.00018597420206157,0.00018597420206157,310978.35422939,0.0065149174880646
4579200,0.35628669631811,0.0062333392624511,0.0020777797541948,0.0020777797541872,0.0020777797540691,-0.00054443606513661,0.00054443606509512,1.2631998630525e-11,-1.2680643703274e-11,-8.6658382057677e-14,9.0619555164205e-14,-0.00054577140171148,0.00054577141052218,-0.00054577141062728,0.00054577140121357,-0.00054577140271297,0.00054577141131823,-0.00054577141100271,0.00054577140270868,-0.00054235723330256,0.00054235725903251,-0.00054235725857415,0.00054235723278551,-1.2922819481441e-12,-1.459748229223e-12,-8.4207399580568e-13,-5.9670549164506e-13,-0.00054443606623057,0.0005444360641576,-0.00054577140704393,0.00054577140592201,-0.00054577140727418,0.00054577140634081,-0.00054577140735244,0.00054577140607287,-0.00054577140715572,0.00054577140608204,-0.00054235724740004,0.00054235724386461,-0.00054235724543701,0.00054235724307025,-0.00054235724782143,0.00054235724297477,-0.00054235724732917,0.00054235724224046,-1.2809258568296e-11,1.2827609728269e-11,-0.00054443606511887,0.00054443606511177,1.0367524455715e-13,-1.4652452377638e-13,-0.00054577141094467,0.00054577140270263,-0.00054577141084715,0.00054577140246606,-0.00054577140271439,0.00054577141115295,-0.00054577140263483,0.00054577141047622,-0.00054235723093164,0.0005423572569805,-0.00054235725654569,0.00054235723118307,0.0013516268706524,0.001156466407277,0.78703238771466,0.71520154201263,1368840,32768,0.0022659140457444,0.0022659140460696,0.0022659140457422,34.149336031472,34.169890576567,0.00018839468825177,0.00018839468825177,0.00018839468825177,319514.58316392,0.0068209005160719
4665600,0.37378230605005,0.0065348258930035,0.0021782752976867,0.0021782752977386,0.0021782752975781,-0.00056919356152141,0.00056919356155019,1.2120649310719e-11,-1.2115447940205e-11,-5.6299485971702e-14,1.0785885204493e-13,-0.00057077976818788,0.00057077977612592,-0.00057077977619552,0.00057077976789877,-0.00057077976908159,0.00057077977667507,-0.00057077977690147,0.0005707797686752,-0.00056683220924389,0.00056683223457588,-0.00056683223406636,0.0005668322094415,-1.2483347759942e-12,-1.4012152526594e-12,-8.1838427833382e-13,-6.0645084099015e-13,-0.00056919356261439,0.00056919356055416,-0.00057077977340902,0.00057077977145102,-0.00057077977322328,0.00057077977259198,-0.00057077977337557,0.00057077977226253,-0.0005707797726402,0.00057077977133847,-0.00056683222323661,0.00056683222000722,-0.00056683222119905,0.00056683221882244,-0.00056683222323686,0.00056683221889247,-0.00056683222311804,0.00056683221796105,-1.2228662305114e-11,1.236018505189e-11,-0.00056919356150006,0.00056919356164269,1.4307296745435e-13,-7.5252186391478e-14,-0.00057077977646623,0.00057077976903745,-0.00057077977663025,0.00057077976824575,-0.00057077976841402,0.00057077977699402,-0.00057077976812845,0.00057077977642797,-0.00056683220755207,0.00056683223265994,-0.00056683223262993,0.00056683220778591,0.0014401720237213,0.001241898334425,0.7868741760101,0.71910700775899,1368840,32768,0.0023688314246417,0.0023688314248432,0.0023688314247896,34.451939086897,34.472517860702,0.00019081551269517,0.00019081551269517,0.00019081551269517,328246.26100246,0.0071318068995516
4752000,0.39153499596312,0.0068406732382357,0.0022802244127399,0.0022802244128233,0.0022802244126726,-0.00059430358299109,0.00059430358300552,1.1549328234774e-11,-1.1574587051369e-11,-1.0361418759887e-13,9.2383824796391e-14,-0.00059615096419695,0.00059615097193881,-0.00059615097170361,0.00059615096385688,-0.00059615096533048,0.00059615097265161,-0.00059615097258084,0.00059615096527846,-0.00059165643904549,0.00059165646259056,-0.00059165646223519,0.00059165643879168,-1.2533484610648e-12,-1.4360523354692e-12,-8.4451762703678e-13,-5.8516030022509e-13,-0.0005943035840983,0.00059430358190683,-0.0005961509693631,0.00059615096730532,-0.00059615096910295,0.00059615096775245,-0.00059615096964125,0.00059615096738977,-0.00059615096921809,0.00059615096735314,-0.00059165645266216,0.00059165644901876,-0.00059165645007731,0.00059165644743612,-0.00059165645237218,0.00059165644772858,-0.00059165645208688,0.00059165644668416,-1.1752571614063e-11,1.1754899292954e-11,-0.00059430358293447,0.00059430358299097,1.5697418984037e-13,-1.0936332079033e-13,-0.00059615097282491,0.00059615096500918,-0.00059615097257805,0.00059615096421309,-0.00059615096454556,0.00059615097315214,-0.00059615096427386,0.00059615097260187,-0.0005916564366638,0.00059165646058227,-0.00059165646033629,0.0005916564367715,0.0015303292444124,0.0013288970828007,0.78675591930712,0.72301247350553,1368840,32768,0.002473203431865,0.0024732034318827,0.0024732034317171,34.754546476115,34.775145144829,0.00019323637180892,0.00019323637180892,0.00019323637180892,335590.78450537,0.0074472056975058
4838400,0.40951581078077,0.0071504038809053,0.0023834679603103,0.0023834679603724,0.0023834679602226,-0.00061972797091322,0.00061972797065883,1.0878638723878e-11,-1.1110175591762e-11,-1.9152523727076e-13,-2.328805327184e-14,-0.00062184456970249,0.00062184457683409,-0.00062184457689428,0.00062184456927722,-0.00062184457063511,0.00062184457732392,-0.00062184457763916,0.00062184457035549,-0.00061679374494085,0.00061679376813594,-0.00061679376801177,0.00061679374535012,-1.2366367804187e-12,-1.3859289549394e-12,-8.1757295017816e-13,-5.4332279892027e-13,-0.00061972797189851,0.00061972796974975,-0.00062184457475473,0.00062184457284101,-0.00062184457429253,0.000621844572801,-0.0006218445744106,0.00062184457248237,-0.00062184457472387,0.00062184457285771,-0.00061679375856461,0.00061679375512393,-0.00061679375589172,0.00061679375369999,-0.00061679375827885,0.00061679375400362,-0.00061679375847807,0.00061679375284195,-1.1165635956309e-11,1.1245040559965e-11,-0.00061972797072381,0.00061972797079398,1.9280944803901e-13,-8.2224032229903e-14,-0.00062184457760035,0.0006218445703379,-0.00062184457754736,0.00062184456956481,-0.00062184457002089,0.00062184457799067,-0.00062184456993486,0.00062184457770285,-0.00061679374342613,0.00061679376638054,-0.00061679376651821,0.00061679374361546,0.0016219408301954,0.0014173045968983,0.78667726558651,0.72691793925145,1368840,32768,0.0025788710266038,0.0025788710267621,0.002578871026491,35.057154347293,35.077772428964,0.00019565723477835,0.00019565723477835,0.00019565723477835,341588.97527485,0.0077666202400244
4924800,0.4276936936113,0.0074635049153452,0.0024878349717872,0.0024878349718622,0.0024878349716958,-0.00064542562874213,0.00064542562871331,1.0417504928846e-11,-1.0490793101707e-11,-4.441564313259e-14,1.0757489013154e-13,-0.000647817980464,0.00064781798750658,-0.00064781798701146,0.00064781798000627,-0.00064781798093386,0.00064781798729512,-0.00064781798788588,0.00064781798117603,-0.00064220451828289,0.00064220453977992,-0.00064220453953957,0.00064220451817731,-1.0340156615313e-12,-1.1732197177665e-12,-7.2709808177035e-13,-4.4738733262409e-13,-0.00064542562963845,0.00064542562773779,-0.00064781798472168,0.00064781798342992,-0.00064781798447699,0.00064781798353146,-0.00064781798485379,0.00064781798382157,-0.00064781798514633,0.00064781798378669,-0.00064220453055272,0.00064220452725143,-0.00064220452785673,0.00064220452557171,-0.00064220452997856,0.00064220452619682,-0.00064220452987999,0.00064220452509672,-1.0739647793485e-11,1.0617261120549e-11,-0.00064542562878113,0.00064542562862935,6.450191186381e-14,-2.1551212213495e-13,-0.00064781798814216,0.00064781798049943,-0.00064781798815253,0.00064781798062689,-0.00064781798070993,0.00064781798847552,-0.00064781798104107,0.00064781798708855,-0.0006422045160924,0.00064220453797221,-0.00064220453794184,0.00064220451620804,0.0017148366732467,0.0015069510495071,0.78663793565848,0.73082340499797,1368840,32768,0.0026856630232678,0.0026856630231033,0.0026856630231744,35.35976230782,35.380399713095,0.00019807809846256,0.00019807809846256,0.00019807809846256,346194.89169267,0.0080895365677303
5011200,0.44603562243911,0.0077792655741687,0.0025930885247319,0.002593088524788,0.0025930885246488,-0.00067138456350139,0.0006713845634111,1.0035590066671e-11,-1.0150175389697e-11,-9.0765080130282e-14,5.7283132392567e-14,-0.00067405907348682,0.00067405908017516,-0.0006740590801624,0.00067405907320464,-0.00067405907437822,0.00067405908072795,-0.00067405908098225,0.00067405907433698,-0.00066787218177269,0.00066787220248978,-0.00066787220231583,0.00066787218161287,-8.7933906326581e-13,-1.0157773216413e-12,-5.2553346001942e-13,-2.4869829949649e-13,-0.00067138456426675,0.00067138456266807,-0.00067405907786862,0.00067405907662059,-0.00067405907756821,0.00067405907682367,-0.0006740590777759,0.00067405907673271,-0.00067405907792219,0.00067405907679607,-0.00066787219318569,0.00066787219054752,-0.00066787219097518,0.00066787218911032,-0.00066787219292548,0.00066787218946681,-0.00066787219280825,0.00066787218849464,-1.0349203780105e-11,1.0321058610509e-11,-0.00067138456345824,0.00067138456341302,1.152883309618e-13,-1.6523568745729e-13,-0.00067405908097616,0.0006740590736381,-0.00067405908105072,0.00067405907350536,-0.00067405907361772,0.00067405908118544,-0.00067405907368422,0.00067405908069357,-0.00066787217956127,0.00066787220055572,-0.0006678722005022,0.00066787217964268,0.001808969486469,0.0015976042345842,0.78623074836232,0.72885757449046,1368840,32768,0.0027935292228227,0.0027935292228691,0.0027935292227371,35.662369923551,35.683026997241,0.00020049895938841,0.00020049895938841,0.00020049895938841,350693.47999873,0.0084158061356097
5097600,0.46439166228198,0.0080938299361603,0.00269794331206,0.0026979433121237,0.0026979433119766,-0.00069695683942578,0.00069695683931861,9.3578143016671e-12,-9.4756550252433e-12,-1.0320628829521e-13,1.771416472678e-14,-0.00069998274014945,0.00069998274638226,-0.0006999827464041,0.00069998273990267,-0.00069998274083844,0.00069998274671676,-0.00069998274691611,0.00069998274071878,-0.00069306928986154,0.00069306930969434,-0.00069306930960009,0.00069306928974465,-8.9836262916775e-13,-1.0080077942891e-12,-5.4191084205458e-13,-2.6841450600344e-13,-0.00069695684012289,0.00069695683865221,-0.00069998274399626,0.00069998274306505,-0.00069998274371241,0.00069998274334005,-0.00069998274388059,0.00069998274318641,-0.00069998274394994,0.00069998274320041,-0.00069306930108642,0.00069306929796474,-0.00069306929853472,0.00069306929663393,-0.00069306930040132,0.00069306929672906,-0.00069306930031982,0.00069306929604297,-9.677119341235e-12,9.6429366796095e-12,-0.00069695683938786,0.00069695683934526,1.1845455776516e-13,-1.5882054520019e-13,-0.00069998274698877,0.00069998274047713,-0.00069998274696575,0.00069998274018715,-0.00069998274042949,0.00069998274717765,-0.00069998274037105,0.00069998274673625,-0.00069306928726546,0.00069306930720458,-0.00069306930720887,0.00069306928726382,0.0019016410245771,0.0016880107403104,0.78257455339621,0.68033219149736,1368840,32768,0.0028997773263602,0.002899777326424,0.0028997773263368,35.864756250706,35.878820768645,0.00020211805000564,0.00020211805000564,0.00020211805000564,367621.21695842,0.0087372847858128
5184000,0.48262791579117,0.0084061491472123,0.0028020497157391,0.0028020497158031,0.0028020497156701,-0.00072219669174661,0.00072219669163505,8.8426223639566e-12,-8.9696923055865e-12,-1.0439751660988e-13,2.1573576236172e-14,-0.00072558708655721,0.00072558709243294,-0.00072558709246684,0.00072558708630942,-0.00072558708718348,0.00072558709276266,-0.00072558709296304,0.00072558708705883,-0.00071792546325019,0.00071792548162916,-0.00071792548153964,0.00071792546313567,-8.3005228953115e-13,-9.4440303148859e-13,-4.5019895261338e-13,-2.0530019880808e-13,-0.00072219669236486,0.00072219669104806,-0.00072558709010226,0.00072558708937193,-0.00072558708986728,0.0007255870896275,-0.00072558709002414,0.00072558708948345,-0.00072558709006134,0.0007255870894986,-0.00071792547341251,0.000717925470966,-0.00071792547139436,0.00071792546961102,-0.00071792547327863,0.00071792546971435,-0.0007179254732014,0.00071792546902314,-9.1690020109295e-12,9.1437910311076e-12,-0.00072219669170425,0.00072219669166842,1.0686791172924e-13,-1.4196578068991e-13,-0.00072558709299925,0.00072558708686099,-0.00072558709296333,0.00072558708657748,-0.00072558708682084,0.00072558709318395,-0.00072558708674456,0.00072558709275616,-0.00071792546105121,0.00071792547966907,-0.00071792547966469,0.00071792546106604,0.0019930692160544,0.0017777922089922,0.78233431462816,0.68861650922473,1368840,32768,0.003004633183617,0.0030046331836819,0.0030046331835983,35.97914260567,35.987182163772,0.00020303314084536,0.00020303314084536,0.00020303314084536,386458.77636919,0.009054651420171
5270400,0.50070995464227,0.0087185943776632,0.0029061981258872,0.0029061981259518,0.0029061981258242,-0.00074748512662245,0.00074748512650186,8.4035498067336e-12,-8.531000854368e-12,-1.0246116399942e-13,1.0837904203584e-16,-0.00075113973675342,0.00075113974233923,-0.00075113974237249,0.00075113973650977,-0.00075113973738169,0.00075113974265797,-0.00075113974286651,0.00075113973723841,-0.00074299805291273,0.00074299807049503,-0.00074299807042786,0.00074299805280142,-8.3214691671819e-13,-9.2279548570193e-13,-4.2371436464054e-13,-2.0918794768708e-13,-0.0007474851272204,0.00074748512593827,-0.00075113974012424,0.00075113973944717,-0.00075113973990889,0.00075113973969433,-0.00075113974005248,0.0007511397395609,-0.00075113974008527,0.00075113973957224,-0.00074299806263913,0.00074299806024749,-0.00074299806057464,0.00074299805877942,-0.00074299806244582,0.00074299805894202,-0.00074299806248452,0.00074299805818564,-8.7291934467792e-12,8.7039465857005e-12,-0.00074748512657588,0.00074748512654442,9.5548110482576e-14,-1.2303138853436e-13,-0.0007511397429088,0.00075113973707288,-0.00075113974286405,0.0007511397368052,-0.00075113973703145,0.00075113974307953,-0.00075113973695478,0.00075113974267096,-0.0007429980506958,0.00074299806843899,-0.00074299806844061,0.00074299805071589,0.0020848236228804,0.0018676733289108,0.78946347941163,0.80400170950033,1368840,32768,0.0031096799496887,0.0031096799497601,0.0031096799496804,36.088074360439,36.095543558898,0.00020390459488351,0.00020390459488351,0.00020390459488351,374287.1689879,0.0093726956166389
5356800,0.51861083235919,0.0090267802047244,0.0030089267349045,0.003008926734971,0.0030089267348489,-0.00077250466669295,0.00077250466651309,8.0786967013612e-12,-8.2806290912888e-12,-1.2885100486672e-13,-5.3921940957011e-14,-0.00077640581594915,0.00077640582124164,-0.00077640582133497,0.00077640581562236,-0.00077640581654059,0.00077640582163387,-0.00077640582186511,0.00077640581639592,-0.000767788618949,0.00076778863593844,-0.00076778863598249,0.00076778861842541,-8.196907531278e-13,-8.8214722747832e-13,-4.0520634181264e-13,-1.6394955027731e-13,-0.0007725046672288,0.0007725046660153,-0.00077640581916299,0.0007764058185225,-0.00077640581893093,0.00077640581876306,-0.00077640581906622,0.00077640581860767,-0.00077640581905376,0.00077640581866591,-0.00076778862848216,0.00076778862607483,-0.00076778862618288,0.00076778862446299,-0.00076778862827855,0.00076778862466401,-0.00076778862829827,0.00076778862387884,-8.4454268215372e-12,8.4132153202823e-12,-0.00077250466662524,0.00077250466656678,8.3838438793244e-14,-1.6144674438337e-13,-0.00077640582185111,0.00077640581622737,-0.0007764058218212,0.00077640581592867,-0.00077640581620323,0.00077640582204214,-0.00077640581614104,0.00077640582163206,-0.00076778861656642,0.00076778863410144,-0.00076778863388796,0.00076778861655554,0.0021756074417286,0.0019562897834005,0.78637949114461,0.74770296004574,1368840,32768,0.0032135988443619,0.003213598844441,0.0032135988443328,36.196489290887,36.203904954026,0.00020477191432709,0.00020477191432709,0.00020477191432709,359333.57352052,0.0096874238129582
5443200,0.53630363086578,0.009329480917728,0.0031098269725741,0.0031098269726368,0.003109826972517,-0.00079697034800108,0.00079697034785614,7.8461138654307e-12,-7.9942512517e-12,-9.8347172031991e-14,-2.9489540291257e-14,-0.00080123285487173,0.00080123286006239,-0.00080123286011911,0.00080123285461388,-0.00080123285549319,0.00080123286039114,-0.00080123286063392,0.00080123285532039,-0.00079187963454029,0.00079187965091004,-0.00079187965086196,0.00079187963431613,-7.9311552086525e-13,-8.4889136106927e-13,-3.7042016921221e-13,-1.3142572032858e-13,-0.00079697034852243,0.00079697034736512,-0.00080123285798703,0.00080123285741709,-0.00080123285776541,0.00080123285766114,-0.00080123285789586,0.00080123285752776,-0.00080123285792912,0.00080123285756324,-0.00079187964359625,0.0007918796413773,-0.00079187964155069,0.00079187963997382,-0.00079187964347833,0.00079187964000193,-0.00079187964338188,0.00079187963935724,-8.1790236658531e-12,8.1629629506145e-12,-0.00079697034794288,0.00079697034790763,1.0380029956033e-13,-1.3946715113897e-13,-0.00080123286064693,0.00080123285516761,-0.00080123286060187,0.00080123285488872,-0.00080123285513432,0.0008012328608195,-0.00080123285505269,0.00080123286040606,-0.00079187963229742,0.00079187964900105,-0.00079187964895403,0.00079187963233339,0.0022642363368969,0.0020432475866204,0.781292196814,0.6763339277157,1368840,32768,0.0033152067485189,0.0033152067485819,0.003315206748505,36.304852454912,36.312266349152,0.0002056388196393,0.0002056388196393,0.0002056388196393,375826.16006918,0.0099952481822419
5529600,0.55376173782065,0.0096258045290628,0.0032086015096845,0.0032086015097464,0.003208601509632,-0.00082090004148381,0.00082090004131051,7.5911568306637e-12,-7.767829433437e-12,-5.6275427883131e-14,-9.9057356218704e-14,-0.00082559590543568,0.000825595910486,-0.00082559591053715,0.00082559590518562,-0.00082559590603216,0.00082559591074697,-0.000825595911061,0.00082559590582345,-0.00081532281270343,0.00081532282832646,-0.00081532282839123,0.00081532281243345,-8.00355843796e-13,-7.4381927683167e-13,-2.9257822370081e-13,-1.0165207106959e-13,-0.00082090004194593,0.00082090004087618,-0.00082559590846928,0.00082559590790914,-0.00082559590823664,0.00082559590817724,-0.00082559590833575,0.00082559590810705,-0.00082559590836854,0.00082559590812606,-0.00081532282133992,0.00081532281940978,-0.00081532281943239,0.0008153228177593,-0.00081532282155178,0.00081532281789497,-0.00081532282123421,0.00081532281748976,-7.9276887263159e-12,7.9321887211971e-12,-0.00082090004139022,0.00082090004139112,9.9446079637588e-14,-9.5948054146925e-14,-0.00082559591105906,0.00082559590577382,-0.00082559591098268,0.00082559590551846,-0.00082559590571076,0.00082559591125308,-0.00082559590559751,0.00082559591084406,-0.00081532281056454,0.00081532282662516,-0.00081532282657987,0.00081532281063966,0.0023507869638746,0.0021282583564252,0.77529935030777,0.60141412576628,1368840,32768,0.0034145785529987,0.0034145785530564,0.0034145785529718,36.413210780083,36.420627744279,0.00020650568624066,0.00020650568624066,0.00020650568624066,407140.74280162,0.010296389424091
5616000,0.57096042221775,0.0099157253577458,0.0033052417859116,0.0033052417859728,0.0033052417858614,-0.00084429027501357,0.00084429027482244,7.3957292420189e-12,-7.5902276531671e-12,-9.8145384078827e-14,-9.6728868528875e-14,-0.00084949160674075,0.00084949161156622,-0.00084949161172344,0.00084949160647364,-0.000849491607384,0.00084949161193436,-0.00084949161225379,0.0008494916071202,-0.00083812925681778,0.00083812927231995,-0.00083812927247037,0.00083812925673928,-7.6913778278046e-13,-7.5617513466281e-13,-2.7104905787263e-13,-9.0006603301228e-14,-0.0008442902754531,0.00084429027440979,-0.00084949160959179,0.00084949160917438,-0.00084949160941966,0.00084949160939191,-0.00084949160950431,0.00084949160929009,-0.00084949160954707,0.00084949160929988,-0.00083812926532509,0.00083812926334831,-0.0008381292632622,0.00083812926194231,-0.00083812926542748,0.00083812926188276,-0.00083812926517783,0.00083812926137675,-7.7543076406361e-12,7.7328563400762e-12,-0.00084429027492021,0.00084429027490147,9.9545856001254e-14,-8.5594988073045e-14,-0.00084949161216553,0.00084949160695803,-0.00084949161211859,0.00084949160674663,-0.00084949160700041,0.00084949161238895,-0.00084949160687199,0.00084949161199256,-0.00083812925470172,0.00083812927036896,-0.00083812927051181,0.00083812925460398,0.0024352433784366,0.0022113083934741,0.77036209113159,0.54799038503428,1368840,32768,0.0035117005029316,0.0035117005029874,0.0035117005029019,36.521569059864,36.528989139406,0.00020737255247891,0.00020737255247891,0.00020737255247891,449153.40008478,0.01059079982466
5702400,0.5878765853413,0.010199135152437,0.0033997117174756,0.003399711717534,0.0033997117174278,-0.00086715649521104,0.00086715649502529,7.2159369992543e-12,-7.4214721614727e-12,-1.0285229910933e-13,-7.9092113201997e-14,-0.00087291467621212,0.00087291468098855,-0.00087291468108035,0.00087291467598949,-0.00087291467685238,0.00087291468134186,-0.00087291468162676,0.00087291467661456,-0.00086034138283661,0.00086034139787075,-0.00086034139800804,0.00086034138257073,-7.1784720261365e-13,-7.2612902313913e-13,-2.3305610088433e-13,-7.556155929329e-14,-0.00086715649562011,0.00086715649464267,-0.00087291467903352,0.00087291467867262,-0.00087291467884698,0.00087291467888274,-0.00087291467892472,0.00087291467877803,-0.0008729146789311,0.00087291467878948,-0.00086034139097831,0.00086034138916731,-0.00086034138917734,0.00086034138770163,-0.00086034139109617,0.00086034138783878,-0.00086034139089141,0.0008603413872341,-7.560162718689e-12,7.5781076116613e-12,-0.00086715649510708,0.00086715649511344,8.5522255000873e-14,-7.6135468231354e-14,-0.00087291468156074,0.00087291467648883,-0.00087291468148647,0.00087291467623519,-0.00087291467645191,0.00087291468171629,-0.00087291467632393,0.0008729146813934,-0.00086034138064077,0.00086034139606396,-0.0008603413960243,0.00086034138061955,0.0025176688779532,0.0022923596657291,0.76613508518354,0.50714110322116,1368840,32768,0.0036066373782103,0.0036066373782652,0.0036066373781775,36.629927510369,36.637350534533,0.00020823942008295,0.00020823942008295,0.00020823942008295,494922.67043758,0.010878669919836
5788800,0.6044888487377,0.010475705311503,0.0034919017704982,0.0034919017705542,0.0034919017704501,-0.0008894684732272,0.00088946847303353,7.0815875153036e-12,-7.286186088487e-12,-9.0228743573819e-14,-9.1650258971029e-14,-0.00089583848029099,0.00089583848497505,-0.00089583848506348,0.00089583848003404,-0.00089583848093593,0.00089583848530604,-0.00089583848560667,0.00089583848068158,-0.00088192680822945,0.00088192682308194,-0.00088192682314696,0.00088192680803715,-7.0245549634912e-13,-6.8501372035988e-13,-1.9701409900157e-13,-6.0289790541225e-14,-0.00088946847360632,0.00088946847268122,-0.00089583848304638,0.00089583848269947,-0.00089583848287548,0.00089583848289265,-0.00089583848293919,0.00089583848283747,-0.00089583848297283,0.0008958384828377,-0.00088192681627918,0.00088192681448712,-0.00088192681440668,0.00088192681300741,-0.00088192681635869,0.00088192681301312,-0.00088192681620441,0.00088192681255208,-7.4430167974165e-12,7.4277816451929e-12,-0.00088946847312793,0.00088946847311821,6.5975646254e-14,-7.4813979190172e-14,-0.00089583848554806,0.00089583848055487,-0.00089583848547876,0.0008958384803324,-0.00089583848052168,0.00089583848572851,-0.00089583848040572,0.00089583848537024,-0.00088192680596345,0.00088192682116708,-0.00088192682117543,0.00088192680602916,0.0025979381885792,0.0023713074822388,0.76186091004009,0.46629182140804,1368840,32768,0.0036992642926005,0.0036992642926562,0.0036992642925703,36.738286059635,36.74571192966,0.00020910628847708,0.00020910628847708,0.00020910628847708,544192.37195126,0.011159615307999
5875200,0.62071830513728,0.010745793840863,0.0035819312802852,0.0035819312803407,0.0035819312802367,-0.00091113143929109,0.00091113143907582,6.9786261312914e-12,-7.2023849132613e-12,-8.5663559507647e-14,-1.2667739479843e-13,-0.00091811958330567,0.00091811958789863,-0.00091811958799859,0.00091811958302335,-0.00091811958393131,0.00091811958824781,-0.0009181195885738,0.00091811958366635,-0.00090287491154757,0.00090287492612954,-0.00090287492619978,0.00090287491126267,-7.381020691355e-13,-6.809913726516e-13,-2.0666473065199e-13,-7.3497534112548e-14,-0.00091113143966993,0.00091113143872293,-0.00091811958601761,0.00091811958562723,-0.00091811958586515,0.00091811958585262,-0.00091811958592474,0.00091811958580574,-0.00091811958595413,0.00091811958579626,-0.000902874919512,0.0009028749176767,-0.0009028749176536,0.00090287491621221,-0.00090287491958087,0.00090287491625358,-0.00090287491939575,0.00090287491574744,-7.3343572933603e-12,7.3469617465383e-12,-0.00091113143917276,0.00091113143917673,6.9149122835881e-14,-6.8091155156067e-14,-0.00091811958848146,0.00091811958357059,-0.00091811958841879,0.00091811958333526,-0.00091811958351848,0.00091811958865924,-0.00091811958339618,0.00091811958830382,-0.00090287490934287,0.00090287492436545,-0.00090287492430345,0.00090287490943672,0.0026756378303721,0.0024482257301333,0.7621007581784,0.49184196051334,1368840,32768,0.0037891885967109,0.0037891885967647,0.0037891885966748,36.784574640879,36.787895818024,0.00020947659712703,0.00020947659712703,0.00020947659712703,586479.00241404,0.011432438406338
5961600,0.63650573168838,0.011006730702587,0.0036689102341943,0.0036689102342482,0.0036689102341446,-0.00093206594966604,0.00093206594944381,6.8892304799143e-12,-7.1194990630142e-12,-7.8548482750711e-14,-1.353181896516e-13,-0.00093966794811523,0.00093966795266023,-0.00093966795276483,0.00093966794784381,-0.00093966794876266,0.00093966795298538,-0.00093966795333612,0.00093966794846909,-0.00092307671818685,0.00092307673262743,-0.00092307673273242,0.000923076717908,-7.0720807174944e-13,-6.336682595167e-13,-1.6767274535978e-13,-3.6983208423663e-14,-0.00093206595000149,0.00093206594913375,-0.00093966795076589,0.00093966795047877,-0.00093966795060797,0.00093966795067564,-0.00093966795065378,0.0009396679506287,-0.00093966795068889,0.00093966795063135,-0.00092307672603335,0.0009230767242787,-0.00092307672415448,0.00092307672282397,-0.00092307672611746,0.00092307672280738,-0.00092307672589143,0.00092307672234418,-7.2447498543355e-12,7.2622226440832e-12,-0.00093206594954171,0.00093206594954957,7.197603647561e-14,-6.2745039064479e-14,-0.00093966795324201,0.00093966794838038,-0.00093966795316482,0.00093966794815365,-0.00093966794834134,0.00093966795341454,-0.00093966794822235,0.00093966795307266,-0.00092307671591997,0.00092307673079942,-0.00092307673075119,0.00092307671600239,0.0027504482829954,0.0025222777220476,0.75737028215858,0.44077103288462,1368840,32768,0.003876081199489,0.0038760811995417,0.0038760811994505,36.780618152152,36.780475049482,0.00020944494521721,0.00020944494521721,0.00020944494521721,618535.60337473,0.011696134123333
6048000,0.65184151331441,0.01125934495105,0.0037531149836822,0.0037531149837355,0.0037531149836321,-0.00095218029127247,0.00095218029103909,6.8025941560062e-12,-7.0431605421624e-12,-7.5254524555343e-14,-1.4925194045567e-13,-0.00096048281365276,0.00096048281814138,-0.00096048281825429,0.00096048281337757,-0.00096048281430849,0.00096048281846447,-0.0009604828188336,0.0009604828139971,-0.00094237617906963,0.0009423761933235,-0.00094237619344249,0.00094237617876352,-6.5054147934553e-13,-5.5876651830171e-13,-1.0262946768139e-13,2.7080334479076e-14,-0.00095218029154015,0.00095218029079673,-0.00096048281622275,0.00096048281604439,-0.00096048281606558,0.00096048281624447,-0.00096048281610614,0.00096048281620136,-0.00096048281613816,0.00096048281620344,-0.00094237618673698,0.00094237618512763,-0.00094237618487568,0.00094237618367835,-0.00094237618684576,0.00094237618364832,-0.00094237618658841,0.00094237618321313,-7.1630832315477e-12,7.1827391898952e-12,-0.00095218029114108,0.00095218029115037,7.2027843716463e-14,-6.1657778161907e-14,-0.00096048281872572,0.00096048281391657,-0.00096048281865165,0.00096048281368873,-0.00096048281387629,0.00096048281890116,-0.00096048281375933,0.00096048281856091,-0.00094237617677407,0.00094237619149985,-0.00094237619144016,0.00094237617686063,0.0028219827200706,0.002593713348653,0.75516890437682,0.42834657677503,1368840,32768,0.003959562257742,0.0039595622577945,0.0039595622577003,36.773526004955,36.77305428094,0.00020938820803964,0.00020938820803964,0.00020938820803964,665942.71029974,0.01194954211981
6134400,0.66672026121416,0.011504257314415,0.0038347524381374,0.0038347524381903,0.0038347524380869,-0.0009717487375718,0.000971748737328,6.7428507458323e-12,-6.9939682802463e-12,-7.2637986841716e-14,-1.6266873646411e-13,-0.00098071248316741,0.00098071248762108,-0.00098071248773904,0.00098071248288888,-0.00098071248383369,0.00098071248794521,-0.00098071248833029,0.00098071248350607,-0.00096118198244911,0.00096118199658386,-0.00096118199670805,0.00096118198211801,-7.1260487746897e-13,-6.0505272193702e-13,-1.5521194955795e-13,-2.2878639308568e-14,-0.00097174873788815,0.00097174873703767,-0.00098071248577714,0.00098071248548451,-0.00098071248562369,0.00098071248568786,-0.00098071248565829,0.00098071248565039,-0.00098071248568616,0.00098071248565058,-0.00096118199010796,0.00096118198838748,-0.00096118198822955,0.00096118198693987,-0.00096118199023155,0.00096118198691003,-0.00096118198995003,0.00096118198649714,-7.1067618344807e-12,7.1263104725773e-12,-0.00097174873743416,0.00097174873744384,7.3494548909626e-14,-6.2819727959255e-14,-0.00098071248820091,0.00098071248343157,-0.00098071248812589,0.00098071248320492,-0.0009807124833913,0.00098071248837815,-0.00098071248327406,0.00098071248803638,-0.00096118198015157,0.00096118199477767,-0.00096118199470923,0.00096118198024961,0.0028913723140551,0.0026627132260243,0.75514728475336,0.44713313593455,1368840,32768,0.0040407709374445,0.0040407709374985,0.0040407709373993,36.76613840708,36.765633512398,0.00020932910725664,0.00020932910725664,0.00020932910725664,697118.90557904,0.012196113393117
6220800,0.68113916547201,0.011741540743094,0.0039138469143643,0.003913846914417,0.0039138469143129,-0.00099078316343867,0.00099078316318503,6.7003748375598e-12,-6.9605380368115e-12,-7.047055305533e-14,-1.7740299222507e-13,-0.0010003575587269,0.0010003575631541,-0.0010003575632758,0.001000357558445,-0.0010003575594,0.0010003575634768,-0.0010003575638737,0.0010003575590583,-0.00097951663230567,0.00097951664635903,-0.00097951664650441,0.00097951663197266,-6.9282756988743e-13,-5.6766421707136e-13,-1.2438214138743e-13,1.1610277666928e-14,-0.00099078316371872,0.0009907831629302,-0.0010003575612955,0.0010003575610601,-0.0010003575611436,0.0010003575612658,-0.0010003575611731,0.0010003575612312,-0.0010003575611955,0.0010003575612325,-0.0009795166398813,0.00097951663824161,-0.0009795166380268,0.00097951663680357,-0.00097951664002156,0.00097951663673928,-0.0009795166397367,0.00097951663634499,-7.0688867562442e-12,7.0865570105477e-12,-0.00099078316329673,0.00099078316330532,7.4776656800934e-14,-6.5135980728735e-14,-0.0010003575637365,0.0010003575589945,-0.0010003575636625,0.0010003575587648,-0.0010003575589516,0.0010003575639141,-0.0010003575588361,0.0010003575635715,-0.00097951663000363,0.00097951664454686,-0.00097951664449485,0.0009795166300929,0.0029586632708515,0.0027292975759088,0.75528323519723,0.46591969509408,1368840,32768,0.0041197570899549,0.0041197570900073,0.0041197570899101,36.758721040721,36.758212743856,0.00020926976832577,0.00020926976832577,0.00020926976832577,712998.38998659,0.012435994243559
6307200,0.69509702758125,0.011971271170613,0.0039904237235377,0.00399042372359,0.0039904237234857,-0.0010092224648513,0.0010092224645856,6.6635567564445e-12,-6.9367777038498e-12,-6.5408060652174e-14,-1.9419118523965e-13,-0.0010193844446363,0.0010193844490404,-0.001019384449167,0.0010193844443505,-0.0010193844453191,0.0010193844493588,-0.0010193844497736,0.0010193844449575,-0.00099729322170695,0.00099729323567032,-0.00099729323584041,0.00099729322135833,-6.65165914932e-13,-5.1742748706309e-13,-8.3913995308573e-14,4.9727186750932e-14,-0.0010092224650875,0.0010092224643742,-0.0010193844471578,0.0010193844469899,-0.0010193844470086,0.0010193844471948,-0.0010193844470296,0.0010193844471686,-0.0010193844470531,0.0010193844471684,-0.00099729322919181,0.00099729322764616,-0.00099729322733723,0.00099729322620428,-0.00099729322935198,0.00099729322613394,-0.00099729322904121,0.0009972932257571,-7.0376239465957e-12,7.0579833099252e-12,-0.0010092224647017,0.0010092224647128,7.5647291968333e-14,-6.189722672927e-14,-0.0010193844496249,0.0010193844449023,-0.0010193844495488,0.0010193844446738,-0.001019384444859,0.0010193844498006,-0.0010193844447416,0.0010193844494611,-0.000997293219397,0.00099729323387177,-0.00099729323381994,0.0009972932194837,0.0030235994376314,0.0027934886157547,0.75554622311535,0.4847062542536,1368840,32768,0.0041962677054688,0.0041962677055203,0.0041962677054224,36.751300622517,36.750791975314,0.00020921040498014,0.00020921040498014,0.00020921040498014,722618.28794997,0.012668411241953
6393600,0.70859405353086,0.012193148626553,0.004064382875518,0.0040643828755698,0.0040643828754653,-0.001027038513556,0.0010270385132751,6.6208003861517e-12,-6.9083916886701e-12,-5.6055669890704e-14,-2.1835027072558e-13,-0.0010377738124913,0.0010377738168692,-0.0010377738170012,0.001037773812202,-0.0010377738131874,0.0010377738171783,-0.001037773817621,0.0010377738127991,-0.0010144667620114,0.0010144667758809,-0.0010144667760728,0.0010144667616295,-6.3912466635662e-13,-4.5715432836672e-13,-4.2161417879977e-14,9.389998436111e-14,-0.0010270385137423,0.0010270385131137,-0.0010377738149669,0.0010377738148688,-0.0010377738148174,0.0010377738150752,-0.0010377738148284,0.0010377738150603,-0.0010377738148491,0.00103777381506,-0.0010144667693981,0.0010144667679453,-0.0010144667675441,0.001014466766511,-0.001014466769576,0.0010144667664081,-0.0010144667692325,0.0010144667660751,-7.0017228668785e-12,7.0220583632901e-12,-0.0010270385133978,0.0010270385134084,7.6070440806132e-14,-6.385903444445e-14,-0.0010377738174569,0.001037773812758,-0.0010377738173798,0.0010377738125267,-0.0010377738127141,0.0010377738176331,-0.0010377738125962,0.0010377738172916,-0.001014466759681,0.0010144667740933,-0.0010144667740368,0.0010144667597717,0.0030860661040671,0.0028551986314452,0.75471971196619,0.48538089711843,1368840,32768,0.0042701866249287,0.0042701866249803,0.0042701866248771,36.743879888908,36.743371206773,0.00020915103911126,0.00020915103911126,0.00020915103911126,728948.98987104,0.012893006348402
6480000,0.72163186302455,0.012408622326593,0.0041362074421984,0.0041362074422499,0.0041362074421448,-0.0010443084097454,0.0010443084094618,6.5989052315042e-12,-6.8878503456058e-12,-5.7492008364491e-14,-2.2121688903471e-13,-0.0010555766692411,0.0010555766736135,-0.0010555766737427,0.0010555766689451,-0.0010555766699289,0.0010555766739183,-0.0010555766743858,0.0010555766695654,-0.001031169909606,0.0010311699234013,-0.0010311699235921,0.0010311699091715,-6.1689050735963e-13,-4.3290048106981e-13,-2.7101922054885e-14,1.1341577052018e-13,-0.0010443084099082,0.0010443084093191,-0.0010555766716668,0.0010555766716326,-0.0010555766715351,0.0010555766718232,-0.0010555766715338,0.0010555766718148,-0.0010555766715627,0.0010555766718222,-0.001031169916927,0.0010311699155166,-0.0010311699150173,0.0010311699140709,-0.001031169917045,0.0010311699140423,-0.0010311699167816,0.001031169913701,-6.9735300222682e-12,7.007751638586e-12,-0.0010443084095829,0.0010443084095973,7.9474454462911e-14,-6.4806358445528e-14,-0.0010555766741785,0.0010555766695261,-0.0010555766741417,0.0010555766692841,-0.001055576669449,0.0010555766743748,-0.0010555766693675,0.0010555766740382,-0.0010311699072029,0.0010311699216428,-0.0010311699215195,0.0010311699073456,0.0031463652155786,0.0029148510264273,0.75876643031977,0.5613509405927,1368840,32768,0.0043418344281904,0.004341834428232,0.0043418344281342,36.736459111088,36.73595043823,0.0002090916728887,0.0002090916728887,0.0002090916728887,729123.05260654,0.013110748105487
6566400,0.73421389559457,0.012617463522193,0.0042058211740662,0.0042058211741156,0.0042058211740111,-0.0010612505642879,0.0010612505640076,6.5933529893567e-12,-6.8678623091678e-12,-4.4613872370941e-14,-2.2670022152267e-13,-0.0010729116537287,0.0010729116581113,-0.0010729116582104,0.0010729116534208,-0.0010729116544408,0.0010729116583851,-0.0010729116588542,0.0010729116540577,-0.0010477083503293,0.0010477083641534,-0.0010477083642578,0.0010477083499422,-5.9336362314861e-13,-3.9047354188956e-13,1.4258240891116e-14,1.4414687582365e-13,-0.0010612505644128,0.0010612505639009,-0.0010729116561182,0.001072911656125,-0.0010729116559963,0.0010729116563567,-0.0010729116560092,0.0010729116563538,-0.0010729116560156,0.0010729116563307,-0.0010477083576501,0.0010477083562364,-0.0010477083558189,0.0010477083547902,-0.0010477083577504,0.0010477083547093,-0.0010477083574056,0.0010477083543435,-6.9682656830901e-12,6.9868132341222e-12,-0.0010612505641325,0.0010612505641361,6.7376000532962e-14,-6.6249123193585e-14,-0.0010729116586981,0.0010729116539877,-0.0010729116586091,0.0010729116537588,-0.0010729116539628,0.0010729116588157,-0.0010729116538284,0.0010729116584793,-0.0010477083478994,0.0010477083622846,-0.0010477083622315,0.0010477083481123,0.0032054047309627,0.0029723806108148,0.7619961738986,0.61978136300686,1368840,32768,0.004412117716626,0.0044121177166636,0.0044121177165702,36.72962388894,36.729153979329,0.00020903699111152,0.00020903699111152,0.00020903699111152,703196.73924058,0.01332438787974
6652800,0.74665339862393,0.012824974247291,0.0042749914157664,0.0042749914158144,0.0042749914157103,-0.0010789061558292,0.001078906155518,6.5779967525969e-12,-6.8736162510359e-12,-7.8395134494218e-14,-2.4400854570642e-13,-0.0010909248545789,0.0010909248589601,-0.001090924859108,0.0010909248543058,-0.0010909248552781,0.0010909248591958,-0.0010909248597484,0.0010909248548369,-0.0010650181876312,0.0010650182014347,-0.0010650182012563,0.0010650181874767,-5.2540280224622e-13,-3.3870882914836e-13,-2.2900476876739e-15,1.4348702833448e-13,-0.0010789061559137,0.0010789061554552,-0.0010909248569941,0.0010909248569684,-0.0010909248568146,0.0010909248572598,-0.0010909248568054,0.0010909248571851,-0.0010909248567804,0.0010909248572378,-0.0010650181949424,0.0010650181935559,-0.0010650181927997,0.0010650181920763,-0.0010650181948592,0.0010650181922775,-0.0010650181945509,0.0010650181917254,-6.9592413411305e-12,6.9845145984616e-12,-0.0010789061556542,0.0010789061556588,8.0725769177282e-14,-6.8421615648961e-14,-0.0010909248594746,0.0010909248548129,-0.0010909248594634,0.0010909248545518,-0.0010909248547625,0.0010909248597041,-0.0010909248546701,0.0010909248592863,-0.0010650181852244,0.0010650181993514,-0.0010650181995566,0.0010650181857443,0.0032675582598477,0.003029550432666,0.76550573217622,0.67821178542102,1368840,32768,0.0044853555416135,0.0044853555416584,0.0044853555415426,37.168788868643,37.197859549308,0.00021255031094914,0.00021255031094914,0.00021255031094914,675948.75451708,0.013547055879477
6739200,0.75894348377131,0.013031173236737,0.0043437244122507,0.0043437244122962,0.0043437244121901,-0.0010965072199108,0.0010965072196189,6.5352888808224e-12,-6.8292570179447e-12,-6.1360360777215e-14,-2.2654584388586e-13,-0.0011088479593824,0.0011088479637257,-0.0011088479638718,0.0011088479590717,-0.0011088479601022,0.0011088479640472,-0.0011088479645117,0.0011088479596913,-0.0010823372711216,0.0010823372846998,-0.0010823372848128,0.0010823372707776,-7.0161627198685e-13,-5.1706408640003e-13,-7.9952616325982e-14,1.0680261960622e-14,-0.0010965072201488,0.0010965072193986,-0.0011088479618923,0.0011088479616773,-0.0011088479617466,0.0011088479618761,-0.0011088479617591,0.0011088479618625,-0.0011088479617645,0.0011088479618594,-0.0010823372782899,0.0010823372768058,-0.0010823372764462,0.0010823372753819,-0.0010823372786714,0.0010823372752762,-0.0010823372782059,0.0010823372750284,-6.9079613194647e-12,6.9467551637511e-12,-0.001096507219735,0.0010965072197599,5.8569769557273e-14,-3.5550796300517e-14,-0.0011088479642936,0.0011088479596404,-0.0011088479642093,0.0011088479594062,-0.0011088479595728,0.0011088479644881,-0.0011088479594722,0.0011088479641421,-0.0010823372686871,0.0010823372828208,-0.0010823372827566,0.0010823372688981,0.003329608962529,0.0030863663396063,0.76954155437612,0.73664220783519,1368840,32768,0.0045583619610502,0.0045583619610869,0.0045583619609782,37.634673314538,37.666565119287,0.0002162773865163,0.0002162773865163,0.0002162773865163,645300.4949703,0.013769068582833
6825600,0.77105963006055,0.013237428933952,0.0044124763113236,0.004412476311367,0.0044124763112612,-0.0011141149471228,0.0011141149469867,6.59745733456e-12,-6.7263264565203e-12,5.2154700827337e-14,-1.6922718316689e-13,-0.0011266817411808,0.0011266817453811,-0.0011266817457951,0.0011266817409427,-0.0011266817411804,0.0011266817456787,-0.0011266817463165,0.0011266817413522,-0.0010998159115805,0.0010998159266085,-0.0010998159255222,0.001099815912418,-7.4939882696848e-13,-5.1099803641957e-13,-2.4408048468521e-13,3.1525242807825e-14,-0.0011141149474555,0.0011141149467407,-0.0011266817432065,0.0011266817435565,-0.0011266817431994,0.0011266817441255,-0.0011266817432997,0.0011266817441357,-0.0011266817436182,0.0011266817437381,-0.0010998159198601,0.0010998159181129,-0.0010998159163352,0.0010998159167969,-0.001099815920076,0.0010998159160714,-0.0010998159206786,0.0010998159164158,-6.8804235136669e-12,6.9327915609178e-12,-0.0011141149470614,0.001114114947022,6.0792584004759e-14,-2.1930038875895e-13,-0.001126681746255,0.0011266817419245,-0.0011266817458115,0.0011266817412659,-0.0011266817409764,0.0011266817461154,-0.0011266817414319,0.0011266817456666,-0.0010998159098126,0.001099815924035,-0.0010998159245883,0.001099815910463,0.0033917872267183,0.0031432178321965,0.78034422264259,0.88014327974573,1368840,32768,0.0046313910095822,0.0046313910097621,0.0046313910095281,38.103074909607,38.135270689266,0.00022002459927685,0.00022002459927685,0.00022002459927685,604654.27116953,0.013991197484209
6912000,0.78297629007022,0.013437221488557,0.0044790738295182,0.0044790738295752,0.0044790738294638,-0.001131365457737,0.001131365457575,6.5238076433311e-12,-6.7976611008253e-12,-6.52003611149e-15,-1.2769692247608e-13,-0.0011441487126363,0.0011441487169392,-0.0011441487171181,0.0011441487123275,-0.0011441487130735,0.0011441487170135,-0.0011441487174295,0.0011441487126921,-0.0011168628970772,0.0011168629106166,-0.0011168629114185,0.0011168628965685,-7.5348536389229e-13,-6.1397547876469e-13,-2.0374356989144e-13,2.065860418794e-14,-0.001131365458096,0.0011313654572445,-0.0011441487149393,0.0011441487149885,-0.0011441487148293,0.0011441487151182,-0.0011441487148633,0.0011441487152894,-0.0011441487149245,0.0011441487150694,-0.0011168629036114,0.0011168629029843,-0.0011168629031719,0.0011168629025106,-0.0011168629043825,0.0011168629019597,-0.0011168629049709,0.0011168629013712,-6.8615792069946e-12,6.9496729863783e-12,-0.0011313654576342,0.0011313654576393,9.9883919203067e-14,-1.273523447674e-13,-0.0011441487176047,0.0011441487129665,-0.0011441487175017,0.0011441487127056,-0.0011441487129004,0.0011441487177771,-0.0011441487127774,0.0011441487171342,-0.0011168628954704,0.0011168629098591,-0.0011168629093987,0.0011168628946497,0.0034526517747342,0.0031981873018175,0.76812823444969,0.66927950108049,1368840,32768,0.0047029329862156,0.0047029329862746,0.0047029329861358,38.571681585963,38.603976259245,0.0002237734526877,0.0002237734526877,0.0002237734526877,565355.01993971,0.01420885171436
6998400,0.79466850413039,0.013632305819792,0.0045441019399285,0.0045441019399878,0.0045441019398757,-0.0011475296814334,0.0011475296811221,6.4360977345733e-12,-6.8337724682361e-12,-8.9598086369376e-14,-2.1647132812599e-13,-0.0011609073478284,0.0011609073520885,-0.0011609073522909,0.0011609073475146,-0.0011609073484998,0.0011609073524898,-0.0011609073528065,0.0011609073481568,-0.0011324558941353,0.0011324559076815,-0.0011324559079074,0.001132455893388,-6.731543179506e-13,-5.2759870575111e-13,-1.3205675987428e-13,5.5143874216024e-14,-0.0011475296816701,0.0011475296809103,-0.001160907350336,0.0011609073500916,-0.0011609073501625,0.0011609073503362,-0.0011609073502509,0.0011609073502163,-0.0011609073502466,0.0011609073502647,-0.0011324559010735,0.001132455899702,-0.0011324558996753,0.0011324558984859,-0.0011324559013742,0.0011324558983639,-0.0011324559015331,0.0011324558981349,-6.869795191296e-12,6.8902723304394e-12,-0.0011475296812672,0.0011475296812659,8.6952784828581e-14,-1.0403314538823e-13,-0.001160907352859,0.0011609073482265,-0.001160907352722,0.0011609073479715,-0.0011609073481294,0.0011609073529525,-0.0011609073480141,0.0011609073525597,-0.0011324558916128,0.001132455906003,-0.0011324559056246,0.0011324558916254,0.0035091424307835,0.0032517617042467,0.76400244514598,0.61390026052372,1368840,32768,0.0047699648266744,0.0047699648267263,0.0047699648266281,39.0403328478,39.072681829225,0.0002275226627824,0.0002275226627824,0.0002275226627824,590387.68952535,0.014412828452378
7084800,0.80611201428288,0.013822641655721,0.0046075472185702,0.0046075472186301,0.0046075472185209,-0.0011635963257749,0.0011635963255096,6.4956460330607e-12,-6.783605824322e-12,-6.5361297374878e-14,-1.7781786190402e-13,-0.0011774391349566,0.0011774391392334,-0.001177439139401,0.0011774391346552,-0.0011774391356016,0.0011774391395695,-0.0011774391399801,0.0011774391352574,-0.0011480661527544,0.0011480661664898,-0.0011480661665815,0.0011480661524252,-6.4633925477943e-13,-5.1516155628572e-13,-9.8039593193019e-14,5.1046146457618e-14,-0.0011635963260164,0.0011635963252987,-0.0011774391374159,0.0011774391372704,-0.0011774391372906,0.0011774391375041,-0.0011774391373384,0.0011774391374572,-0.0011774391373433,0.0011774391374437,-0.0011480661601847,0.0011480661586162,-0.0011480661584037,0.0011480661572915,-0.0011480661602983,0.0011480661571577,-0.001148066159939,0.0011480661567272,-6.8614967977474e-12,6.9080515225914e-12,-0.0011635963256258,0.0011635963256354,6.7085068244273e-14,-8.5822172309194e-14,-0.0011774391398426,0.001177439135247,-0.0011774391397391,0.0011774391349859,-0.0011774391351485,0.0011774391400019,-0.0011774391350456,0.0011774391396311,-0.0011480661506229,0.0011480661648576,-0.0011480661647906,0.0011480661507476,0.0035653569128527,0.0033039044765247,0.76187600835311,0.59419810702723,1368840,32768,0.0048365876220614,0.004836587622125,0.0048365876220133,39.508989491354,39.541387399203,0.00023127191593083,0.00023127191593083,0.00023127191593083,591666.76236696,0.014615600963203
7171200,0.81728441018302,0.014007247798243,0.004669082599411,0.004669082599472,0.0046690825993599,-0.0011792745605394,0.001179274560281,6.4989822840817e-12,-6.7408557773654e-12,-4.9199261702209e-14,-1.9643099916781e-13,-0.0011935572077505,0.0011935572122021,-0.0011935572120708,0.0011935572077636,-0.001193557208621,0.0011935572120921,-0.0011935572128334,0.0011935572079576,-0.0011632865198022,0.0011632865333612,-0.0011632865334393,0.0011632865196003,-5.8456558309917e-13,-4.1782464750853e-13,-7.2366612779066e-15,1.4476566574358e-13,-0.0011792745606976,0.0011792745602035,-0.0011935572100241,0.0011935572102628,-0.0011935572099555,0.0011935572106938,-0.0011935572100643,0.0011935572106002,-0.0011935572101572,0.0011935572104226,-0.0011632865272753,0.0011632865256042,-0.0011632865263434,0.0011632865243955,-0.0011632865273585,0.0011632865242743,-0.0011632865268502,0.0011632865242078,-6.8157072554101e-12,6.9153827986259e-12,-0.0011792745604133,0.0011792745604534,2.9023142774675e-14,-1.2838322503942e-13,-0.001193557212547,0.0011935572079696,-0.0011935572125674,0.0011935572077239,-0.0011935572080306,0.0011935572131364,-0.0011935572081304,0.0011935572127364,-0.0011632865179169,0.0011632865318225,-0.0011632865318763,0.0011632865178046,0.0036200945820585,0.0033543166662653,0.75690078671439,0.53332239675741,1368840,32768,0.0049015954070762,0.0049015954072433,0.0049015954071722,39.977645839854,40.010092969182,0.00023502116671883,0.00023502116671883,0.00023502116671883,589359.70560199,0.014813497641506
7257600,0.82816457357503,0.014185708839241,0.0047285696130758,0.0047285696131364,0.0047285696130288,-0.0011943411482984,0.0011943411479905,6.4449851101289e-12,-6.8049119969625e-12,-2.7572981193763e-14,-1.7768216016727e-13,-0.0012091556644133,0.0012091556688699,-0.0012091556690302,0.0012091556643068,-0.0012091556650565,0.0012091556688411,-0.0012091556695301,0.0012091556645646,-0.0011777902330551,0.0011777902466675,-0.0011777902456881,0.0011777902324483,-5.510225489923e-13,-3.7812191922316e-13,-3.8896870550834e-14,9.9405580874798e-14,-0.0011943411484776,0.0011943411478426,-0.0012091556670111,0.0012091556667044,-0.0012091556669527,0.0012091556671085,-0.001209155666588,0.0012091556670876,-0.0012091556667479,0.0012091556668843,-0.001177790239735,0.0011777902379595,-0.0011777902383532,0.0011777902370191,-0.0011777902392791,0.0011777902374463,-0.0011777902390464,0.0011777902371771,-6.9358976424998e-12,6.8040771989356e-12,-0.0011943411482224,0.0011943411480721,-5.2551218125771e-14,-1.938950766385e-13,-0.0012091556695622,0.001209155664662,-0.0012091556694708,0.0012091556644204,-0.0012091556646703,0.0012091556696392,-0.0012091556647528,0.0012091556690025,-0.0011777902301715,0.0011777902443779,-0.0011777902444424,0.0011777902310532,0.003672427470581,0.0034028634282046,0.75136027056862,0.46898638272368,1368840,32768,0.0049640628609013,0.0049640628609662,0.004964062860913,40.446302667706,40.478798539162,0.00023877042134165,0.00023877042134165,0.00023877042134165,598892.66379467,0.015003698329329
7344000,0.83863422844261,0.014356462244316,0.0047854874147671,0.0047854874148262,0.0047854874147228,-0.0012084090026666,0.0012084090024075,6.4826480183764e-12,-6.728702913333e-12,-1.0373688973276e-13,-1.8218955188131e-13,-0.0012238049657271,0.001223804970039,-0.001223804970202,0.0012238049655,-0.0012238049663974,0.0012238049703302,-0.0012238049707458,0.0012238049660021,-0.0011912429897076,0.0011912430033594,-0.0011912430031843,0.0011912429893938,-5.9484182799047e-13,-4.9520240131832e-13,-7.8998616058271e-14,1.0032858208951e-13,-0.0012084090028744,0.0012084090022322,-0.0012238049681839,0.001223804968123,-0.0012238049680182,0.0012238049683652,-0.0012238049680943,0.0012238049683122,-0.0012238049680729,0.0012238049682591,-0.0011912429970373,0.0011912429955412,-0.001191242995144,0.0011912429940247,-0.0011912429968639,0.0011912429939574,-0.0011912429968039,0.0011912429935639,-6.8479625641502e-12,6.8527856226914e-12,-0.0012084090025451,0.0012084090025161,6.6529173461771e-14,-1.1699295535729e-13,-0.0012238049706948,0.001223804966075,-0.0012238049705675,0.001223804965773,-0.0012238049659721,0.0012238049708077,-0.0012238049659379,0.0012238049704544,-0.0011912429873078,0.0011912430013895,-0.0011912430013701,0.0011912429876006,0.0037207217639724,0.0034490081735696,0.74719297649828,0.42818194048028,1368840,32768,0.0050223857562936,0.005022385756361,0.0050223857562671,40.73773845567,40.758399481115,0.00024110190764536,0.00024110190764536,0.00024110190764536,612358.68218496,0.015181312678211
7430400,0.84856035114589,0.01451764643296,0.0048392154776476,0.0048392154777076,0.0048392154776045,-0.001221281677843,0.0012212816775743,6.4657345938935e-12,-6.7341165126571e-12,-8.4702471221176e-14,-1.8104388099841e-13,-0.0012372305467146,0.0012372305509888,-0.0012372305511494,0.001237230546426,-0.0012372305473687,0.0012372305513016,-0.001237230551724,0.0012372305470027,-0.0012035224074734,0.0012035224210566,-0.0012035224211376,0.001203522407175,-5.7438418825144e-13,-4.5615377069777e-13,-4.5594989457311e-14,1.3883249405672e-13,-0.0012212816780191,0.0012212816774274,-0.0012372305491018,0.0012372305490799,-0.0012372305489787,0.001237230549307,-0.0012372305490099,0.0012372305492654,-0.0012372305490197,0.0012372305492527,-0.0012035224147038,0.0012035224132631,-0.0012035224128768,0.0012035224118907,-0.0012035224147889,0.0012035224118401,-0.0012035224145075,0.0012035224114773,-6.8329464346473e-12,6.8561014919821e-12,-0.0012212816777002,0.0012212816776991,8.635871474172e-14,-1.0191741590467e-13,-0.0012372305516201,0.0012372305470227,-0.0012372305515138,0.0012372305467572,-0.0012372305469423,0.0012372305517813,-0.0012372305468662,0.0012372305514062,-0.0012035224052063,0.0012035224192329,-0.001203522419223,0.0012035224052984,0.0037641404983723,0.0034921169109605,0.7440523108048,0.40318419993587,1368840,32768,0.0050757505230827,0.0050757505231433,0.0050757505230455,40.784530148161,40.788401523602,0.00024147624118528,0.00024147624118528,0.00024147624118528,621633.42013944,0.015343855547608
7516800,0.85795366361537,0.014669561287674,0.0048898537625524,0.0048898537626124,0.0048898537625095,-0.0012334181860605,0.0012334181857786,6.4545192894545e-12,-6.7383714414955e-12,-6.9741692968564e-14,-2.0188018564008e-13,-0.0012498860691037,0.0012498860733752,-0.0012498860735313,0.0012498860688144,-0.0012498860697719,0.0012498860736754,-0.001249886074133,0.0012498860693834,-0.0012150934238812,0.0012150934374713,-0.0012150934375921,0.0012150934235589,-5.6673301022497e-13,-4.1238363725707e-13,-1.6749547136362e-14,1.5926898738294e-13,-0.0012334181862073,0.0012334181856618,-0.0012498860714766,0.0012498860714672,-0.0012498860713489,0.0012498860717086,-0.0012498860713817,0.0012498860716778,-0.001249886071373,0.0012498860716595,-0.0012150934311044,0.0012150934296874,-0.0012150934292804,0.0012150934283642,-0.0012150934311887,0.0012150934282523,-0.0012150934309148,0.0012150934279269,-6.8388427839297e-12,6.8431146240161e-12,-0.0012334181859151,0.0012334181859059,7.8026586929564e-14,-1.018910931794e-13,-0.0012498860739928,0.0012498860694047,-0.0012498860738894,0.0012498860691273,-0.0012498860693187,0.0012498860741597,-0.001249886069246,0.0012498860737722,-0.0012150934216265,0.001215093435677,-0.0012150934356797,0.0012150934216994,0.0038046054894615,0.003532284135967,0.74114180569312,0.38129582520854,1368840,32768,0.0051260607536364,0.0051260607536986,0.0051260607535989,40.816137771197,40.818403566089,0.00024172910216957,0.00024172910216957,0.00024172910216957,627125.51163598,0.01549711884365
7603200,0.86683354768065,0.014812703080193,0.004937567693392,0.0049375676934519,0.004937567693349,-0.0012448500161676,0.0012448500158762,6.4488900496592e-12,-6.7418681582026e-12,-6.165046956165e-14,-2.2127712248874e-13,-0.0012618231495174,0.0012618231537848,-0.0012618231539449,0.0012618231492244,-0.0012618231501876,0.0012618231540783,-0.0012618231545593,0.0012618231497814,-0.0012259735209298,0.0012259735345034,-0.001225973534624,0.0012259735205606,-5.6359634134217e-13,-3.814974043397e-13,1.2905723386068e-14,1.8056313097912e-13,-0.001244850016286,0.0012448500157855,-0.0012618231518667,0.001261823151901,-0.0012618231517412,0.0012618231521391,-0.0012618231517665,0.0012618231521206,-0.0012618231517691,0.0012618231520977,-0.0012259735280716,0.0012259735267773,-0.001225973526232,0.0012259735254059,-0.0012259735282132,0.0012259735253017,-0.0012259735279391,0.0012259735249867,-6.8329752572962e-12,6.8466688977884e-12,-0.0012448500160145,0.0012448500160107,7.6835623312685e-14,-9.4716135898829e-14,-0.0012618231543977,0.0012618231498143,-0.0012618231542952,0.0012618231495431,-0.0012618231497351,0.0012618231545653,-0.0012618231496481,0.00126182315419,-0.0012259735186323,0.0012259735327216,-0.0012259735326922,0.0012259735187404,0.0038422478339764,0.0035696682267682,0.73878159349755,0.36716775327241,1368840,32768,0.0051734474367736,0.0051734474368312,0.0051734474367352,40.846303336489,40.848405608576,0.00024197042669191,0.00024197042669191,0.00024197042669191,631427.18809412,0.015641497466162
7689600,0.87522035157832,0.014947617897015,0.0049825392989995,0.0049825392990593,0.0049825392989563,-0.0012556446411467,0.0012556446408412,6.4350465902144e-12,-6.7468001840032e-12,-5.6211929822953e-14,-2.3992778801783e-13,-0.0012730941563706,0.0012730941606298,-0.0012730941608006,0.0012730941560788,-0.001273094157058,0.0012730941609238,-0.0012730941614209,0.0012730941566303,-0.0012362482465237,0.0012362482600469,-0.0012362482602033,0.0012362482461426,-5.5352556076231e-13,-3.4685940368331e-13,3.0102492154234e-14,2.0417061566902e-13,-0.0012556446412378,0.0012556446407796,-0.0012730941587012,0.0012730941587708,-0.0012730941585805,0.0012730941590125,-0.0012730941585973,0.0012730941589945,-0.0012730941585891,0.001273094158975,-0.0012362482536241,0.0012362482523578,-0.001236248251802,0.0012362482510038,-0.0012362482537843,0.0012362482508797,-0.0012362482534617,0.0012362482505914,-6.8259605892366e-12,6.8447796907965e-12,-0.0012556446409866,0.0012556446409834,8.0526657612944e-14,-9.7399142170123e-14,-0.0012730941612528,0.001273094156668,-0.0012730941611539,0.0012730941563988,-0.0012730941565891,0.0012730941614195,-0.0012730941565078,0.0012730941610389,-0.0012362482442296,0.001236248258281,-0.0012362482582599,0.0012362482443177,0.0038773455011724,0.0036044418982927,0.73730524512491,0.3653920339003,1368840,32768,0.0052181907018255,0.0052181907018865,0.0052181907017885,40.876322085554,40.878407651063,0.00024221057668443,0.00024221057668443,0.00024221057668443,632888.96867396,0.015777841116954
7776000,0.88313458536371,0.01507468681707,0.0050248956056847,0.0050248956057444,0.0050248956056414,-0.0012658555098986,0.0012658555095804,6.4227503187983e-12,-6.7485290723633e-12,-5.0070293916302e-14,-2.61625360466e-13,-0.0012837395609489,0.0012837395652055,-0.0012837395653766,0.0012837395606539,-0.0012837395616438,0.0012837395654884,-0.0012837395660066,0.0012837395611964,-0.0012459829017611,0.0012459829152269,-0.0012459829154109,0.0012459829013585,-5.4577953269227e-13,-3.1093220711686e-13,4.9900181466062e-14,2.2612326855995e-13,-0.0012658555099625,0.0012658555095458,-0.0012837395632606,0.0012837395633631,-0.0012837395631418,0.0012837395636054,-0.0012837395631468,0.0012837395635932,-0.0012837395631377,0.0012837395635757,-0.0012459829088067,0.0012459829075879,-0.0012459829069832,0.0012459829062405,-0.0012459829089781,0.0012459829060944,-0.0012459829086251,0.0012459829058328,-6.8210233871235e-12,6.839123451826e-12,-0.0012658555097323,0.0012658555097288,8.1964790149571e-14,-9.8092944504349e-14,-0.0012837395658297,0.0012837395612451,-0.001283739565729,0.0012837395609739,-0.001283739561165,0.0012837395659955,-0.0012837395610849,0.0012837395656141,-0.0012459828994525,0.0012459829134674,-0.0012459829134469,0.001245982899531,0.0039101203408215,0.0036367304306219,0.73590666343203,0.36361631452819,1368840,32768,0.005260512455388,0.0052605124554488,0.005260512455351,40.906325636874,40.90840969355,0.00024245060509499,0.00024245060509499,0.00024245060509499,630423.34882468,0.015906822802655
7862400,0.890596720957,0.015194283894018,0.0050647612980005,0.0050647612980602,0.0050647612979572,-0.0012754682064392,0.0012754682061091,6.4070528571685e-12,-6.7468138894669e-12,-4.1650257025002e-14,-2.8150987065492e-13,-0.0012937675896362,0.0012937675938822,-0.001293767594057,0.0012937675893386,-0.0012937675903414,0.0012937675941605,-0.0012937675946967,0.0012937675898741,-0.0012551420039422,0.0012551420173634,-0.0012551420175843,0.0012551420035118,-5.3653699151614e-13,-2.7298213117151e-13,6.9037890939821e-14,2.5486206707997e-13,-0.0012754682064747,0.0012754682061031,-0.0012937675919296,0.0012937675920615,-0.0012937675918055,0.0012937675923071,-0.0012937675918073,0.0012937675923015,-0.0012937675917944,0.0012937675922853,-0.0012551420109422,0.0012551420097736,-0.0012551420091142,0.0012551420084344,-0.0012551420111309,0.0012551420082735,-0.0012551420107521,0.0012551420080475,-6.8148743396786e-12,6.8278071798833e-12,-0.0012754682062684,0.0012754682062617,8.6195013860317e-14,-1.0344278107051e-13,-0.0012937675945093,0.0012937675899319,-0.0012937675944128,0.0012937675896586,-0.0012937675898514,0.0012937675946734,-0.0012937675897736,0.0012937675942908,-0.0012551420016382,0.0012551420156304,-0.001255142015608,0.0012551420016939,0.0039405124266338,0.0036666570263451,0.73456826607316,0.36184059515609,1368840,32768,0.0053003532409029,0.0053003532409641,0.0053003532408654,40.936327612266,40.938411736037,0.00024269062089812,0.00024269062089812,0.00024269062089812,627088.28945206,0.016028258531844
7948800,0.89762706208796,0.015306768696512,0.0051022562321653,0.0051022562322249,0.0051022562321219,-0.0012845113494422,0.0012845113490972,6.3917821472076e-12,-6.744618427125e-12,-3.1132048937275e-14,-3.0582142207136e-13,-0.0013032071697139,0.0013032071739495,-0.0013032071741266,0.0013032071694125,-0.001303207170433,0.0013032071742159,-0.00130320717478,0.0013032071699356,-0.0012637537196524,0.0012637537330556,-0.0012637537332831,0.0012637537191985,-5.3020833191117e-13,-2.3153704434929e-13,9.8029799374566e-14,2.759932450664e-13,-0.0012845113494471,0.0012845113491216,-0.0013032071719876,0.0013032071721508,-0.0013032071718636,0.0013032071723938,-0.0013032071718476,0.0013032071724011,-0.0013032071718412,0.0013032071723834,-0.0012637537266061,0.0012637537255175,-0.0012637537247743,0.0012637537241593,-0.0012637537268308,0.001263753723985,-0.0012637537264099,0.0012637537237975,-6.8060777848779e-12,6.8191274450433e-12,-0.0012845113492629,0.0012845113492583,8.3483479048785e-14,-9.8306408571404e-14,-0.0013032071745746,0.001303207170006,-0.0013032071744766,0.0013032071697348,-0.0013032071699265,0.0013032071747412,-0.0013032071698476,0.0013032071743623,-0.0012637537173291,0.0012637537313328,-0.0012637537313097,0.0012637537174115,0.0039686406834986,0.0036943402504837,0.73327776437038,0.36006487578398,1368840,32768,0.0053378319681806,0.0053378319682414,0.0053378319681432,40.966329427828,40.968413778524,0.00024293063542262,0.00024293063542262,0.00024293063542262,623032.94572399,0.016142508066707
8035200,0.90424565034363,0.015412491737719,0.0051374972459009,0.0051374972459605,0.0051374972458575,-0.0012930128958219,0.0012930128954616,6.379863452492e-12,-6.7497058011209e-12,-2.3606337666118e-14,-3.2930041068673e-13,-0.001312086504018,0.001312086508254,-0.0013120865084336,0.0013120865037154,-0.00131208650475,0.0013120865085093,-0.0013120865091024,0.0013120865042275,-0.0012718455446195,0.0012718455579471,-0.0012718455582231,0.0012718455441288,-5.2458520957605e-13,-1.9462734838575e-13,1.2767312908531e-13,2.9177982162085e-13,-0.0012930128957971,0.0012930128955164,-0.0013120865062745,0.0013120865064785,-0.0013120865061577,0.0013120865067147,-0.0013120865061246,0.001312086506742,-0.0013120865061212,0.0013120865067171,-0.0012718455515017,0.0012718455504833,-0.0012718455496843,0.0012718455491177,-0.0012718455517442,0.0012718455489208,-0.0012718455513152,0.0012718455487332,-6.7993147561897e-12,6.8189889786851e-12,-0.0012930128956328,0.0012930128956328,7.8156759423472e-14,-8.9833843873028e-14,-0.0013120865088843,0.0013120865043139,-0.0013120865087785,0.0013120865040445,-0.0013120865042345,0.0013120865090495,-0.0013120865041483,0.0013120865086744,-0.0012718455422756,0.0012718455562469,-0.0012718455562037,0.0012718455423421,0.0039946213666999,0.0037198957879465,0.73202632391364,0.35828915641187,1368840,32768,0.0053730647685011,0.0053730647685633,0.0053730647684642,40.996331230343,40.998415821011,0.00024317064984274,0.00024317064984274,0.00024317064984274,618386.99587093,0.016249923022377
8121600,0.91048293891357,0.015511964560876,0.0051706548536201,0.0051706548536797,0.0051706548535767,-0.0013010780135627,0.0013010780131824,6.3671827810543e-12,-6.7553842158846e-12,-6.340512184058e-15,-3.6948777122574e-13,-0.0013205107733981,0.0013205107776254,-0.0013205107778082,0.0013205107730922,-0.0013205107741448,0.0013205107778663,-0.0013205107784931,0.001320510773588,-0.001279522055416,0.0012795220687361,-0.0012795220690138,0.0012795220548796,-5.2670802707838e-13,-1.3900063597893e-13,1.5726528388882e-13,3.0998003032285e-13,-0.0013010780135025,0.0013010780132722,-0.0013205107756293,0.0013205107758722,-0.0013205107755186,0.0013205107761053,-0.0013205107754656,0.0013205107761523,-0.0013205107754631,0.0013205107761254,-0.0012795220622505,0.0012795220613032,-0.0012795220604601,0.0012795220599289,-0.0012795220625243,0.0012795220596916,-0.0012795220620372,0.0012795220595897,-6.790442791928e-12,6.8199235677811e-12,-0.0013010780133621,0.0013010780133677,7.4887653410064e-14,-8.1786001493794e-14,-0.0013205107782574,0.0013205107736924,-0.0013205107781488,0.0013205107734285,-0.0013205107736115,0.0013205107784229,-0.0013205107735212,0.0013205107780499,-0.0012795220530435,0.001279522067063,-0.0012795220670049,0.0012795220531566,0.0040188949585204,0.0037434932641192,0.73080588953456,0.35651343703976,1368840,32768,0.0054064877186596,0.0054064877187208,0.0054064877186278,41.059576482064,41.063890199224,0.00024367661185651,0.00024367661185651,0.00024367661185651,613220.36730597,0.016351830838586
8208000,0.91636908534283,0.015605690452679,0.0052018968175543,0.0052018968176138,0.0052018968175109,-0.0013087642344958,0.0013087642341009,6.3445661778583e-12,-6.7439013902064e-12,7.3100119782695e-15,-3.9369173769354e-13,-0.0013285391768242,0.001328539181036,-0.0013285391812241,0.0013285391765139,-0.0013285391775878,0.0013285391812672,-0.0013285391819235,0.0013285391769979,-0.0012868390367328,0.0012868390499787,-0.001286839050286,0.0012868390361807,-5.191391406556e-13,-9.3261150935856e-14,1.8433525103755e-13,3.3946860005552e-13,-0.0013087642344039,0.0013087642342222,-0.0013285391790337,0.0013285391793031,-0.0013285391789201,0.001328539179541,-0.0013285391788592,0.0013285391795998,-0.0013285391788512,0.0013285391795722,-0.0012868390435033,0.0012868390426241,-0.001286839041713,0.0012868390412718,-0.0012868390438058,0.0012868390409945,-0.0012868390432857,0.0012868390409292,-6.7771270810667e-12,6.799222347248e-12,-0.0013087642342885,0.0013087642342925,7.5129822482553e-14,-8.3710325059972e-14,-0.0013285391816678,0.0013285391771141,-0.0013285391815619,0.0013285391768477,-0.0013285391770336,0.0013285391818371,-0.0013285391769443,0.0013285391814648,-0.0012868390343711,0.001286839048333,-0.0012868390482896,0.0012868390344807,0.0040417024883829,0.0037652997479219,0.72960979301185,0.35473771766766,1368840,32768,0.0054383394144259,0.0054383394144865,0.0054383394143933,41.165028657862,41.17225159435,0.0002445202292629,0.0002445202292629,0.0002445202292629,607653.96510293,0.016448957423816
8294400,0.92191951038046,0.01569398592408,0.0052313286413547,0.0052313286414142,0.0052313286413113,-0.0013160208619301,0.0013160208615222,6.3360228506158e-12,-6.7521367268578e-12,1.3592702399331e-14,-4.1537531056939e-13,-0.0013361215070367,0.0013361215112478,-0.0013361215114375,0.0013361215067244,-0.0013361215078102,0.0013361215114711,-0.0013361215121482,0.0013361215071992,-0.0012937467571274,0.0012937467703522,-0.0012937467706961,0.0012937467565601,-5.1154043161448e-13,-5.7246015879392e-14,2.1458470929031e-13,3.4645794535935e-13,-0.0013160208618118,0.00131602086167,-0.0013361215092291,0.0013361215095365,-0.0013361215091255,0.0013361215097609,-0.0013361215090447,0.0013361215098416,-0.0013361215090442,0.0013361215098046,-0.001293746763852,0.0012937467630371,-0.0012937467620756,0.0012937467616639,-0.0012937467642024,0.0012937467613887,-0.0012937467636388,0.001293746761352,-6.7725121632258e-12,6.8031661091217e-12,-0.0013160208617125,0.001316020861725,6.7876279367434e-14,-6.8065773578516e-14,-0.0013361215118837,0.0013361215073273,-0.001336121511767,0.0013361215070739,-0.001336121507247,0.0013361215120531,-0.0013361215071499,0.0013361215116877,-0.0012937467547423,0.0012937467687138,-0.0012937467686583,0.0012937467548563,0.0040628295756076,0.0037854173019282,0.72884501246069,0.35907401629265,1368840,32768,0.0054684099294489,0.0054684099295102,0.0054684099294184,41.273108928653,41.280612989477,0.00024538487142922,0.00024538487142922,0.00024538487142922,601709.59665249,0.016540661181054
8380800,0.92714870365556,0.015777108909506,0.0052590363031634,0.0052590363032229,0.0052590363031201,-0.0013228920281828,0.0013228920277477,6.3180932807048e-12,-6.7606941124944e-12,3.0358660799046e-14,-4.655687183717e-13,-0.0013432867158624,0.0013432867200681,-0.0013432867202601,0.0013432867155462,-0.0013432867166546,0.0013432867202708,-0.0013432867209904,0.0013432867160011,-0.0013003030933658,0.0013003031065283,-0.0013003031069105,0.0013003030927312,-5.21438482177e-13,-2.5175701487836e-17,2.4754123190293e-13,3.6326590247603e-13,-0.0013228920280254,0.0013228920279344,-0.0013432867180282,0.0013432867183797,-0.0013432867179343,0.0013432867185961,-0.0013432867178248,0.001343286718704,-0.0013432867178327,0.0013432867186583,-0.0013003031000093,0.0013003030992496,-0.0013003030982454,0.0013003030978859,-0.0013003031003981,0.0013003030975479,-0.0013003030997733,0.0013003030975957,-6.7612151554004e-12,6.8055470069751e-12,-0.0013228920279475,0.0013228920279683,6.0441712370705e-14,-5.938189180632e-14,-0.0013432867207079,0.0013432867161548,-0.0013432867205819,0.0013432867159054,-0.0013432867160708,0.001343286720874,-0.0013432867159628,0.0013432867205164,-0.0013003030909095,0.0013003031049045,-0.0013003031048137,0.0013003030910489,0.0040824587370466,0.0038039304623955,0.7282274882046,0.3649459305384,1368840,32768,0.0054968823209322,0.0054968823209928,0.0054968823209018,41.381439219484,41.388974384604,0.00024625151375587,0.00024625151375587,0.00024625151375587,594048.73473904,0.016627498869397
8467200,0.93207093018329,0.015855300540836,0.0052851001802731,0.0052851001803326,0.0052851001802299,-0.0013293769245249,0.001329376924082,6.3091254370192e-12,-6.7580823099302e-12,3.4367891260984e-14,-4.7886337105272e-13,-0.0013500442926199,0.0013500442968216,-0.0013500442970161,0.0013500442923061,-0.0013500442934224,0.0013500442970185,-0.0013500442977548,0.0013500442927547,-0.0013064973210113,0.001306497334149,-0.0013064973345576,0.0013064973203982,-5.1281395153285e-13,2.6187082355551e-14,2.6345862799035e-13,3.9007337764372e-13,-0.0013293769243452,0.00132937692429,-0.0013500442947729,0.0013500442951428,-0.0013500442946742,0.0013500442953686,-0.0013500442945602,0.0013500442954752,-0.0013500442945641,0.0013500442954365,-0.0013064973276215,0.001306497326941,-0.0013064973258735,0.0013064973255313,-0.0013064973280296,0.0013064973252309,-0.0013064973274149,0.0013064973253022,-6.761095217888e-12,6.7937451028093e-12,-0.0013293769242877,0.0013293769243034,6.9777191884097e-14,-6.0824877135873e-14,-0.0013500442974595,0.0013500442929079,-0.0013500442973396,0.0013500442926529,-0.0013500442928273,0.0013500442976243,-0.0013500442927262,0.0013500442972614,-0.0013064973185912,0.0013064973325281,-0.0013064973324855,0.0013064973187058,0.0041005867515061,0.0038209188723472,0.72765586771183,0.37081784478414,1368840,32768,0.0055237533639405,0.0055237533639991,0.0055237533639078,41.489795015495,41.497335779731,0.00024711836012396,0.00024711836012396,0.00024711836012396,585810.30450115,0.016709459437611
8553600,0.93670024143457,0.015928795101878,0.0053095983672873,0.0053095983673467,0.0053095983672441,-0.0013354872552242,0.0013354872547689,6.297135862116e-12,-6.7599091364749e-12,4.6662986242507e-14,-4.9824289666857e-13,-0.0013564100738722,0.0013564100780673,-0.0013564100782648,0.0013564100735527,-0.0013564100746847,0.001356410078252,-0.0013564100790136,0.00135641007399,-0.00131233699894,0.0013123370120401,-0.0013123370124735,0.0013123369982748,-5.0741982220215e-13,6.3582763472574e-14,2.7427032711213e-13,4.1532166514939e-13,-0.0013354872550197,0.0013354872550025,-0.0013564100760124,0.0013564100764017,-0.0013564100759068,0.0013564100766333,-0.0013564100757911,0.0013564100767464,-0.0013564100757884,0.0013564100767137,-0.001312337005512,0.0013123370048584,-0.0013123370037317,0.0013123370034855,-0.001312337005922,0.0013123370031345,-0.0013123370052585,0.0013123370032114,-6.7564993582883e-12,6.7881227745676e-12,-0.0013354872549836,0.0013354872549939,7.033588069889e-14,-7.4689747691242e-14,-0.0013564100787031,0.0013564100741578,-0.0013564100785909,0.0013564100738978,-0.0013564100740744,0.0013564100788701,-0.0013564100739807,0.0013564100785032,-0.0013123369964983,0.0013123370104388,-0.0013123370103793,0.0013123369966021,0.0041172623390023,0.0038364599502916,0.72712544748521,0.37668975902989,1368840,32768,0.0055490716812768,0.0055490716813369,0.0055490716812445,41.598153468117,41.605697174858,0.00024798522774493,0.00024798522774493,0.00024798522774493,577426.78413924,0.016786690034979
8640000,0.94105043511095,0.015997820759125,0.0053326069197029,0.0053326069197622,0.0053326069196597,-0.0013412410846292,0.0013412410841686,6.2744483199108e-12,-6.7417676318619e-12,4.9715010652315e-14,-5.0799442229557e-13,-0.0013624028479485,0.0013624028521296,-0.0013624028523272,0.0013624028476279,-0.0013624028487654,0.0013624028523122,-0.0013624028530821,0.0013624028480634,-0.0013178391918537,0.0013178392048965,-0.0013178392053307,0.0013178391911654,-4.983031301226e-13,8.5296217788508e-14,2.8220705523876e-13,4.3860686556721e-13,-0.0013412410844073,0.0013412410844196,-0.0013624028500724,0.0013624028504819,-0.0013624028499625,0.0013624028507184,-0.0013624028498486,0.0013624028508292,-0.0013624028498399,0.0013624028508014,-0.0013178391983677,0.0013178391977477,-0.001317839196594,0.0013178391963971,-0.001317839198805,0.0013178391960297,-0.0013178391981175,0.0013178391961305,-6.7384406158529e-12,6.7653306179112e-12,-0.0013412410843889,0.0013412410843938,7.5218025670359e-14,-8.5026961308226e-14,-0.0013624028527697,0.0013624028482368,-0.001362402852662,0.0013624028479707,-0.0013624028481525,0.0013624028529358,-0.0013624028480634,0.0013624028525633,-0.0013178391894031,0.0013178392032995,-0.0013178392032372,0.0013178391895041,0.0041325605969921,0.0038506291158004,0.72663263837707,0.38256167327564,1368840,32768,0.0055729122399726,0.0055729122400328,0.0055729122399413,41.706512207292,41.714058569984,0.00024885209765833,0.00024885209765833,0.00024885209765833,568976.11513204,0.016859418277004
8726400,0.94513501509985,0.016062599624717,0.0053541998749002,0.0053541998749595,0.005354199874857,-0.0013466560242666,0.0013466560237914,6.2449123398617e-12,-6.7283548063204e-12,6.1732467056683e-14,-5.3200574758959e-13,-0.001368040976349,0.0013680409805117,-0.0013680409807151,0.0013680409760261,-0.0013680409771774,0.0013680409806814,-0.0013680409814813,0.0013680409764487,-0.0013230205258438,0.001323020538808,-0.0013230205392884,0.0013230205251257,-5.0112198518498e-13,1.1899895289897e-13,3.0777209777368e-13,4.5006148622465e-13,-0.0013466560240189,0.0013466560240682,-0.0013680409784468,0.0013680409788892,-0.0013680409783445,0.0013680409791185,-0.0013680409782101,0.0013680409792501,-0.001368040978209,0.0013680409792161,-0.0013230205323136,0.0013230205317303,-0.0013230205305044,0.0013230205303657,-0.0013230205327673,0.0013230205299795,-0.0013230205320386,0.00132302053011,-6.7119452487975e-12,6.7486375102271e-12,-0.001346656024015,0.0013466560240277,7.4429020362165e-14,-7.1949684339473e-14,-0.0013680409811533,0.0013680409766327,-0.0013680409810383,0.0013680409763741,-0.0013680409765525,0.0013680409813183,-0.0013680409764554,0.0013680409809514,-0.0013230205233801,0.001323020537241,-0.0013230205371614,0.0013230205234761,0.0041465547434993,0.0038634997962273,0.72617462758346,0.38843358752138,1368840,32768,0.0055953481165224,0.0055953481165826,0.005595348116491,41.814870985012,41.822419965111,0.0002497189678801,0.0002497189678801,0.0002497189678801,560524.94581594,0.016927866140308
8812800,0.94896715676243,0.016122833393904,0.0053742777979627,0.005374277798022,0.0053742777979196,-0.0013517033450949,0.0013517033445343,6.1968683369848e-12,-6.7658386023926e-12,5.0783625065702e-14,-5.9023361582701e-13,-0.0013733096925165,0.0013733096965551,-0.0013733096968129,0.0013733096920344,-0.0013733096933057,0.0013733096966639,-0.0013733096976641,0.0013733096925099,-0.0013278266744008,0.0013278266874009,-0.0013278266878087,0.0013278266737109,-5.0414586339581e-13,1.6328395296379e-13,3.2621368145478e-13,4.9740183412716e-13,-0.0013517033447866,0.0013517033448845,-0.0013733096944727,0.0013733096950775,-0.0013733096945691,0.0013733096952178,-0.0013733096943771,0.0013733096954249,-0.001373309694408,0.0013733096953807,-0.0013278266810806,0.001327826680287,-0.0013278266787547,0.0013278266787482,-0.0013278266814475,0.0013278266784827,-0.0013278266806177,0.0013278266787303,-6.7436628092596e-12,6.7060976627314e-12,-0.001351703344825,0.0013517033447823,9.5050419804332e-14,-7.9704741545445e-14,-0.0013733096973686,0.0013733096927572,-0.0013733096972699,0.001373309692415,-0.0013733096927933,0.0013733096973509,-0.0013733096925975,0.0013733096971177,-0.0013278266718074,0.0013278266854835,-0.0013278266856166,0.0013278266720265,0.0041591340048911,0.003875000264756,0.7196192883091,0.303444394553,1368840,32768,0.0056162602679431,0.00561626026803,0.0056162602678979,41.92322965822,41.930781360238,0.00025058583726576,0.00025058583726576,0.00025058583726576,553250.69358587,0.01699166995981
8899200,0.95254033753919,0.016178785120476,0.0053929283734866,0.005392928373546,0.0053929283734435,-0.0013557553979287,0.0013557553974198,6.2136697060675e-12,-6.7281624592553e-12,8.0006555854637e-14,-5.848826028262e-13,-0.0013778098306417,0.0013778098347838,-0.0013778098349978,0.0013778098303067,-0.0013778098314963,0.001377809834935,-0.0013778098357898,0.0013778098307096,-0.0013314321009685,0.0013314321138598,-0.0013314321143735,0.0013314321002161,-4.8851748789078e-13,2.0344913770967e-13,3.3944683601452e-13,5.1221232285337e-13,-0.0013557553976183,0.0013557553977592,-0.0013778098327023,0.0013778098331979,-0.0013778098325918,0.0013778098334404,-0.0013778098324455,0.0013778098335822,-0.0013778098324321,0.001377809833561,-0.0013314321073535,0.0013314321068732,-0.0013314321055346,0.0013314321055138,-0.00133143210783,0.0013314321050883,-0.0013314321070364,0.0013314321052895,-6.7062257176429e-12,6.7230538506139e-12,-0.0013557553976679,0.001355755397666,8.4229220972763e-14,-9.2369472293673e-14,-0.0013778098354356,0.0013778098309226,-0.0013778098353335,0.0013778098306503,-0.0013778098308445,0.0013778098355977,-0.001377809830759,0.0013778098352203,-0.0013314320984879,0.0013314321122834,-0.0013314321122554,0.0013314320985812,0.0041676791043912,0.0038851975608713,0.71680618052645,0.27958262364292,1368840,32768,0.0056330480879407,0.0056330480880005,0.0056330480879105,41.925660260677,41.926091277618,0.00025060528208542,0.00025060528208542,0.00025060528208542,565495.34618385,0.017042894709242
8985600,0.95584993360944,0.016230677483267,0.0054102258277504,0.0054102258278097,0.0054102258277073,-0.0013595270201155,0.0013595270196143,6.2121758693502e-12,-6.7257991196889e-12,7.7250404759044e-14,-5.7512925372549e-13,-0.0013818660895214,0.0013818660936568,-0.0013818660938771,0.001381866089186,-0.0013818660903773,0.0013818660938338,-0.0013818660946613,0.0013818660896016,-0.0013349148123411,0.0013349148252015,-0.0013349148256551,0.0013349148115733,-1.0168203191902e-12,-3.4688646168024e-13,-2.1324566196199e-13,-2.6242786536179e-14,-0.0013595270203595,0.0013595270193983,-0.0013818660921391,0.0013818660915241,-0.0013818660920304,0.0013818660917842,-0.0013818660919058,0.0013818660918907,-0.0013818660918828,0.0013818660918782,-0.0013349148192341,0.0013349148176531,-0.0013349148174038,0.0013349148163366,-0.0013349148197029,0.0013349148158899,-0.0013349148189088,0.0013349148161111,-6.7024601267968e-12,6.7189885630409e-12,-0.0013595270198585,0.0013595270198487,8.4000992650864e-14,-1.0706414102869e-13,-0.0013818660943128,0.0013818660897893,-0.0013818660942174,0.001381866089511,-0.0013818660897259,0.0013818660944669,-0.0013818660896504,0.001381866094089,-0.0013349148098439,0.001334914823593,-0.0013349148235402,0.0013349148099435,0.0041751432212254,0.0038941478827035,0.71784138488995,0.31372910299747,1368840,32768,0.0056486739975341,0.005648673997592,0.0056486739974873,41.804248517783,41.796109644119,0.00024963398814226,0.00024963398814226,0.00024963398814226,565118.24776793,0.017090575809965
9072000,0.9589146066465,0.016278663108552,0.0054262210361786,0.0054262210362379,0.0054262210361353,-0.0013632734260997,0.0013632734255856,6.213876464457e-12,-6.7340572791725e-12,7.2742542471142e-14,-5.9569615483255e-13,-0.0013857266412813,0.0013857266454254,-0.0013857266456384,0.0013857266409479,-0.0013857266421321,0.001385726645571,-0.0013857266464247,0.0013857266413431,-0.0013385314592534,0.0013385314721727,-0.0013385314727074,0.0013385314585134,-8.392176565943e-13,-1.4873392686886e-13,-2.1647632797325e-14,1.4525838598543e-13,-0.001363273426148,0.0013632734255672,-0.001385726643705,0.0013857266434802,-0.0013857266435978,0.0013857266437164,-0.0013857266434465,0.0013857266438632,-0.001385726643436,0.0013857266438342,-0.0013385314660303,0.0013385314648028,-0.0013385314642004,0.0013385314634437,-0.0013385314664629,0.0013385314630272,-0.0013385314656918,0.0013385314632416,-6.706350360894e-12,6.7269154679382e-12,-0.001363273425833,0.0013632734258357,8.4238308930427e-14,-8.6797671920115e-14,-0.0013857266460679,0.0013857266415572,-0.0013857266459619,0.0013857266412929,-0.0013857266414803,0.0013857266462309,-0.0013857266413889,0.0013857266458588,-0.0013385314567784,0.0013385314705946,-0.0013385314705746,0.0013385314568609,0.0041825997732238,0.0039019103409106,0.71683841995451,0.31420980998412,1368840,32768,0.0056641954187397,0.0056641954188015,0.0056641954187055,41.675086786665,41.66612801062,0.00024860069429332,0.00024860069429332,0.00024860069429332,552288.27916191,0.017137939474082
9158400,0.96175292115983,0.016323032449497,0.0054410108164936,0.005441010816553,0.0054410108164504,-0.0013665577164634,0.0013665577159531,6.1977832502113e-12,-6.7121562423518e-12,7.4723129024406e-14,-5.8664931356028e-13,-0.001389198191556,0.0013891981956857,-0.0013891981959028,0.0013891981912171,-0.0013891981924048,0.0013891981958388,-0.0013891981966905,0.0013891981916214,-0.0013416203878864,0.0013416204007584,-0.0013416204012695,0.0013416203871341,-8.3417242836962e-13,-1.5100738682799e-13,-2.7196522106095e-14,1.6076888273864e-13,-0.0013665577165125,0.0013665577159335,-0.0013891981939758,0.0013891981937446,-0.001389198193863,0.001389198193988,-0.0013891981937222,0.0013891981941252,-0.0013891981937047,0.001389198194104,-0.0013416203946394,0.0013416203934064,-0.0013416203928162,0.0013416203921077,-0.0013416203950714,0.0013416203916667,-0.0013416203943025,0.0013416203918668,-6.6884793774285e-12,6.7068012294732e-12,-0.0013665577162021,0.0013665577161966,8.4928464317242e-14,-1.0692379237507e-13,-0.0013891981963263,0.0013891981918269,-0.001389198196229,0.0013891981915553,-0.0013891981917487,0.0013891981964913,-0.0013891981916674,0.001389198196113,-0.0013416203854378,0.0013416203992062,-0.0013416203991819,0.0013416203855263,0.0041882406171125,0.0039085822566349,0.7155403656237,0.30977246867508,1368840,32768,0.0056778019544573,0.0056778019545184,0.0056778019544204,41.545185855004,41.536146377121,0.00024756148684003,0.00024756148684003,0.00024756148684003,546752.48524177,0.017179462180576
9244800,0.96438214979559,0.016364062565062,0.0054546875216819,0.0054546875217412,0.0054546875216386,-0.0013695491114926,0.0013695491109916,6.2047949183626e-12,-6.708202833714e-12,6.8616609692027e-14,-5.6894761904078e-13,-0.0013923779923787,0.0013923779965107,-0.0013923779967298,0.0013923779920397,-0.0013923779932188,0.0013923779966721,-0.0013923779975073,0.0013923779924524,-0.0013444173137119,0.0013444173265987,-0.0013444173270865,0.0013444173129757,-8.3059900812339e-13,-1.7113077207238e-13,-3.1855173905127e-14,1.5185739027273e-13,-0.0013695491115519,0.0013695491109616,-0.0013923779947982,0.0013923779945682,-0.0013923779946835,0.0013923779948105,-0.0013923779945547,0.00139237799494,-0.0013923779945355,0.0013923779949187,-0.0013444173204646,0.0013444173192282,-0.0013444173186557,0.001344417317901,-0.0013444173208977,0.0013444173174783,-0.0013444173201482,0.0013444173176656,-6.6891861205439e-12,6.7089300173814e-12,-0.0013695491112358,0.0013695491112312,8.2789764947157e-14,-1.0475150579576e-13,-0.001392377997157,0.0013923779926537,-0.0013923779970555,0.0013923779923811,-0.0013923779925748,0.0013923779973206,-0.0013923779924912,0.0013923779969405,-0.0013444173112503,0.0013444173250189,-0.0013444173249932,0.0013444173113496,0.0041927674937481,0.0039142552495072,0.71424966588756,0.30533512736603,1368840,32768,0.00569019485449,0.0056901948545506,0.0056901948544543,41.415209424223,41.406164743622,0.00024652167539378,0.00024652167539378,0.00024652167539378,542438.83585432,0.017217282881272
9331200,0.96681826483298,0.016402013202507,0.0054673377341638,0.0054673377342231,0.0054673377341205,-0.001372293446229,0.0013722934457292,6.1897752595558e-12,-6.6994917468905e-12,6.4193685985781e-14,-5.6026441371851e-13,-0.0013953001394761,0.0013953001435979,-0.0013953001438161,0.0013953001391355,-0.0013953001403118,0.0013953001437631,-0.0013953001445898,0.0013953001395509,-0.001346978771625,0.0013469787844907,-0.0013469787850027,0.0013469787708947,-8.2982614938075e-13,-1.8357762712362e-13,-1.6333412790157e-14,1.2808849874899e-13,-0.0013722934462917,0.0013722934456956,-0.0013953001418815,0.0013953001416653,-0.0013953001417833,0.0013953001418956,-0.0013953001416413,0.0013953001420346,-0.0013953001416367,0.0013953001419991,-0.0013469787783738,0.0013469787771519,-0.0013469787765875,0.0013469787757876,-0.0013469787788148,0.0013469787754061,-0.0013469787780824,0.0013469787755487,-6.6725432172084e-12,6.7019317017634e-12,-0.0013722934459659,0.0013722934459757,7.396171110873e-14,-7.4477871810963e-14,-0.001395300144247,0.0013953001397537,-0.0013953001441325,0.0013953001394938,-0.0013953001396735,0.0013953001444099,-0.0013953001395748,0.0013953001440441,-0.0013469787691594,0.0013469787829303,-0.001346978782878,0.0013469787692559,0.0041963707553662,0.0039190151546549,0.71296598157526,0.30089778605699,1368840,32768,0.0057015640710284,0.0057015640710886,0.0057015640709942,41.285225150827,41.276183110123,0.00024548180120661,0.00024548180120661,0.00024548180120661,538344.35125152,0.017251980804772
9417600,0.96907601832578,0.016437124415112,0.0054790414716985,0.0054790414717578,0.0054790414716552,-0.0013748100080661,0.0013748100075765,6.2111866642756e-12,-6.7087932274426e-12,5.7963817480458e-14,-5.3871095451483e-13,-0.0013979846265047,0.0013979846306339,-0.0013979846308545,0.001397984626162,-0.0013979846273323,0.0013979846308088,-0.0013979846316202,0.0013979846265882,-0.0013493232634622,0.0013493232763598,-0.0013493232768683,0.001349323262756,-8.156146129452e-13,-1.9704574509363e-13,-1.8230943057204e-14,1.2248055242084e-13,-0.0013748100081382,0.0013748100075329,-0.0013979846289151,0.0013979846286937,-0.0013979846288168,0.0013979846289258,-0.001397984628685,0.0013979846290558,-0.0013979846286805,0.0013979846290193,-0.0013493232702317,0.0013493232690125,-0.0013493232684536,0.0013493232676358,-0.0013493232706706,0.0013493232672876,-0.0013493232699309,0.0013493232673893,-6.6910552399141e-12,6.7141110943972e-12,-0.0013748100078086,0.0013748100078176,7.3471902542634e-14,-7.1268205158194e-14,-0.0013979846312838,0.0013979846267805,-0.0013979846311711,0.0013979846265204,-0.0013979846267018,0.0013979846314481,-0.0013979846266039,0.0013979846310827,-0.0013493232610175,0.0013493232747958,-0.0013493232747501,0.0013493232610969,0.0041991306651879,0.0039229412265752,0.71168889505164,0.29646044474795,1368840,32768,0.0057119895435657,0.0057119895436248,0.005711989543532,41.155240056123,41.146201476624,0.00024444192044899,0.00024444192044899,0.00024444192044899,534468.29920598,0.017283799602326
9504000,0.97116902849646,0.016469617396262,0.0054898724654153,0.0054898724654746,0.005489872465372,-0.0013771165538163,0.0013771165533416,6.2255825186098e-12,-6.7061487788169e-12,4.380560294537e-14,-5.1374636422475e-13,-0.0014004498707097,0.0014004498748436,-0.0014004498750616,0.0014004498703697,-0.0014004498715231,0.0014004498750325,-0.0014004498758152,0.0014004498708089,-0.0013514678108794,0.0013514678238293,-0.001351467824281,0.0013514678101977,-8.068136171037e-13,-2.2741469969585e-13,-1.9432935748917e-14,1.0943280396178e-13,-0.0013771165539043,0.0013771165532828,-0.0014004498731242,0.0014004498729065,-0.0014004498730298,0.0014004498731335,-0.0014004498729068,0.0014004498732535,-0.001400449872906,0.0014004498732137,-0.0013514678176851,0.0013514678164298,-0.0013514678159088,0.0013514678150552,-0.0013514678180885,0.0013514678146951,-0.0013514678173961,0.0013514678147902,-6.6897412800547e-12,6.7271225204364e-12,-0.0013771165535626,0.0013771165535791,6.9210444491958e-14,-6.3695289446747e-14,-0.0014004498754925,0.0014004498709883,-0.0014004498753735,0.0014004498707329,-0.0014004498709072,0.0014004498756582,-0.0014004498708041,0.0014004498752968,-0.001351467808424,0.001351467822242,-0.0013514678221791,0.0013514678085439,0.0042011210365959,0.0039261064162919,0.71041796668655,0.29202310343891,1368840,32768,0.0057215448644173,0.0057215448644779,0.0057215448643839,41.025254872352,41.016219843125,0.00024340203897882,0.00024340203897882,0.00024340203897882,530807.95516296,0.017312963610178
9590400,0.97310986241492,0.016499695896226,0.0054998986320699,0.0054998986321292,0.0054998986320266,-0.0013792294360793,0.0013792294355982,6.2304669576288e-12,-6.721375254835e-12,4.7640426970599e-14,-5.2212110838207e-13,-0.0014027128429632,0.0014027128471048,-0.0014027128473262,0.0014027128426228,-0.0014027128437794,0.0014027128472903,-0.0014027128480809,0.001402712843056,-0.0013534280791547,0.0013534280920903,-0.0013534280925833,0.0013534280784505,-8.1558758435914e-13,-2.2401533295594e-13,-1.7925217102804e-14,1.1800174806877e-13,-0.0013792294361613,0.0013792294355456,-0.0014027128453797,0.0014027128451652,-0.0014027128452839,0.0014027128453942,-0.0014027128451612,0.0014027128455163,-0.0014027128451568,0.0014027128454791,-0.0013534280859493,0.0013534280847227,-0.0013534280841645,0.0013534280833453,-0.0013534280863958,0.001353428082978,-0.0013534280856915,0.0013534280830731,-6.7045603567539e-12,6.7323604486566e-12,-0.0013792294358244,0.0013792294358361,7.3177999756456e-14,-6.6734431897149e-14,-0.0014027128477558,0.0014027128432392,-0.0014027128476383,0.0014027128429787,-0.0014027128431578,0.0014027128479161,-0.0014027128430566,0.0014027128475523,-0.001353428076734,0.0013534280905521,-0.0013534280904861,0.0013534280768166,0.0042024097641351,0.0039285778429412,0.70915276334319,0.28758576212987,1368840,32768,0.0057302978032458,0.0057302978033067,0.0057302978032108,40.895269676159,40.886238209627,0.00024236215740927,0.00024236215740927,0.00024236215740927,527359.04504872,0.017339679441252
9676800,0.9749026223236,0.016527432532976,0.0055091441776533,0.0055091441777126,0.00550914417761,-0.0013809970616834,0.0013809970612481,6.2689883690615e-12,-6.6538541410881e-12,8.8211716957304e-14,-5.4735274933746e-13,-0.001404617157196,0.0014046171613032,-0.0014046171613881,0.0014046171569403,-0.0014046171578035,0.0014046171613188,-0.0014046171618647,0.001404617157261,-0.0013550553961552,0.0013550554094583,-0.0013550554096828,0.0013550553953355,-8.1383828485786e-13,-1.6066415064401e-13,8.5524446110407e-15,1.1917124175331e-13,-0.0013809970617911,0.0013809970612088,-0.0014046171597918,0.0014046171594058,-0.0014046171593256,0.0014046171590149,-0.0014046171594645,0.0014046171598654,-0.0014046171592976,0.001404617159723,-0.0013550554026004,0.0013550554015963,-0.0013550554009123,0.0013550554000445,-0.0013550554033599,0.0013550553995124,-0.0013550554018709,0.0013550553995757,-6.6461770814993e-12,6.7672098546194e-12,-0.0013809970614033,0.0013809970615272,1.0915754766479e-13,-1.3154127562197e-14,-0.0014046171616542,0.0014046171575475,-0.0014046171616464,0.0014046171569897,-0.0014046171569992,0.0014046171619394,-0.001404617157045,0.0014046171619478,-0.0013550553930814,0.0013550554070122,-0.0013550554067957,0.0013550553931252,0.0042023592730475,0.003930378670094,0.70789658191192,0.28314842082078,1368840,32768,0.0057376203506659,0.0057376203508075,0.005737620350664,40.68408916119,40.669624736118,0.00024067271328952,0.00024067271328952,0.00024067271328952,524058.77681896,0.017362030168439
9763200,0.97655213407991,0.016552972846711,0.0055176576155649,0.0055176576156243,0.0055176576155218,-0.0013824213160046,0.0013824213154942,6.1952961497199e-12,-6.7448431261429e-12,6.6687903906783e-14,-5.708623252537e-13,-0.0014061825059213,0.0014061825100605,-0.0014061825102924,0.0014061825055694,-0.0014061825067449,0.0014061825102346,-0.0014061825110496,0.001406182505992,-0.0013563422933385,0.001356342306149,-0.001356342306812,0.0013563422925834,-8.2388638965986e-13,-1.6410169268828e-13,-4.9821007414187e-14,1.4361928899989e-13,-0.0013824213160657,0.0013824213154619,-0.0014061825083458,0.0014061825081159,-0.0014061825082366,0.0014061825083472,-0.0014061825081166,0.0014061825084857,-0.0014061825080966,0.0014061825084455,-0.0013563423001244,0.0013563422987967,-0.0013563422983844,0.0013563422975472,-0.0013563423005093,0.0013563422971236,-0.001356342299669,0.0013563422972797,-6.7099967789102e-12,6.7153098518936e-12,-0.001382421315744,0.0013824213157376,8.2266516226164e-14,-1.1432303692146e-13,-0.0014061825107215,0.0014061825062052,-0.0014061825106058,0.0014061825059253,-0.0014061825061179,0.0014061825108891,-0.001406182506019,0.0014061825105075,-0.0013563422909594,0.0013563423046837,-0.0013563423046347,0.001356342290884,0.0042009759745479,0.0039315525650443,0.70839618652216,0.30515093879817,1368840,32768,0.0057435203703695,0.0057435203704291,0.0057435203703341,40.385458950231,40.364967053532,0.00023828367160184,0.00023828367160184,0.00023828367160184,521141.01656948,0.01738003948607
9849600,0.97807076245491,0.016576504004585,0.0055255013348563,0.0055255013349157,0.0055255013348132,-0.0013838204907738,0.0013838204902965,6.2444395895981e-12,-6.7254822470162e-12,6.9948157249457e-14,-5.2279197024064e-13,-0.0014076294703453,0.0014076294744715,-0.0014076294746879,0.0014076294699636,-0.0014076294711495,0.0014076294746707,-0.0014076294754546,0.0014076294703964,-0.0013576893777853,0.0013576893907437,-0.00135768939129,0.0013576893772097,-8.2591929814414e-13,-2.1066627017241e-13,-4.0222271237223e-14,1.5838154390549e-13,-0.0013838204908533,0.0013838204902487,-0.0014076294727282,0.0014076294725202,-0.001407629472617,0.0014076294727592,-0.0014076294725202,0.0014076294728877,-0.0014076294725046,0.0014076294728568,-0.0013576893846982,0.0013576893834004,-0.0013576893827766,0.0013576893820619,-0.001357689385097,0.0013576893817088,-0.0013576893843128,0.0013576893817453,-6.7349809568372e-12,6.7195822507865e-12,-0.0013838204905331,0.0013838204905215,8.8937165383587e-14,-1.1397651809561e-13,-0.0014076294751073,0.0014076294705842,-0.001407629474991,0.0014076294703159,-0.0014076294705033,0.0014076294752731,-0.0014076294704114,0.0014076294748926,-0.0013576893754764,0.0013576893891395,-0.0013576893892517,0.0013576893754671,0.0041995854557948,0.0039321617135831,0.70888742481873,0.325147770926,1368840,32768,0.0057493165899158,0.0057493165899815,0.0057493165898835,40.081360170016,40.060309370944,0.00023585088136013,0.00023585088136013,0.00023585088136013,512919.96607057,0.017397731780639
9936000,0.97947012319258,0.016598197488132,0.0055327324960386,0.005532732496098,0.0055327324959954,-0.0013850619436208,0.0013850619431249,6.2390834002848e-12,-6.7381629772757e-12,6.1245717220674e-14,-5.5759955395167e-13,-0.0014089147213279,0.001408914725479,-0.0014089147257018,0.0014089147209844,-0.0014089147221563,0.0014089147256588,-0.0014089147264738,0.0014089147214088,-0.0013588837072195,0.0013588837202157,-0.0013588837206283,0.0013588837065715,-8.1573069763418e-13,-1.7467007571379e-13,-4.4311058092297e-14,1.7452946236237e-13,-0.0013850619436857,0.0013850619430921,-0.0014089147237853,0.0014089147235253,-0.0014089147236513,0.0014089147237899,-0.0014089147235504,0.0014089147238951,-0.0014089147235239,0.0014089147238855,-0.0013588837140239,0.0013588837127426,-0.0013588837121992,0.0013588837114133,-0.0013588837144234,0.0013588837110227,-0.0013588837136725,0.0013588837112322,-6.7308756704862e-12,6.7316345590673e-12,-0.0013850619433738,0.0013850619433545,9.2961983604624e-14,-1.2966577409373e-13,-0.0014089147261246,0.0014089147216031,-0.0014089147260582,0.0014089147213071,-0.0014089147215193,0.0014089147262931,-0.0014089147214504,0.0014089147259075,-0.001358883704739,0.001358883718506,-0.0013588837185905,0.0013588837048756,0.0041976405689825,0.0039322634625752,0.7091438552329,0.33996392803986,1368840,32768,0.0057544593963641,0.0057544593964305,0.0057544593963282,39.776741396627,39.755651688356,0.00023341393117301,0.00023341393117301,0.00023341393117301,505273.29329499,0.017413429896701
10022400,0.98076074910601,0.016618216722225,0.0055394055740697,0.0055394055741292,0.0055394055740266,-0.00138614255848,0.0013861425581455,6.3903210153736e-12,-6.5913901081449e-12,8.5345392756835e-14,-4.5297875004542e-13,-0.0014100429623137,0.0014100429664461,-0.001410042966765,0.0014100429615935,-0.0014100429626042,0.0014100429664809,-0.0014100429674984,0.0014100429625808,-0.0013599140726529,0.0013599140846501,-0.0013599140861035,0.0013599140717863,-1.0120423769177e-12,-4.5671898872487e-13,-2.6628518869968e-13,5.4157463173734e-15,-0.0013861425587604,0.0013861425577663,-0.0014100429646991,0.0014100429646816,-0.0014100429651553,0.0014100429647212,-0.0014100429651543,0.0014100429646195,-0.0014100429650307,0.0014100429650191,-0.001359914079242,0.0013599140780159,-0.0013599140777642,0.0013599140762176,-0.0013599140791412,0.0013599140757978,-0.0013599140791657,0.0013599140763332,-6.8654137957329e-12,6.6033681539886e-12,-0.0013861425583975,0.00138614255808,-2.6815504334161e-14,-2.9982495820039e-13,-0.0014100429672941,0.0014100429623107,-0.0014100429671819,0.0014100429622565,-0.0014100429624113,0.0014100429671164,-0.0014100429629366,0.0014100429662965,-0.0013599140706453,0.0013599140839485,-0.0013599140838906,0.0013599140704434,0.0041951283298676,0.0039319117510487,0.7094716032616,0.35478008515377,1368840,32768,0.0057589358776718,0.0057589358774673,0.0057589358773653,39.472069706539,39.450994005761,0.00023097655765231,0.00023097655765231,0.00023097655765231,498734.48330689,0.017427094373442
10108800,0.98195216537585,0.01663670901567,0.005545569671885,0.0055455696719439,0.0055455696718409,-0.0013871018568102,0.0013871018561543,6.1951887412365e-12,-6.7272932505149e-12,-1.1180234922086e-13,-5.7628104206856e-13,-0.001411044168216,0.0014110441722494,-0.0014110441727145,0.0014110441680802,-0.0014110441689928,0.0014110441718852,-0.0014110441733036,0.0014110441682573,-0.001360830233031,0.001360830246245,-0.0013608302469664,0.0013608302331746,-9.2266569554928e-13,-4.3882059433206e-13,-7.1211148077719e-14,1.3268800529605e-13,-0.0013871018568992,0.0013871018560405,-0.0014110441708003,0.0014110441704453,-0.001411044170271,0.0014110441702595,-0.0014110441705541,0.0014110441706574,-0.0014110441707572,0.0014110441704666,-0.0013608302397017,0.0013608302396876,-0.0013608302382581,0.0013608302376922,-0.0013608302405362,0.0013608302370254,-0.0013608302407932,0.001360830237047,-6.519339838643e-12,6.8901486871578e-12,-0.0013871018563708,0.0013871018566693,2.5179763128462e-13,3.1498625973892e-14,-0.0014110441722285,0.0014110441685549,-0.0014110441728576,0.0014110441682707,-0.0014110441679915,0.0014110441734159,-0.001411044168566,0.0014110441729926,-0.0013608302307043,0.0013608302443697,-0.0013608302446045,0.0013608302312517,0.0041922126942459,0.003931155099497,0.70986525504493,0.36959624226753,1368840,32768,0.0057629097829574,0.0057629097829058,0.005762909783114,39.167392532234,39.146336323187,0.00022853914025787,0.00022853914025787,0.00022853914025787,492404.47842722,0.017439224907662
10195200,0.98305298867448,0.016653807643583,0.0055512692145226,0.0055512692145813,0.0055512692144788,-0.0013879501317768,0.0013879501310758,6.1040823480037e-12,-6.7525863013589e-12,-7.7513514368284e-14,-5.4940521604778e-13,-0.0014119278823092,0.0014119278867041,-0.0014119278865713,0.0014119278812951,-0.0014119278830682,0.0014119278868886,-0.0014119278876999,0.0014119278823338,-0.0013616423119782,0.0013616423251012,-0.0013616423261654,0.0013616423110033,-9.4531935643667e-13,-4.5497192444942e-13,-1.6550723798514e-13,1.2752719236711e-13,-0.0013879501317908,0.0013879501310286,-0.0014119278846445,0.0014119278850155,-0.0014119278843323,0.001411927885197,-0.0014119278847924,0.0014119278850918,-0.0014119278852661,0.0014119278848068,-0.0013616423195937,0.0013616423177142,-0.0013616423163203,0.001361642316485,-0.0013616423189379,0.0013616423156854,-0.0013616423188957,0.0013616423160334,-6.3532569123624e-12,6.9797510381027e-12,-0.0013879501311957,0.0013879501316133,3.0983177014622e-13,7.4243614261488e-15,-0.0014119278875031,0.0014119278831257,-0.001411927886694,0.001411927882699,-0.0014119278823569,0.0014119278878007,-0.0014119278826522,0.0014119278867406,-0.0013616423087892,0.0013616423232659,-0.0013616423227886,0.0013616423099902,0.0041889358885766,0.0039300373043031,0.71032017558077,0.38441239938136,1368840,32768,0.0057664237593504,0.0057664237592818,0.0057664237592604,38.862714776863,38.841678640584,0.0002261017182149,0.0002261017182149,0.0002261017182149,486247.927861,0.017449951618726
10281600,0.9840710187698,0.016669633027417,0.0055565443424675,0.0055565443425261,0.0055565443424233,-0.0013886968288448,0.0013886968284752,6.3111414342554e-12,-6.6721036424019e-12,7.895835258241e-14,-3.259860413502e-13,-0.0014127039466836,0.0014127039508782,-0.001412703950312,0.0014127039463838,-0.001412703947125,0.0014127039509019,-0.0014127039504976,0.0014127039469921,-0.0013623591622751,0.0013623591751129,-0.0013623591765903,0.0013623591617678,-5.6492377137833e-13,-1.2805502918323e-13,1.0940615771698e-13,3.4305140236808e-13,-0.0013886968288288,0.001388696828577,-0.0014127039485365,0.0014127039488751,-0.001412703947826,0.0014127039492192,-0.0014127039485051,0.0014127039491826,-0.0014127039483795,0.0014127039493249,-0.0013623591695294,0.0013623591677896,-0.0013623591665882,0.0013623591666673,-0.0013623591699287,0.0013623591665635,-0.001362359168632,0.0013623591666669,-6.4781725668631e-12,6.9864430101382e-12,-0.0013886968284612,0.0013886968289353,3.8112250402794e-13,1.4068790796334e-13,-0.0014127039503207,0.0014127039468925,-0.0014127039507619,0.0014127039465034,-0.0014127039463383,0.0014127039517779,-0.0014127039463771,0.0014127039510822,-0.0013623591599683,0.001362359173922,-0.0013623591737902,0.0013623591601793,0.0041853367466296,0.003928597832029,0.71083234365529,0.3992285564952,1368840,32768,0.0057695169392304,0.005769516939408,0.0057695169393888,38.558036951397,38.53702095801,0.00022366429561117,0.00022366429561117,0.00022366429561117,480257.47211385,0.017459393919676
10368000,0.98501332088767,0.016684294081251,0.0055614313604121,0.0055614313604709,0.005561431360368,-0.0013893505076257,0.0013893505071095,6.1286070105568e-12,-6.8390015437855e-12,-3.0208077163978e-14,-4.5067246755959e-13,-0.0014133814656609,0.0014133814696754,-0.0014133814698105,0.0014133814653859,-0.0014133814668507,0.0014133814707311,-0.0014133814716764,0.0014133814669489,-0.0013629887148915,0.0013629887276617,-0.001362988729434,0.0013629887133243,-6.2317916818653e-13,-1.6618374673002e-13,-4.2398851803005e-14,2.31051235661e-13,-0.0013893505076608,0.001389350507198,-0.0014133814685642,0.0014133814680495,-0.0014133814679043,0.0014133814679237,-0.0014133814679575,0.0014133814684526,-0.0014133814686108,0.0014133814686044,-0.0013629887216706,0.0013629887208693,-0.00136298871961,0.0013629887198953,-0.0013629887226556,0.0013629887193016,-0.001362988720932,0.0013629887198501,-6.6887319579476e-12,6.770417374279e-12,-0.0013893505074384,0.0013893505075474,1.8551665612291e-13,-9.9499372127186e-14,-0.0014133814700172,0.0014133814661846,-0.0014133814703134,0.0014133814659743,-0.0014133814666388,0.0014133814706663,-0.0014133814659315,0.0014133814701589,-0.0013629887132962,0.0013629887275215,-0.0013629887261861,0.0013629887125606,0.0041814503579042,0.0039268722705604,0.71139823868566,0.41404471360912,1368840,32768,0.0057722247824229,0.0057722247826787,0.0057722247829421,38.253359110738,38.232363275414,0.0002212268728859,0.0002212268728859,0.0002212268728859,474428.63420257,0.017467660020121
10454400,0.98589258344667,0.016697986675521,0.0055659955585017,0.0055659955585606,0.0055659955584583,-0.0013901902291462,0.0013901902287024,6.2671873652574e-12,-6.7268853806221e-12,1.3666523673553e-14,-4.4573867710703e-13,-0.0014142368504738,0.0014142368546201,-0.0014142368548447,0.0014142368501314,-0.0014142368512747,0.0014142368548661,-0.0014142368555744,0.0014142368506341,-0.0013638118646075,0.0013638118776166,-0.0013638118781972,0.0013638118639795,-7.525806268255e-13,-2.7106707202819e-13,-1.2426232151843e-13,2.136192093739e-13,-0.0013901902292605,0.0013901902286158,-0.0014142368529467,0.0014142368526543,-0.0014142368527779,0.0014142368529263,-0.0014142368527555,0.0014142368529612,-0.0014142368526955,0.0014142368529797,-0.0013638118715849,0.0013638118701593,-0.0013638118695983,0.0013638118690333,-0.0013638118718442,0.0013638118687397,-0.0013638118712186,0.0013638118686684,-6.7653048539923e-12,6.7134679081637e-12,-0.0013901902289454,0.0013901902288873,1.3643589080072e-13,-2.0511091047307e-13,-0.0014142368552692,0.0014142368507429,-0.0014142368552227,0.0014142368504442,-0.0014142368506854,0.0014142368554372,-0.0014142368506473,0.001414236855017,-0.0013638118623985,0.0013638118760833,-0.0013638118761445,0.0013638118622044,0.004178447019478,0.0039249252625746,0.71201273745974,0.42886087072296,1368840,32768,0.0057757033572122,0.0057757033572693,0.0057757033571792,38.084965923652,38.073038884521,0.00021987972738922,0.00021987972738922,0.00021987972738922,468647.87478107,0.01747827867894
10540800,0.98671927081238,0.016710808881904,0.0055702696272962,0.0055702696273551,0.0055702696272528,-0.0013912208859346,0.0013912208855026,6.2799959739632e-12,-6.7213905484854e-12,1.1923929849775e-14,-4.293744123182e-13,-0.0014152803084511,0.0014152803125995,-0.0014152803127993,0.0014152803081131,-0.0014152803092077,0.0014152803128513,-0.0014152803135451,0.0014152803085982,-0.0013648267527085,0.0013648267657617,-0.0013648267661608,0.0013648267520798,-7.5706975439162e-13,-2.9378637796899e-13,-1.3548768447365e-13,1.9622406431306e-13,-0.0013912208860628,0.0013912208854001,-0.0014152803109433,0.0014152803106305,-0.001415280310793,0.0014152803109175,-0.0014152803107495,0.0014152803109,-0.0014152803106742,0.0014152803109536,-0.0013648267596818,0.001364826758236,-0.001364826757664,0.0013648267570291,-0.0013648267599472,0.0013648267567466,-0.0013648267593061,0.0013648267566705,-6.766814219647e-12,6.7196282787921e-12,-0.001391220885743,0.0013912208856817,1.3231563431878e-13,-2.0285218535792e-13,-0.0014152803132401,0.0014152803087156,-0.0014152803132078,0.0014152803083892,-0.0014152803086638,0.0014152803134106,-0.0014152803086183,0.0014152803129681,-0.001364826750385,0.0013648267641359,-0.0013648267641671,0.0013648267503454,0.0041763489061348,0.0039227927977449,0.70913079091563,0.38822628619046,1368840,32768,0.005779972898925,0.0057799728989784,0.0057799728988994,38.051797322823,38.049168869218,0.00021961437858258,0.00021961437858258,0.00021961437858258,463085.66390953,0.017491311840852
10627200,0.98749690392831,0.01672285285725,0.005574284285745,0.0055742842858039,0.0055742842857016,-0.0013919324476528,0.0013919324472214,6.2840615556448e-12,-6.7220995268266e-12,4.6041534639191e-15,-4.3064449116522e-13,-0.0014161430420172,0.001416143046183,-0.0014161430463942,0.0014161430416801,-0.0014161430427903,0.0014161430464123,-0.00141614304711,0.001416143042169,-0.0013653971522326,0.0013653971653282,-0.0013653971657191,0.001365397151629,-7.6558767064571e-13,-3.0832734551712e-13,-1.3631960023567e-13,1.9026898153087e-13,-0.0013919324477835,0.0013919324471195,-0.0014161430444839,0.0014161430441983,-0.0014161430443189,0.0014161430444837,-0.0014161430443094,0.0014161430445032,-0.0014161430442479,0.0014161430445284,-0.0013653971592381,0.0013653971577355,-0.0013653971572766,0.0013653971565491,-0.0013653971594529,0.0013653971562166,-0.0013653971588845,0.0013653971561923,-6.7613367987431e-12,6.7298977591842e-12,-0.0013919324474554,0.0013919324474027,1.324298661232e-13,-1.9782542715723e-13,-0.0014161430468227,0.0014161430422947,-0.0014161430467747,0.0014161430419722,-0.0014161430422166,0.001416143046992,-0.0014161430421834,0.001416143046561,-0.0013653971499053,0.0013653971636564,-0.0013653971637217,0.0013653971498826,0.004173030494484,0.0039205023674725,0.70805560048627,0.37898076647405,1368840,32768,0.0057829203427541,0.0057829203428137,0.0057829203427209,38.027042455261,38.025298853915,0.00021941633964208,0.00021941633964208,0.00021941633964208,466679.33792067,0.017500310111606
10713600,0.98822843723135,0.016734158565809,0.0055780528552644,0.0055780528553232,0.005578052855221,-0.0013927368278196,0.0013927368273853,6.2843480174818e-12,-6.7257321217357e-12,5.6086521889373e-15,-4.3478871750313e-13,-0.0014170213313587,0.0014170213355256,-0.0014170213357375,0.0014170213310211,-0.0014170213321334,0.001417021335753,-0.0014170213364549,0.0014170213315081,-0.0013661315160203,0.0013661315291138,-0.0013661315295093,0.0013661315154139,-7.6680042771446e-13,-3.0442822933833e-13,-1.3304946484194e-13,1.8886578910331e-13,-0.0013927368279479,0.0013927368272857,-0.0014170213338259,0.0014170213335405,-0.0014170213336618,0.0014170213338247,-0.0014170213336496,0.0014170213338471,-0.0014170213335887,0.0014170213338715,-0.0013661315230166,0.0013661315215228,-0.0013661315210611,0.0013661315203325,-0.0013661315232417,0.0013661315200024,-0.001366131522666,0.0013661315199847,-6.7622433004619e-12,6.7328976381282e-12,-0.0013927368276199,0.0013927368275687,1.3084976733531e-13,-1.9474896231759e-13,-0.001417021336164,0.0014170213316349,-0.0014170213361154,0.0014170213313139,-0.0014170213315562,0.0014170213363339,-0.0014170213315224,0.0014170213359039,-0.0013661315136897,0.001366131527444,-0.0013661315275085,0.0013661315136699,0.0041701922680825,0.0039180665850327,0.70657682495774,0.36416572583627,1368840,32768,0.0057862524045564,0.005786252404616,0.0057862524045229,38.003082692306,38.001428838612,0.00021922466153844,0.00021922466153844,0.00021922466153844,465494.61400706,0.017510482110008
10800000,0.98891661979522,0.016744771224529,0.0055815904081712,0.00558159040823,0.0055815904081278,-0.0013934559892047,0.0013934559887734,6.2880094938615e-12,-6.7257509446901e-12,2.1531695162669e-15,-4.2892007325677e-13,-0.0014178273984252,0.0014178274025936,-0.0014178274028048,0.0014178273980877,-0.0014178273991979,0.0014178274028239,-0.0014178274035199,0.0014178273985773,-0.0013667689843625,0.0013667689974689,-0.001366768997858,0.0013667689837637,-7.6408945170939e-13,-3.1101502811614e-13,-1.3069809549819e-13,1.8244004422894e-13,-0.0013934559893364,0.0013934559886704,-0.0014178274008917,0.001417827400608,-0.0014178274007302,0.0014178274008898,-0.0014178274007182,0.0014178274009122,-0.0014178274006595,0.0014178274009338,-0.0013667689913668,0.0013667689898745,-0.0013667689894187,0.0013667689886723,-0.0013667689915866,0.001366768988349,-0.0013667689910241,0.0013667689883223,-6.7636856093415e-12,6.7351433930513e-12,-0.0013934559890054,0.0013934559889563,1.2749375221221e-13,-1.8934939197664e-13,-0.0014178274032315,0.0014178273987016,-0.0014178274031801,0.0014178273983828,-0.0014178273986226,0.001417827403401,-0.0014178273985856,0.0014178274029737,-0.0013667689820327,0.0013667689957973,-0.0013667689958591,0.0013667689820186,0.0041670972272482,0.0039154994131315,0.70503246929883,0.34935068519849,1368840,32768,0.0057892314148505,0.0057892314149099,0.0057892314148167,37.979203343332,37.977558823309,0.00021903362674665,0.00021903362674665,0.00021903362674665,465399.57280084,0.017519576534243
10886400,0.98956403531627,0.016754732501163,0.0055849108337158,0.0055849108337746,0.0055849108336724,-0.0013941206624063,0.0013941206619804,6.2923553022765e-12,-6.725940468312e-12,-2.5826858066038e-15,-4.1752742129447e-13,-0.0014185782517268,0.0014185782558968,-0.0014185782561085,0.0014185782513893,-0.0014185782524938,0.0014185782561335,-0.0014185782568183,0.001418578251885,-0.0013673528835105,0.0013673528966243,-0.0013673528970076,0.0013673528829079,-7.5914998495965e-13,-3.2220498038843e-13,-1.31304488738e-13,1.7485409950376e-13,-0.0013941206625443,0.001394120661871,-0.0014185782541931,0.0014185782539105,-0.0014185782540354,0.0014185782541902,-0.0014185782540256,0.0014185782542093,-0.0014185782539696,0.0014185782542283,-0.0013673528905226,0.0013673528890204,-0.0013673528885798,0.0013673528878134,-0.0013673528907327,0.0013673528875066,-0.0013673528901862,0.0013673528874609,-6.7637372548226e-12,6.7394273504147e-12,-0.0013941206622083,0.0013941206621624,1.2606206065529e-13,-1.83796296914e-13,-0.0014185782565369,0.0014185782520046,-0.0014185782564825,0.0014185782516883,-0.0014185782519259,0.0014185782567059,-0.0014185782518859,0.001418578256281,-0.0013673528811771,0.0013673528949589,-0.0013673528950005,0.0013673528811638,0.004163871548561,0.0039128136183959,0.7034288861004,0.3345356445607,1368840,32768,0.0057919847003122,0.0057919847003713,0.0057919847002792,37.955332263275,37.953688808006,0.0002188426581062,0.0002188426581062,0.0002188426581062,465489.57453471,0.017527981964664
10972800,0.99017311439448,0.016764081824154,0.0055880272747129,0.0055880272747717,0.0055880272746695,-0.001394734054238,0.001394734053814,6.2933906235893e-12,-6.724328517556e-12,-5.1101968281711e-15,-4.1349960316508e-13,-0.0014192771580829,0.0014192771622521,-0.001419277162464,0.0014192771577447,-0.0014192771588475,0.0014192771624906,-0.0014192771631717,0.0014192771582423,-0.0013678863684058,0.0013678863815275,-0.0013678863819039,0.0013678863678172,-7.5778643837976e-13,-3.2729200145402e-13,-1.3065771437887e-13,1.7230408916953e-13,-0.0013947340543784,0.0013947340537022,-0.0014192771605486,0.0014192771602667,-0.001419277160392,0.001419277160545,-0.0014192771603837,0.001419277160563,-0.0014192771603289,0.0014192771605804,-0.001367886375419,0.0013678863739203,-0.0013678863734818,0.0013678863727089,-0.0013678863756307,0.0013678863724081,-0.0013678863750917,0.0013678863723558,-6.7635738480499e-12,6.7390666849622e-12,-0.0013947340540406,0.0013947340539953,1.2472192512492e-13,-1.8207434951831e-13,-0.0014192771628911,0.0014192771583594,-0.0014192771628358,0.0014192771580444,-0.0014192771582809,0.0014192771630602,-0.0014192771582404,0.0014192771626372,-0.0013678863660758,0.0013678863798536,-0.0013678863799029,0.0013678863660665,0.0041605276212191,0.0039100212113843,0.70177133550598,0.31972060392292,1368840,32768,0.0057945255468679,0.0057945255469271,0.0057945255468346,37.931462037798,37.929818792703,0.00021865169630238,0.00021865169630238,0.00021865169630238,465755.47201496,0.017535738942854
11059200,0.99074614353238,0.016772856347558,0.0055909521158476,0.0055909521159064,0.0055909521158042,-0.0013952991851385,0.0013952991847174,6.2965357039799e-12,-6.723568717238e-12,-7.4095383495719e-15,-4.0795189029096e-13,-0.0014199272053633,0.0014199272095334,-0.0014199272097457,0.0014199272050252,-0.0014199272061253,0.0014199272097744,-0.0014199272104509,0.0014199272055252,-0.0013683724014749,0.0013683724146092,-0.0013683724149795,0.0013683724008965,-7.5637368742069e-13,-3.3379509690656e-13,-1.288168000293e-13,1.6696942861033e-13,-0.0013952991852821,0.0013952991846024,-0.0014199272078284,0.0014199272075482,-0.0014199272076741,0.0014199272078238,-0.0014199272076663,0.0014199272078426,-0.001419927207613,0.0014199272078576,-0.0013683724084976,0.0013683724069976,-0.0013683724065715,0.0013683724057798,-0.0013683724087115,0.0013683724054856,-0.0013683724081782,0.0013683724054253,-6.7634544987547e-12,6.7415456680545e-12,-0.0013952991849412,0.0013952991848985,1.2241076043529e-13,-1.7712882413013e-13,-0.0014199272101726,0.0014199272056394,-0.0014199272101144,0.0014199272053268,-0.001419927205561,0.0014199272103418,-0.0014199272055178,0.0014199272099205,-0.0013683723991497,0.0013683724129351,-0.0013683724129846,0.0013683723991471,0.0041570770416934,0.0039071334375037,0.70006421497323,0.30490556328514,1368840,32768,0.0057968664681736,0.0057968664682328,0.0057968664681402,37.907591901241,37.9059487774,0.00021846073520993,0.00021846073520993,0.00021846073520993,466189.38108219,0.017542885655236
11145600,0.99128527344572,0.016781094066297,0.0055936980220939,0.0055936980221527,0.0055936980220505,-0.0013958191647027,0.0013958191642818,6.3000624785923e-12,-6.7265457439389e-12,-9.5428849420037e-15,-4.0651111077637e-13,-0.0014205314806623,0.0014205314848341,-0.0014205314850464,0.0014205314803242,-0.0014205314814239,0.0014205314850763,-0.0014205314857515,0.0014205314808246,-0.0013688141893291,0.001368814202472,-0.0013688142028444,0.0013688141887568,-7.5445780477312e-13,-3.3543704674612e-13,-1.2751401629904e-13,1.6401151897244e-13,-0.0013958191648472,0.0013958191641659,-0.0014205314831288,0.0014205314828483,-0.001420531482976,0.0014205314831227,-0.0014205314829671,0.0014205314831418,-0.0014205314829152,0.0014205314831553,-0.0013688141963588,0.0013688141948592,-0.0013688141944311,0.0013688141936358,-0.0013688141965668,0.0013688141933488,-0.0013688141960418,0.0013688141932845,-6.766611519957e-12,6.744821332691e-12,-0.0013958191645051,0.0013958191644635,1.2102109700621e-13,-1.7429867529511e-13,-0.0014205314854734,0.0014205314809389,-0.0014205314854142,0.0014205314806276,-0.0014205314808606,0.0014205314856424,-0.0014205314808162,0.0014205314852232,-0.0013688141870057,0.0013688142007959,-0.0013688142008476,0.0013688141870023,0.0041535317008237,0.0039041616295049,0.69856587714441,0.29399228489918,1368840,32768,0.0057990203476884,0.0057990203477476,0.0057990203476553,37.883721772874,37.882078762097,0.00021826977418299,0.00021826977418299,0.00021826977418299,466779.10872754,0.017549461416474
11232000,0.99179162381215,0.016788848848239,0.0055962829494078,0.0055962829494667,0.0055962829493644,-0.0013962547551775,0.0013962547547606,6.2979919536101e-12,-6.7222436988928e-12,-1.5710931806524e-14,-4.0160914288107e-13,-0.0014210396723989,0.001421039676572,-0.0014210396767772,0.0014210396720592,-0.0014210396731575,0.0014210396768161,-0.0014210396774784,0.0014210396725654,-0.0013691836032181,0.0013691836163746,-0.0013691836167255,0.001369183602632,-7.4914358476595e-13,-3.409145264717e-13,-1.2151975824304e-13,1.5893529169476e-13,-0.0013962547553241,0.0013962547546418,-0.0014210396748619,0.0014210396745849,-0.0014210396747122,0.0014210396748591,-0.0014210396747064,0.0014210396748722,-0.0014210396746594,0.0014210396748885,-0.0013691836102377,0.0013691836087619,-0.001369183608309,0.00136918360751,-0.0013691836104452,0.0013691836072319,-0.0013691836099295,0.0013691836071646,-6.7652542673024e-12,6.7397252530787e-12,-0.0013962547549813,0.0013962547549403,1.1608748301884e-13,-1.6842853109458e-13,-0.001421039677206,0.0014210396726731,-0.001421039677143,0.0014210396723632,-0.0014210396725909,0.0014210396773725,-0.0014210396725479,0.0014210396769536,-0.0013691836008746,0.0013691836146958,-0.0013691836147227,0.0013691836008851,0.0041497238202271,0.0039011203899035,0.70017945835534,0.33161180199134,1368840,32768,0.0058008246610483,0.005800824661106,0.0058008246610141,37.826007459834,37.822117251385,0.00021780805967867,0.00021780805967867,0.00021780805967867,466793.6177623,0.017554970015388
11318400,0.99226648137158,0.016796124525319,0.0055987081751012,0.00559870817516,0.0055987081750577,-0.001396853958061,0.0013968539576299,6.2989101020319e-12,-6.7384966141421e-12,-1.9513521522371e-15,-4.2427492104534e-13,-0.0014215770808507,0.0014215770850244,-0.0014215770852394,0.0014215770805108,-0.0014215770816207,0.0014215770852576,-0.0014215770859533,0.0014215770810041,-0.0013698398281164,0.0013698398412349,-0.0013698398416165,0.0013698398274861,-7.5989172700582e-13,-3.152447224313e-13,-1.234315527802e-13,1.7521108859798e-13,-0.0013968539581939,0.0013968539575245,-0.0014215770833145,0.0014215770830323,-0.0014215770831613,0.0014215770833104,-0.0014215770831463,0.0014215770833347,-0.0014215770830923,0.0014215770833535,-0.0013698398350879,0.0013698398336222,-0.0013698398331792,0.0013698398324288,-0.0013698398353193,0.0013698398321123,-0.00136983983479,0.0013698398320752,-6.7683931714111e-12,6.7536705035314e-12,-0.0013968539578583,0.001396853957816,1.2219638463139e-13,-1.8007888106674e-13,-0.0014215770856636,0.001421577081125,-0.0014215770856104,0.0014215770808105,-0.0014215770810457,0.0014215770858339,-0.0014215770810059,0.0014215770854095,-0.0013698398257591,0.0013698398395746,-0.0013698398395946,0.0013698398257584,0.0041466792641745,0.0038980109729774,0.70048021540693,0.34600422993901,1368840,32768,0.0058033069258366,0.0058033069258937,0.0058033069258024,37.737336803469,37.731315303286,0.00021709869442776,0.00021709869442776,0.00021709869442776,458530.41280944,0.017562547577147
11404800,0.99271186858691,0.016802950406805,0.0056009834689297,0.0056009834689886,0.0056009834688863,-0.0013972903912483,0.0013972903908027,6.3049408589729e-12,-6.7509859973059e-12,-5.9635237007974e-15,-4.3846007593389e-13,-0.0014220109510994,0.0014220109551071,-0.0014220109554066,0.0014220109506049,-0.0014220109518275,0.0014220109554529,-0.0014220109560928,0.0014220109512334,-0.001370278654387,0.001370278667239,-0.001370278667791,0.0013702786534533,-7.2980470496722e-13,-2.7580292735106e-13,-8.8467356206524e-14,2.0879091569849e-13,-0.0013972903913405,0.0013972903907101,-0.001422010953411,0.0014220109532976,-0.0014220109532762,0.0014220109536028,-0.0014220109532698,0.0014220109534922,-0.0014220109533137,0.0014220109535712,-0.0013702786613236,0.0013702786596094,-0.0013702786591287,0.001370278658388,-0.0013702786612867,0.0013702786579758,-0.001370278660657,0.0013702786580501,-6.766188944631e-12,6.7708048330306e-12,-0.001397290391002,0.001397290390977,1.364150973183e-13,-1.627673216877e-13,-0.0014220109557989,0.0014220109513091,-0.0014220109557371,0.0014220109507968,-0.0014220109511453,0.0014220109560938,-0.0014220109512279,0.0014220109555393,-0.0013702786517625,0.0013702786655805,-0.0013702786653256,0.0013702786515035,0.00414305016996,0.0038948422742434,0.70057435754832,0.35610410304843,1368840,32768,0.0058051148269152,0.0058051148269143,0.0058051148267663,37.646735966588,37.640513355189,0.00021637388773271,0.00021637388773271,0.00021637388773271,454240.37458145,0.017568066817216
11491200,0.993129715866,0.016809355886397,0.0056031186287937,0.0056031186288526,0.0056031186287503,-0.0013976710844362,0.0013976710839211,6.2769431848708e-12,-6.7831250743027e-12,-1.7178592852839e-14,-4.4473206079964e-13,-0.0014223967859307,0.0014223967900115,-0.001422396790314,0.001422396785575,-0.001422396786763,0.0014223967902164,-0.0014223967910211,0.0014223967860841,-0.0013706547075373,0.0013706547207195,-0.0013706547210649,0.0013706547069073,-6.7345748515964e-13,-2.2429267742443e-13,-3.0456216642311e-14,2.3617622615488e-13,-0.0013976710844311,0.0013976710839456,-0.0014223967883178,0.0014223967881312,-0.001422396788185,0.0014223967884067,-0.0014223967879719,0.0014223967885922,-0.0014223967879957,0.0014223967884805,-0.0013706547146547,0.0013706547133459,-0.0013706547125047,0.0013706547120971,-0.0013706547144848,0.0013706547116734,-0.0013706547141295,0.0013706547115457,-6.8520110287076e-12,6.6955878661514e-12,-0.0013976710842741,0.0013976710841,4.2020775117694e-14,-2.280979435291e-13,-0.0014223967908464,0.0014223967861283,-0.0014223967907906,0.0014223967857005,-0.0014223967861262,0.0014223967908344,-0.0014223967862045,0.001422396790401,-0.0013706547052447,0.0013706547189545,-0.0013706547190506,0.0013706547052855,0.004139278703253,0.0038916230415996,0.70071348496498,0.36620397615778,1368840,32768,0.0058066918093233,0.0058066918093637,0.0058066918093583,37.555952759622,37.54971140709,0.00021564762207697,0.00021564762207697,0.00021564762207697,450694.02535142,0.017572881183136
11577600,0.99352182540957,0.016815368673335,0.0056051228911066,0.0056051228911653,0.0056051228910631,-0.0013980206634951,0.0013980206629419,6.2559704726316e-12,-6.8191108573147e-12,-4.0167655258645e-14,-4.8096083638836e-13,-0.0014227499768776,0.001422749980935,-0.0014227499811857,0.0014227499763485,-0.0014227499776651,0.0014227499808363,-0.0014227499819135,0.0014227499768728,-0.0013710012275592,0.0013710012404831,-0.0013710012406645,0.0013710012265023,-6.7132972663179e-13,-2.0792505979685e-13,-3.7882078022637e-15,2.6784372932263e-13,-0.0013980206634621,0.0013980206629941,-0.0014227499790732,0.0014227499792569,-0.0014227499789016,0.0014227499793806,-0.00142274997875,0.0014227499793638,-0.0014227499789747,0.001422749979443,-0.0013710012345426,0.0013710012331141,-0.0013710012326507,0.0013710012318504,-0.0013710012344381,0.0013710012314673,-0.0013710012342173,0.0013710012315195,-6.7767467397447e-12,6.7791295198936e-12,-0.0013980206632202,0.0013980206631798,1.2736628551799e-13,-1.5101682771605e-13,-0.001422749981692,0.0014227499771845,-0.0014227499815885,0.0014227499768323,-0.0014227499768352,0.0014227499816862,-0.0014227499768728,0.0014227499815132,-0.0013710012252711,0.0013710012391409,-0.0013710012389938,0.0013710012255236,0.0041354657512046,0.0038883614587017,0.70089480952866,0.37630384926716,1368840,32768,0.0058081399040753,0.0058081399041152,0.0058081399039987,37.465151119994,37.458909458987,0.00021492120895995,0.00021492120895995,0.00021492120895995,447210.94226446,0.017577302085479
11664000,0.99388987649454,0.016821014597186,0.0056070048657236,0.0056070048657824,0.0056070048656801,-0.0013983411434845,0.0013983411430008,6.2971697434339e-12,-6.7767958558913e-12,-7.6120027526586e-15,-4.7246686057937e-13,-0.0014230722118415,0.0014230722160112,-0.0014230722161321,0.0014230722114488,-0.0014230722124565,0.0014230722161727,-0.0014230722170549,0.0014230722120608,-0.0013713204096286,0.0013713204227969,-0.0013713204227327,0.0013713204084972,-7.3994410109798e-13,-2.532140291911e-13,-7.2194323924725e-14,2.1734647786135e-13,-0.001398341143532,0.0013983411429544,-0.0014230722141704,0.0014230722140331,-0.0014230722138804,0.0014230722142499,-0.0014230722138422,0.0014230722142297,-0.0014230722140168,0.0014230722143541,-0.0013713204164977,0.001371320415021,-0.0013713204144148,0.0013713204137444,-0.0013713204166643,0.0013713204131859,-0.0013713204163131,0.0013713204134536,-6.7713227877957e-12,6.7863602989983e-12,-0.0013983411432317,0.0013983411432031,1.2124341374399e-13,-1.7289589461969e-13,-0.0014230722165894,0.0014230722120705,-0.0014230722166716,0.0014230722118736,-0.0014230722120211,0.0014230722167894,-0.0014230722119732,0.0014230722164206,-0.0013713204068164,0.0013713204209743,-0.0013713204207212,0.0013713204074624,0.0041316186715502,0.0038850650792737,0.7011159138558,0.38640372237661,1368840,32768,0.0058094674586462,0.0058094674586486,0.0058094674585418,37.374347584359,37.368107510891,0.00021419478067487,0.00021419478067487,0.00021419478067487,443783.77401309,0.017581355003596
11750400,0.99423543378943,0.01682631767928,0.0056087725597548,0.0056087725598136,0.0056087725597113,-0.0013986343832422,0.0013986343825638,6.2011854992161e-12,-6.8896883482796e-12,-9.6605284069002e-14,-5.6768412822779e-13,-0.0014233654393077,0.0014233654433447,-0.0014233654436027,0.001423365438848,-0.0014233654400982,0.0014233654434745,-0.0014233654445983,0.0014233654393324,-0.0013716139990848,0.0013716140122207,-0.0013716140127032,0.0013716139984763,-8.9288313479783e-13,-3.9953179457792e-13,-1.9235068264221e-13,9.0411737983466e-14,-0.0013986343833143,0.0013986343824746,-0.001423365441748,0.0014233654413603,-0.0014233654416733,0.0014233654416625,-0.0014233654413753,0.0014233654416805,-0.0014233654416862,0.0014233654416395,-0.0013716140062997,0.0013716140045736,-0.0013716140040538,0.0013716140033732,-0.0013716140063208,0.0013716140029152,-0.0013716140059807,0.0013716140031127,-6.7278722916491e-12,6.8461460019978e-12,-0.00139863438282,0.0013986343828779,1.6861055494564e-13,-1.1657164469863e-13,-0.0014233654439682,0.0014233654394989,-0.0014233654439465,0.0014233654391236,-0.0014233654393722,0.0014233654442861,-0.0014233654392233,0.001423365444092,-0.0013716139965685,0.00137161401038,-0.001371614010549,0.001371613996766,0.0041277441744583,0.0038817408512622,0.70137468480473,0.39650359548597,1368840,32768,0.0058106821725922,0.0058106821725568,0.0058106821723685,37.283543850605,37.277305562793,0.00021346835080483,0.00021346835080483,0.00021346835080483,440410.74671648,0.017585063439491
11836800,0.99455995540015,0.016831303738629,0.005610434579538,0.0056104345795968,0.0056104345794945,-0.0013989024427173,0.0013989024422668,6.3108122090189e-12,-6.7738148293126e-12,-8.1860440396208e-15,-4.5304645385946e-13,-0.001423631355147,0.0014236313593445,-0.001423631359546,0.0014236313547985,-0.0014236313559155,0.0014236313595478,-0.0014236313602534,0.0014236313552737,-0.0013718845797252,0.0013718845929079,-0.0013718845932537,0.0013718845790663,-7.7686176740626e-13,-3.1003670506207e-13,-9.6389290667452e-14,1.5160204513217e-13,-0.0013989024428378,0.0013989024421749,-0.0014236313575819,0.0014236313573616,-0.0014236313574577,0.0014236313576171,-0.0014236313574115,0.001423631357635,-0.0014236313573759,0.001423631357645,-0.0013718845867496,0.0013718845853677,-0.0013718845848355,0.0013718845840254,-0.0013718845869968,0.0013718845836496,-0.0013718845864597,0.0013718845837209,-6.7824376835373e-12,6.7870853650833e-12,-0.0013989024424974,0.0013989024424707,1.0354124865063e-13,-1.4843002438817e-13,-0.001423631359962,0.0014236313554051,-0.0014236313598522,0.0014236313551117,-0.001423631355351,0.001423631360139,-0.0014236313552693,0.0014236313597374,-0.0013718845773795,0.0013718845913083,-0.0013718845912838,0.0013718845774555,0.0041238497585912,0.0038783960950653,0.70215791405618,0.41440432049796,1368840,32768,0.0058117925810168,0.0058117925810759,0.0058117925809838,37.192740075902,37.186503614695,0.00021274192060722,0.00021274192060722,0.00021274192060722,437081.47805042,0.017588453445048
11923200,0.99486480037101,0.016836001284626,0.0056120004282037,0.0056120004282625,0.0056120004281602,-0.0013991854901013,0.0013991854896787,6.3380851993772e-12,-6.7668141020035e-12,1.6639315209754e-14,-4.6027735060759e-13,-0.0014238921306672,0.0014238921348787,-0.00142389213509,0.0014238921303935,-0.0014238921314677,0.0014238921350963,-0.0014238921358237,0.0014238921307544,-0.001372188683766,0.0013721886969255,-0.001372188697522,0.0013721886832823,-7.8084370458434e-13,-2.819633862121e-13,-6.403113212816e-14,1.706621981517e-13,-0.0013991854902216,0.0013991854895873,-0.0014238921330763,0.0014238921328903,-0.001423892132945,0.0014238921331613,-0.0014238921329442,0.0014238921332229,-0.0014238921329709,0.0014238921332209,-0.0013721886907546,0.0013721886894774,-0.0013721886888737,0.0013721886881535,-0.0013721886910854,0.0013721886877386,-0.0013721886905544,0.0013721886878369,-6.8111238660177e-12,6.7787088268631e-12,-0.0013991854899015,0.0013991854898693,9.0494176641492e-14,-1.4762701950765e-13,-0.0014238921354695,0.0014238921309665,-0.0014238921355461,0.0014238921306737,-0.001423892130914,0.0014238921356618,-0.0014238921308276,0.0014238921352703,-0.0013721886815061,0.0013721886952591,-0.0013721886954195,0.0013721886813258,0.0041201003120395,0.0038750387504042,0.70419384088485,0.45157405799106,1368840,32768,0.0058129651091509,0.0058129651092106,0.0058129651091319,37.101936244206,37.095701666597,0.00021201548995364,0.00021201548995364,0.00021201548995364,432627.27069928,0.017592032976367
12009600,0.99515157500907,0.016840434203396,0.0056134780677936,0.0056134780678523,0.00561347806775,-0.0013995809456447,0.0013995809452,6.3251903580116e-12,-6.7657463699161e-12,7.813231899364e-15,-4.5953125575322e-13,-0.0014242181446696,0.0014242181488623,-0.0014242181490692,0.0014242181443168,-0.0014242181454096,0.001424218149099,-0.0014242181498006,0.0014242181447512,-0.0013726483349884,0.0013726483482264,-0.0013726483486967,0.0013726483346301,-7.6159935130966e-13,-2.7214427441452e-13,-7.6295081002352e-14,1.5753404038438e-13,-0.0013995809457504,0.0013995809451176,-0.0014242181471397,0.0014242181469227,-0.0014242181470143,0.0014242181471828,-0.0014242181469634,0.0014242181471814,-0.0014242181468835,0.0014242181471937,-0.0013726483420331,0.0013726483404836,-0.001372648340168,0.001372648339459,-0.0013726483422773,0.0013726483391469,-0.0013726483415927,0.0013726483392133,-6.8019147355856e-12,6.7735794247393e-12,-0.0013995809454229,0.001399580945398,9.5237355270052e-14,-1.4271905179564e-13,-0.0014242181495111,0.0014242181449731,-0.0014242181494304,0.0014242181446453,-0.0014242181448629,0.0014242181496694,-0.0014242181448216,0.0014242181492804,-0.001372648332719,0.0013726483464281,-0.0013726483466944,0.0013726483326325,0.0041169002796734,0.0038716757760007,0.70635738831084,0.48874379548415,1368840,32768,0.0058146033580549,0.0058146033581031,0.0058146033580058,37.03345934747,37.028705266346,0.00021146767477975,0.00021146767477975,0.00021146767477975,425443.55629849,0.017597034012195
12096000,0.99542167144652,0.016844623232841,0.0056148744109418,0.0056148744110005,0.0056148744108982,-0.0013999894064217,0.0013999894059728,6.3141982820473e-12,-6.769724601325e-12,3.228136676758e-16,-4.6084668615596e-13,-0.0014245566331177,0.0014245566373079,-0.0014245566375015,0.0014245566327735,-0.0014245566338237,0.0014245566375005,-0.0014245566382386,0.001424556633274,-0.001373121080118,0.0013731210933619,-0.0013731210936546,0.0013731210794379,-7.6847178842024e-13,-2.8521093406056e-13,-7.7525249303908e-14,1.5242987278378e-13,-0.0013999894065437,0.0013999894058861,-0.0014245566355878,0.00142455663533,-0.0014245566354464,0.0014245566355701,-0.0014245566354056,0.001424556635619,-0.0014245566353428,0.0014245566356216,-0.0013731210870372,0.0013731210857344,-0.0013731210851959,0.0013731210845213,-0.0013731210873299,0.0013731210841601,-0.0013731210867574,0.0013731210841667,-6.794512667596e-12,6.7741515837308e-12,-0.0013999894062076,0.0013999894061734,8.8125748995331e-14,-1.4591910109515e-13,-0.0014245566379298,0.0014245566333897,-0.0014245566378418,0.0014245566330905,-0.0014245566332807,0.0014245566381141,-0.0014245566332444,0.0014245566376958,-0.0013731210776788,0.0013731210916593,-0.0013731210916807,0.0013731210778213,0.0041138377179185,0.0038683130780762,0.70864323702994,0.52591353297724,1368840,32768,0.005816295478401,0.005816295478474,0.005816295478373,36.98380390059,36.980347958063,0.00021107043120472,0.00021107043120472,0.00021107043120472,418422.66597851,0.017602199523167
12182400,0.99567610947373,0.01684858322367,0.0056161944078849,0.0056161944079436,0.0056161944078413,-0.0014003779021103,0.0014003779016655,6.3086247464326e-12,-6.7729745608645e-12,8.3270985540316e-15,-4.5405548185788e-13,-0.0014248760127585,0.0014248760169599,-0.0014248760171644,0.0014248760124469,-0.0014248760135163,0.0014248760171926,-0.0014248760178638,0.0014248760128262,-0.0013735729291947,0.0013735729422828,-0.0013735729427325,0.0013735729285531,-7.6922141257856e-13,-2.8485635665737e-13,-8.1418071557331e-14,1.4530053175673e-13,-0.0014003779022299,0.0014003779015762,-0.0014248760151832,0.0014248760149931,-0.0014248760150837,0.0014248760152414,-0.0014248760150328,0.0014248760152796,-0.001424876014983,0.0014248760152733,-0.001373572936169,0.001373572934786,-0.0013735729342779,0.0013735729335385,-0.0013735729364011,0.0013735729332,-0.0013735729357396,0.0013735729331997,-6.7780481705751e-12,6.7882672407425e-12,-0.0014003779018803,0.0014003779018749,1.0460639258181e-13,-1.2639505048267e-13,-0.0014248760175549,0.0014248760130479,-0.0014248760174446,0.0014248760127524,-0.0014248760129581,0.0014248760177442,-0.0014248760128601,0.0014248760173607,-0.0013735729268808,0.0013735729407742,-0.0013735729407232,0.0013735729269152,0.004110773215763,0.0038649545922968,0.71105275901488,0.56308327047033,1368840,32768,0.0058179048896458,0.0058179048897086,0.0058179048896034,36.935322764971,36.931990649781,0.00021068258211977,0.00021068258211977,0.00021068258211977,411585.31747395,0.01760711256289
12268800,0.99591582959111,0.016852326108251,0.0056174420360786,0.0056174420361373,0.005617442036035,-0.0014007453691758,0.0014007453687316,6.3109616162193e-12,-6.7630593931779e-12,1.2481618695117e-14,-4.4499852324763e-13,-0.0014251735973208,0.0014251736015205,-0.0014251736017254,0.0014251735969884,-0.0014251735981102,0.0014251736017216,-0.0014251736024552,0.0014251735974629,-0.0013740039027502,0.0013740039158848,-0.0013740039162733,0.0013740039021128,-7.6862369554429e-13,-2.8917551882757e-13,-7.7858356774762e-14,1.5194241708698e-13,-0.0014007453692907,0.001400745368645,-0.001425173599788,0.0014251735995345,-0.00142517359964,0.0014251735997927,-0.0014251735995935,0.0014251735998561,-0.001425173599565,0.0014251735998417,-0.0013740039097101,0.0013740039083587,-0.0013740039078405,0.0013740039070559,-0.0013740039099825,0.0013740039067261,-0.0013740039094051,0.0013740039067151,-6.7772991934559e-12,6.7816096500097e-12,-0.0014007453689541,0.0014007453689365,1.0039784467947e-13,-1.3343889412162e-13,-0.0014251736021449,0.0014251735976046,-0.0014251736020636,0.0014251735973082,-0.0014251735975197,0.0014251736023309,-0.0014251735974576,0.0014251736019246,-0.0013740039003664,0.0013740039142583,-0.0013740039142389,0.0013740039004323,0.004107701090012,0.0038616033930392,0.71326268769832,0.59448294252411,1368840,32768,0.0058194271859202,0.005819427185979,0.0058194271858855,36.886952406773,36.883633341498,0.00021029561925418,0.00021029561925418,0.00021029561925418,404900.36826454,0.017611759674016
12355200,0.99614171291279,0.016855843193207,0.0056186143977307,0.0056186143977894,0.0056186143976871,-0.0014010675894042,0.0014010675889669,6.304509048635e-12,-6.7575916190382e-12,1.405709997701e-14,-4.4093688262208e-13,-0.0014254411588254,0.0014254411630143,-0.0014254411632172,0.0014254411584896,-0.0014254411595983,0.0014254411632419,-0.0014254411639202,0.0014254411589723,-0.0013743750613474,0.0013743750744859,-0.001374375074857,0.0013743750606859,-7.9181898694406e-13,-3.1512531431443e-13,-1.03277344948e-13,1.3877964273012e-13,-0.0014010675895469,0.0014010675888569,-0.0014254411613197,0.0014254411610351,-0.0014254411611542,0.001425441161278,-0.0014254411611404,0.0014254411613272,-0.0014254411611107,0.001425441161322,-0.0013743750683379,0.0013743750669825,-0.0013743750664016,0.0013743750656391,-0.0013743750685374,0.0013743750653098,-0.0013743750680505,0.0013743750653872,-6.7743562833597e-12,6.7731719960095e-12,-0.0014010675891867,0.0014010675891675,1.1185808281235e-13,-1.3389449785029e-13,-0.0014254411636481,0.0014254411591085,-0.0014254411635666,0.0014254411588358,-0.0014254411590131,0.0014254411638183,-0.0014254411589669,0.0014254411634301,-0.0013743750590058,0.0013743750729048,-0.0013743750728766,0.0013743750590701,0.0041045209304573,0.0038582569863663,0.71122382314821,0.5528617812204,1368840,32768,0.0058207620230663,0.0058207620231342,0.0058207620230316,36.838593370173,36.835276033215,0.00020990874696138,0.00020990874696138,0.00020990874696138,399133.43865198,0.017615834606341
12441600,0.99635458619801,0.016859109401982,0.0056197031339889,0.0056197031340477,0.0056197031339453,-0.0014010688342305,0.0014010688337903,6.313266839914e-12,-6.7597248479871e-12,1.4485792763092e-14,-4.4610931284318e-13,-0.001425535210831,0.001425535215022,-0.0014255352152339,0.0014255352105,-0.0014255352116171,0.0014255352152364,-0.0014255352159589,0.0014255352109774,-0.0013742884257481,0.0013742884388795,-0.0013742884392625,0.0013742884251157,-7.6904732966138e-13,-2.866265966954e-13,-8.8423828124512e-14,1.6251585878148e-13,-0.0014010688343406,0.0014010688336926,-0.0014255352132039,0.0014255352129441,-0.0014255352130624,0.0014255352132031,-0.0014255352130161,0.0014255352132609,-0.0014255352129849,0.0014255352132612,-0.0013742884327579,0.0013742884313441,-0.0013742884308596,0.0013742884300969,-0.0013742884331251,0.0013742884298398,-0.0013742884325084,0.0013742884298281,-6.7751950812645e-12,6.7829543736352e-12,-0.0014010688340046,0.0014010688339828,1.1010243056397e-13,-1.4483619300078e-13,-0.0014255352155649,0.0014255352110159,-0.0014255352154903,0.0014255352107169,-0.0014255352109307,0.0014255352157348,-0.0014255352108762,0.0014255352153319,-0.0013742884234886,0.001374288437359,-0.0013742884373631,0.001374288423547,0.0041000942017781,0.003854908315848,0.70080290656053,0.38766121643206,1368840,32768,0.0058207669856265,0.0058207669856521,0.0058207669855574,36.790235653858,36.786918724933,0.00020952188523086,0.00020952188523086,0.00020952188523086,402384.81610239,0.0176158504842
12528000,0.9965552253659,0.016862200566629,0.0056207335222046,0.0056207335222633,0.005620733522161,-0.0014004759138794,0.001400475913436,6.3123630439949e-12,-6.7550012275846e-12,4.7697366407609e-15,-4.4446865708174e-13,-0.0014253199400875,0.001425319944243,-0.0014253199444873,0.0014253199397088,-0.001425319940855,0.0014253199444751,-0.0014253199452056,0.0014253199401936,-0.0013733498080412,0.0013733498211957,-0.0013733498215367,0.0013733498074202,-7.5929674518211e-13,-2.882169598756e-13,-8.7976665314441e-14,1.808142703658e-13,-0.0014004759139908,0.0014004759133463,-0.0014253199425028,0.0014253199422292,-0.0014253199423733,0.0014253199425339,-0.0014253199423635,0.0014253199425471,-0.0014253199422895,0.0014253199425542,-0.0013733498150246,0.0013733498136417,-0.0013733498130614,0.001373349812375,-0.001373349815296,0.001373349812069,-0.0013733498147325,0.001373349812049,-6.7806630906911e-12,6.7719159755565e-12,-0.0014004759136649,0.0014004759136288,1.1912891951681e-13,-1.5341775436938e-13,-0.0014253199448715,0.0014253199403175,-0.0014253199448,0.0014253199399928,-0.0014253199402395,0.0014253199450179,-0.0014253199402009,0.0014253199446194,-0.0013733498056614,0.0013733498195366,-0.0013733498195474,0.0013733498057492,0.0040932855537493,0.0038515773648674,0.70372108069076,0.44416568327059,1368840,32768,0.0058183102455239,0.0058183102455689,0.0058183102454792,36.74187778181,36.73856141665,0.00020913502225448,0.00020913502225448,0.00020913502225448,423245.69233837,0.017608352508426
12614400,0.99674435870931,0.01686508469119,0.0056216948970582,0.0056216948971169,0.0056216948970146,-0.0014008709705581,0.0014008709701077,6.3051930865616e-12,-6.7617480802964e-12,5.2010175830712e-15,-4.4810972232028e-13,-0.0014256080699966,0.0014256080741895,-0.0014256080744003,0.0014256080696699,-0.0014256080708,0.0014256080743889,-0.0014256080751209,0.0014256080701505,-0.0013738447394659,0.0013738447526314,-0.0013738447530571,0.0013738447388532,-7.6331276955414e-13,-2.8796243823929e-13,-8.2614946758321e-14,1.659013730034e-13,-0.0014008709706711,0.0014008709700262,-0.0014256080724807,0.0014256080721731,-0.0014256080723027,0.0014256080724611,-0.0014256080722769,0.0014256080725279,-0.0014256080722644,0.0014256080725522,-0.0013738447464664,0.0013738447451249,-0.0013738447446393,0.0013738447438142,-0.0013738447467196,0.0013738447435019,-0.0013738447462062,0.0013738447435002,-6.7721877613713e-12,6.7796160050318e-12,-0.0014008709703346,0.0014008709703124,1.0524034380327e-13,-1.4754849249484e-13,-0.0014256080748497,0.0014256080702558,-0.0014256080747584,0.0014256080699568,-0.001425608070195,0.0014256080750329,-0.001425608070142,0.0014256080745595,-0.001373844737164,0.0013738447510141,-0.0013738447510566,0.0013738447372157,0.0040906337516978,0.003848255168501,0.69674656476005,0.34134742341345,1368840,32768,0.0058199469210879,0.0058199469211531,0.0058199469210489,36.693520072164,36.690204108367,0.00020874816057731,0.00020874816057731,0.00020874816057731,414131.73323436,0.017613348521724
12700800,0.99692266995387,0.016867807390015,0.0056226024633332,0.005622602463392,0.0056226024632896,-0.001400493114483,0.0014004931140429,6.3111459635288e-12,-6.7552178092035e-12,2.9661446804337e-15,-4.4072465381141e-13,-0.0014254919687364,0.0014254919729196,-0.0014254919731367,0.0014254919683948,-0.0014254919695133,0.0014254919731445,-0.0014254919738544,0.0014254919688827,-0.0013732288735699,0.0013732288867299,-0.0013732288871028,0.0013732288729511,-7.6862019565121e-13,-3.0302868385819e-13,-8.6207925230589e-14,1.4979768848932e-13,-0.0014004931146079,0.0014004931139465,-0.0014254919711994,0.0014254919709396,-0.0014254919710608,0.0014254919711965,-0.0014254919710216,0.0014254919712461,-0.0014254919709876,0.0014254919712425,-0.0013732288805258,0.0013732288791438,-0.0013732288786643,0.0013732288778642,-0.0013732288808309,0.001373228877548,-0.0013732288802662,0.001373228877551,-6.7732621403145e-12,6.777892763558e-12,-0.0014004931142652,0.0014004931142441,1.0250901547877e-13,-1.3719427939717e-13,-0.0014254919735595,0.0014254919690137,-0.001425491973483,0.0014254919687178,-0.0014254919689292,0.0014254919737309,-0.0014254919688701,0.0014254919733267,-0.0013732288711827,0.0013732288850734,-0.0013732288850768,0.0013732288712512,0.0040848610916578,0.0038449536585979,0.69757499626828,0.36632788116199,1368840,32768,0.0058183812818665,0.0058183812819253,0.0058183812818322,36.645162251982,36.641846800084,0.00020836129801585,0.00020836129801585,0.00020836129801585,427929.80734466,0.017608570235531
12787200,0.99708990092946,0.016870360086704,0.0056234533622298,0.0056234533622885,0.0056234533621861,-0.0014005216548165,0.0014005216544036,6.3158552314286e-12,-6.730721145795e-12,-1.7571227916931e-14,-3.8471612953926e-13,-0.0014254786119599,0.0014254786161392,-0.0014254786163585,0.0014254786116228,-0.0014254786127218,0.0014254786163894,-0.0014254786170549,0.0014254786121338,-0.0013732976717683,0.0013732976849708,-0.0013732976852502,0.0013732976711654,-7.3779290210975e-13,-3.4859488007746e-13,-1.0144069517404e-13,1.3120228597787e-13,-0.0014005216549682,0.0014005216542799,-0.0014254786144231,0.001425478614158,-0.0014254786142893,0.0014254786144186,-0.0014254786142652,0.0014254786144456,-0.0014254786142402,0.0014254786144408,-0.0013732976787316,0.001373297677299,-0.0013732976768951,0.001373297676019,-0.0013732976789762,0.0013732976757837,-0.0013732976784614,0.0013732976756833,-6.754574181807e-12,6.7772287250204e-12,-0.0014005216546085,0.0014005216545943,1.0278430118662e-13,-1.3391537956531e-13,-0.0014254786167879,0.00142547861224,-0.001425478616698,0.001425478611948,-0.0014254786121617,0.0014254786169502,-0.0014254786120958,0.0014254786165543,-0.0013732976693425,0.0013732976832737,-0.0013732976832355,0.0013732976694631,0.0040808287828439,0.003841669156996,0.69747003009085,0.37449136351001,1368840,32768,0.0058184995642232,0.0058184995642811,0.0058184995641875,36.496015760299,36.48603599074,0.00020716812608239,0.00020716812608239,0.00020716812608239,423194.65607908,0.017608931190675
12873600,0.99724615388719,0.016872745278198,0.0056242484260609,0.0056242484261196,0.0056242484260173,-0.001400303748275,0.0014003037475064,6.1569397332468e-12,-6.8650277487028e-12,-1.2697753268824e-13,-5.806997894318e-13,-0.0014252586644615,0.0014252586682724,-0.0014252586686008,0.0014252586630865,-0.001425258664928,0.0014252586684047,-0.001425258669727,0.0014252586643771,-0.0013730835609937,0.0013730835739443,-0.0013730835751581,0.0013730835604189,-9.521292366348e-13,-4.7536206625047e-13,-1.6467967503132e-13,2.6024440265331e-14,-0.0014003037483947,0.001400303747452,-0.0014252586660412,0.0014252586663731,-0.0014252586664226,0.001425258667004,-0.0014252586658709,0.0014252586663393,-0.0014252586665644,0.0014252586666271,-0.00137308356812,0.0013730835665825,-0.0013730835667384,0.0013730835653535,-0.0013730835691715,0.0013730835651938,-0.0013730835684224,0.0013730835652308,-6.8436794008802e-12,6.6565632936194e-12,-0.0014003037478785,0.0014003037477263,5.4613949228398e-14,-1.4108489583563e-13,-0.0014252586684826,0.0014252586639047,-0.001425258668978,0.0014252586634451,-0.0014252586645325,0.0014252586690632,-0.0014252586641916,0.0014252586683538,-0.0013730835591304,0.0013730835728315,-0.0013730835728445,0.0013730835588155,0.0040758399048534,0.0038384014142679,0.6974242492277,0.38265484585808,1368840,32768,0.0058175968839736,0.0058175968841091,0.0058175968836081,36.268582610955,36.253207686587,0.00020534866088764,0.00020534866088764,0.00020534866088764,420966.31688548,0.017606175524264
12960000,0.99739220665473,0.016874974857911,0.0056249916192986,0.0056249916193573,0.0056249916192549,-0.001400064743163,0.0014000647432723,6.5704840997503e-12,-6.503946250083e-12,2.9669305387792e-13,-2.6867361573488e-13,-0.0014250141020329,0.0014250141068199,-0.001425014106364,0.0014250141021739,-0.0014250141027476,0.0014250141065792,-0.0014250141070461,0.0014250141022855,-0.0013728509661578,0.0013728509794618,-0.001372850980164,0.0013728509655388,-5.8849590420703e-13,-1.4359561325258e-15,1.7229614823565e-13,3.4043736457808e-13,-0.0014000647432932,0.0014000647430967,-0.0014250141041927,0.0014250141044599,-0.0014250141043051,0.0014250141047322,-0.0014250141043536,0.0014250141051631,-0.0014250141042192,0.0014250141049584,-0.0013728509724266,0.0013728509730165,-0.0013728509719259,0.0013728509710649,-0.0013728509732303,0.0013728509714443,-0.0013728509717204,0.0013728509719111,-6.9665026487143e-12,6.5966580648595e-12,-0.0014000647434054,0.0014000647431188,-4.8742216841086e-14,-2.1970958214073e-13,-0.0014250141070375,0.0014250141024946,-0.0014250141068939,0.0014250141024391,-0.0014250141028061,0.0014250141070529,-0.0014250141025008,0.0014250141065471,-0.0013728509643395,0.0013728509788858,-0.001372850978992,0.0013728509640318,0.0040708336463132,0.0038351533421099,0.69743139855968,0.39081832820607,1368840,32768,0.0058166068101812,0.005816606810087,0.0058166068103656,36.036255474606,36.020379382438,0.00020349004379685,0.00020349004379685,0.00020349004379685,418683.12698213,0.017603153039474
13046400,0.99752881202314,0.016877060442776,0.0056256868142537,0.0056256868143124,0.00562568681421,-0.0013998138968707,0.0013998138964188,6.2839976164216e-12,-6.8116328504686e-12,4.3048802535691e-14,-5.3546281844904e-13,-0.0014247563202602,0.0014247563247818,-0.0014247563245286,0.0014247563201565,-0.0014247563214435,0.0014247563247455,-0.0014247563253575,0.0014247563205762,-0.0013726076380331,0.0013726076515963,-0.0013726076518858,0.0013726076370746,-9.1202366771475e-13,-3.11436956403e-13,-1.2979053498825e-13,-4.7087679150783e-14,-0.0013998138970596,0.0013998138962438,-0.0014247563228451,0.0014247563226615,-0.001424756323267,0.0014247563228989,-0.0014247563226035,0.0014247563223453,-0.0014247563234747,0.0014247563225144,-0.001372607645614,0.0013726076442708,-0.0013726076437654,0.0013726076421721,-0.0013726076459344,0.0013726076425842,-0.0013726076446637,0.0013726076424704,-6.6915596362699e-12,6.8920543642348e-12,-0.0013998138965852,0.0013998138967163,1.6083876295678e-13,7.0580755571072e-14,-0.0014247563249638,0.0014247563208213,-0.0014247563249856,0.0014247563207676,-0.0014247563204879,0.0014247563255438,-0.0014247563204863,0.0014247563251233,-0.0013726076356756,0.0013726076505931,-0.0013726076500874,0.0013726076364499,0.0040658484508848,0.0038319277755571,0.69748631308781,0.39898181055408,1368840,32768,0.0058155676814512,0.0058155676814799,0.0058155676814762,35.803467163123,35.787551078284,0.00020162773730498,0.00020162773730498,0.00020162773730498,416398.29344029,0.017599980800709
13132800,0.9976566646051,0.016879012728471,0.005626337576152,0.0056263375762107,0.0056263375761083,-0.0013995527359478,0.0013995527355994,6.3554021997665e-12,-6.7516736233583e-12,1.2612026475954e-13,-4.7576905381728e-13,-0.0014244872319753,0.0014244872363841,-0.0014244872365038,0.0014244872316304,-0.0014244872331541,0.0014244872366031,-0.0014244872372133,0.0014244872326631,-0.0013723548169713,0.0013723548303478,-0.0013723548301917,0.0013723548162257,-9.7281057542233e-13,-3.5285757338452e-13,-8.9599880432215e-14,5.3673066207023e-15,-0.0013995527362398,0.0013995527354307,-0.0014244872348361,0.0014244872346656,-0.0014244872349966,0.0014244872345774,-0.0014244872343333,0.0014244872345747,-0.001424487234683,0.0014244872345204,-0.0013723548232355,0.0013723548226942,-0.0013723548222412,0.0013723548207176,-0.0013723548242354,0.0013723548204596,-0.0013723548240749,0.0013723548201068,-6.754201310845e-12,6.8396974637021e-12,-0.0013995527358118,0.0013995527358385,1.4403983497603e-13,3.2869613502929e-14,-0.0014244872371398,0.0014244872326018,-0.0014244872369661,0.0014244872322968,-0.0014244872324642,0.0014244872373688,-0.0014244872326685,0.0014244872364137,-0.0013723548140647,0.0013723548283145,-0.0013723548284448,0.0013723548151284,0.0040608897500142,0.0038287272501529,0.69758469171316,0.40714529290211,1368840,32768,0.0058144858253115,0.0058144858255668,0.0058144858255249,35.570632429823,35.554722774126,0.00019976505943858,0.00019976505943858,0.00019976505943858,414120.97688529,0.017596678129442
13219200,0.9977764029089,0.016880841525225,0.00562694717507,0.0056269471751287,0.0056269471750264,-0.0013992820285503,0.0013992820279428,6.2471896232335e-12,-6.8333642454129e-12,-6.6018277304592e-14,-6.1915955568882e-13,-0.0014242077498073,0.0014242077539581,-0.0014242077539669,0.0014242077490249,-0.0014242077505848,0.0014242077543492,-0.0014242077551605,0.0014242077495651,-0.0013720931352134,0.0013720931491388,-0.0013720931494886,0.0013720931348046,-8.9512180170222e-13,-3.2034062557848e-13,-1.0923383945177e-13,8.2614593827926e-14,-0.0013992820286842,0.0013992820279146,-0.0014242077525985,0.0014242077517318,-0.0014242077524462,0.0014242077517508,-0.0014242077522902,0.0014242077518286,-0.0014242077518513,0.0014242077521347,-0.0013720931435122,0.0013720931410331,-0.0013720931409861,0.0013720931399309,-0.0013720931426337,0.0013720931390527,-0.0013720931437145,0.0013720931403898,-6.8331676043613e-12,6.7339751346232e-12,-0.0013992820283429,0.001399282028268,8.684187645205e-14,-1.0468744892912e-13,-0.0014242077549853,0.0014242077498678,-0.0014242077549036,0.0014242077498196,-0.0014242077498755,0.0014242077551304,-0.0014242077501764,0.0014242077539599,-0.0013720931331356,0.0013720931478905,-0.0013720931485269,0.0013720931331657,0.0040559597293176,0.0038255540132014,0.69772291790877,0.41530877525016,1368840,32768,0.0058133644215416,0.0058133644217604,0.0058133644217857,35.337792949122,35.321894469976,0.00019790234359298,0.00019790234359298,0.00019790234359298,411854.40772547,0.017593254733639
13305600,0.99788861398849,0.016882553742735,0.00562751791424,0.0056275179142988,0.0056275179141965,-0.0013990022409883,0.0013990022405325,6.2272677612445e-12,-6.8064079512621e-12,8.2850410153311e-16,-4.7761611503789e-13,-0.0014239184930868,0.0014239184970872,-0.0014239184973221,0.001423918492751,-0.0014239184939693,0.0014239184976924,-0.0014239184984193,0.0014239184931232,-0.0013718228574466,0.0013718228724768,-0.001371822873084,0.0013718228583279,-7.8860311459852e-13,-2.8485776837894e-13,-7.5834595069881e-14,1.1726935867806e-13,-0.0013990022411253,0.0013990022404332,-0.0014239184957993,0.0014239184952014,-0.0014239184953899,0.0014239184954395,-0.0014239184954412,0.0014239184956747,-0.0014239184953815,0.0014239184956033,-0.0013718228658329,0.0013718228645062,-0.0013718228639876,0.0013718228631695,-0.001371822866494,0.0013718228632365,-0.0013718228655727,0.0013718228632144,-6.73088361142e-12,6.7909893046441e-12,-0.0013990022407185,0.0013990022408399,1.1485455009586e-13,-8.3843232764438e-14,-0.0014239184978505,0.0014239184933031,-0.0014239184975889,0.0014239184929187,-0.0014239184930998,0.0014239184984742,-0.0014239184931909,0.0014239184973791,-0.0013718228561088,0.0013718228706754,-0.0013718228712516,0.0013718228569653,0.0040510593645441,0.0038224094901916,0.69704602216957,0.40983348306013,1368840,32768,0.0058122054028092,0.0058122054028874,0.0058122054028873,35.104953054844,35.089066165828,0.00019603962443875,0.00019603962443875,0.00019603962443875,409603.8493017,0.01758971651669
13392000,0.997993837915,0.016884155456803,0.0056280518189292,0.005628051818988,0.0056280518188857,-0.0013986501333,0.0013986501328562,6.3205257946285e-12,-6.7709929155201e-12,-1.4963189943642e-14,-4.2488949050596e-13,-0.0014235873116176,0.0014235873157755,-0.0014235873160143,0.001423587311256,-0.0014235873123891,0.001423587316028,-0.001423587316741,0.0014235873117557,-0.0013714522204142,0.001371452233697,-0.0013714522340122,0.0013714522198042,-7.4408376875162e-13,-3.126705657759e-13,-6.9224473475147e-14,9.6836953462249e-14,-0.0013986501334329,0.0013986501327459,-0.0014235873140825,0.0014235873138209,-0.0014235873139418,0.0014235873140209,-0.0014235873138967,0.0014235873140892,-0.0014235873138316,0.0014235873140683,-0.0013714522274331,0.0013714522261121,-0.0013714522256712,0.001371452224724,-0.00137145222775,0.0013714522244906,-0.0013714522272847,0.0013714522246615,-6.7954187575627e-12,6.7805174480816e-12,-0.0013986501330808,0.0013986501330584,6.4479530194613e-14,-1.0488109007234e-13,-0.001423587316418,0.0014235873118665,-0.0014235873163583,0.0014235873115925,-0.001423587311812,0.0014235873166413,-0.0014235873117197,0.0014235873161903,-0.001371452218034,0.0013714522320868,-0.0013714522320591,0.0013714522182121,0.0040459262847331,0.0038192948396765,0.69533863145299,0.38837101080073,1368840,32768,0.0058107467499381,0.005810746749985,0.005810746749903,34.872113202494,34.856237861673,0.00019417690561995,0.00019417690561995,0.00019417690561995,409266.24176889,0.017585263753552
13478400,0.99809257185374,0.016885654496752,0.0056285514989123,0.0056285514989711,0.0056285514988688,-0.0013982136793277,0.0013982136789011,6.3308928308638e-12,-6.7393222948005e-12,-1.5262180809676e-14,-4.242748622236e-13,-0.001423210632112,0.0014232106363008,-0.0014232106365087,0.0014232106317661,-0.0014232106328648,0.0014232106365367,-0.0014232106372328,0.0014232106322511,-0.0013709621117759,0.0013709621250247,-0.0013709621252465,0.001370962111282,-7.6614406541294e-13,-3.3597879490197e-13,-9.0900693634441e-14,1.0820687082496e-13,-0.0013982136794979,0.0013982136788147,-0.00142321063479,0.0014232106345462,-0.0014232106346764,0.0014232106347866,-0.0014232106346148,0.0014232106348338,-0.001423210634608,0.0014232106348222,-0.0013709621186517,0.0013709621171755,-0.0013709621167592,0.0013709621158257,-0.0013709621185233,0.0013709621153122,-0.0013709621180604,0.0013709621153133,-6.7782773400447e-12,6.7774144840515e-12,-0.0013982136791397,0.0013982136791298,9.5975362136214e-14,-1.0737948433634e-13,-0.0014232106371676,0.0014232106326082,-0.0014232106370713,0.0014232106323245,-0.0014232106325335,0.0014232106373421,-0.0014232106324671,0.0014232106369475,-0.0013709621088667,0.0013709621227464,-0.0013709621228233,0.0013709621090921,0.0040405097821005,0.0038162116478777,0.69354140510203,0.36690853854131,1368840,32768,0.0058089386371368,0.0058089386373104,0.0058089386372212,34.639273356225,34.62340955752,0.00019231418684979,0.00019231418684979,0.00019231418684979,411270.12482616,0.017579744380259
13564800,0.99818550702599,0.016887063042884,0.0056290210142895,0.0056290210143483,0.005629021014246,-0.0013978562502719,0.001397856249829,6.3780545665758e-12,-6.7356837000747e-12,3.7281919886468e-14,-4.0652293394459e-13,-0.001422909477702,0.0014229094823008,-0.00142290948222,0.0014229094772949,-0.0014229094787358,0.001422909481578,-0.0014229094833318,0.001422909477882,-0.001370553489324,0.0013705535027026,-0.0013705535035546,0.0013705534888963,-8.6105745999153e-13,-3.8915575861752e-13,-1.0284312291907e-13,6.7225328665296e-14,-0.0013978562507936,0.0013978562501492,-0.0014229094814124,0.001422909480831,-0.0014229094812765,0.0014229094814107,-0.0014229094812052,0.0014229094808148,-0.0014229094812386,0.0014229094811427,-0.0013705534984682,0.0013705534969114,-0.0013705534966753,0.0013705534959288,-0.0013705534947286,0.0013705534916044,-0.00137055349424,0.0013705534911593,-6.8227441580846e-12,6.7789224968062e-12,-0.0013978562505193,0.0013978562504569,2.6895031316431e-14,-1.4939396552867e-13,-0.001422909483286,0.0014229094791786,-0.0014229094837004,0.0014229094783424,-0.0014229094795512,0.0014229094845482,-0.0014229094787347,0.0014229094828147,-0.0013705534850215,0.0013705534989886,-0.0013705534989119,0.0013705534849606,0.004035489204384,0.0038131628708473,0.69236984539998,0.35653166287171,1368840,32768,0.0058074578882259,0.0058074578899698,0.0058074578900392,34.452706060709,34.439893036293,0.00019082164848567,0.00019082164848567,0.00019082164848567,413334.41019526,0.017575224363125
13651200,0.99827318511222,0.016888391327907,0.0056294637759636,0.0056294637760229,0.0056294637759206,-0.0013976076283142,0.001397607628021,6.3901029043897e-12,-6.6885316111269e-12,9.0159245696932e-14,-3.4218672290109e-13,-0.001422696361503,0.0014226963656404,-0.0014226963657359,0.0014226963611381,-0.0014226963619738,0.0014226963656322,-0.0014226963662044,0.0014226963612467,-0.0013702737898281,0.0013702738028392,-0.0013702738038965,0.0013702737888875,-7.8751803010005e-13,-3.2936770274865e-13,-1.5468230397356e-13,7.1733808581388e-14,-0.0013976076289335,0.0013976076283103,-0.0014226963640005,0.0014226963639794,-0.0014226963640601,0.0014226963643453,-0.0014226963640149,0.0014226963641047,-0.0014226963639256,0.0014226963643611,-0.0013702738004342,0.0013702737986158,-0.0013702737986858,0.0013702737966576,-0.0013702738024556,0.0013702737992041,-0.0013702738015247,0.0013702737986267,-6.6803665664458e-12,6.8833890407191e-12,-0.0013976076284991,0.001397607628681,1.6736594590877e-13,-6.168279210363e-14,-0.0014226963665187,0.0014226963621212,-0.001422696366489,0.0014226963616059,-0.0014226963617491,0.0014226963668131,-0.0014226963617128,0.0014226963663686,-0.0013702737926935,0.0013702738069937,-0.0013702738063491,0.0013702737923229,0.0040309857272902,0.0038101508078564,0.6920979398697,0.36076519790322,1368840,32768,0.0058064279172186,0.0058064279190991,0.0058064279189674,34.299219059551,34.288689082348,0.00018959375247641,0.00018959375247641,0.00018959375247641,413948.37255425,0.017572080326342
13737600,0.99835594650625,0.016889644676819,0.0056298815589342,0.0056298815589936,0.0056298815588913,-0.0013974277661622,0.0013974277657364,6.3098871784544e-12,-6.7679457144923e-12,-8.8457885907599e-15,-3.9689634567731e-13,-0.0014225183352172,0.001422518339387,-0.001422518339857,0.001422518334805,-0.0014225183358131,0.001422518339819,-0.0014225183401645,0.0014225183354598,-0.0013700940971903,0.0013700941096821,-0.0013700941104235,0.0013700940956893,-8.5927657321993e-13,-4.4987419782853e-13,-1.8905443039928e-13,2.1245115682181e-14,-0.0013974277663079,0.0013974277654983,-0.0014225183375088,0.0014225183371367,-0.0014225183367213,0.0014225183373167,-0.001422518337221,0.0014225183371451,-0.0014225183366567,0.0014225183371215,-0.0013700941045871,0.0013700941030741,-0.0013700941028615,0.0013700941015597,-0.0013700941058456,0.0013700941026942,-0.001370094105077,0.0013700941019742,-6.8026350076994e-12,6.7546424444275e-12,-0.0013974277660517,0.0013974277658475,9.8290526703643e-15,-2.0418188003078e-13,-0.0014225183399724,0.0014225183347,-0.0014225183392788,0.0014225183344484,-0.0014225183352991,0.0014225183396645,-0.0014225183351282,0.0014225183393949,-0.0013700940962104,0.0013700941102398,-0.0013700941096885,0.0013700940960524,0.0040268292577438,0.0038071762509159,0.69185812560437,0.36499873293471,1368840,32768,0.0058056828339431,0.0058056828337515,0.0058056828339441,34.147795155658,34.137485128401,0.00018838236124526,0.00018838236124526,0.00018838236124526,412484.35741312,0.017569805810174
13824000,0.99843409893714,0.016890827889255,0.0056302759630796,0.0056302759631389,0.0056302759630366,-0.0013972430948858,0.0013972430942958,6.188224601045e-12,-6.8856480011212e-12,-1.1570740639463e-13,-5.0145126924323e-13,-0.0014223329699645,0.0014223329743522,-0.0014223329747041,0.001422332969778,-0.0014223329708704,0.0014223329744117,-0.0014223329753054,0.0014223329701706,-0.0013699115036028,0.0013699115169087,-0.0013699115176412,0.0013699115028603,-7.6483178197288e-13,-3.5957113299576e-13,-9.142000129936e-14,1.0510196567768e-13,-0.0013972430949348,0.001397243094162,-0.0014223329723184,0.0014223329722302,-0.0014223329722748,0.0014223329723292,-0.001422332972155,0.0014223329723733,-0.0014223329722059,0.0014223329726013,-0.001369911510694,0.0013699115094411,-0.0013699115090984,0.0013699115081624,-0.0013699115113321,0.0013699115084265,-0.0013699115111522,0.0013699115083275,-6.6923056723025e-12,6.8646060851138e-12,-0.001397243094465,0.0013972430945283,1.1498236972047e-13,-8.7632646412217e-14,-0.0014223329747435,0.0014223329699538,-0.0014223329747255,0.0014223329699314,-0.0014223329700372,0.0014223329749096,-0.0014223329700854,0.0014223329745012,-0.0013699115018397,0.0013699115159844,-0.0013699115159423,0.0013699115018244,0.0040227143132225,0.0038042398243283,0.69164746044933,0.36923226796619,1368840,32768,0.0058049178269119,0.0058049178267362,0.0058049178265218,33.996564713094,33.98628117445,0.00018717251770475,0.00018717251770475,0.00018717251770475,410994.93716614,0.017567470478622
13910400,0.99850792838909,0.016891945376753,0.0056306484589124,0.0056306484589716,0.0056306484588693,-0.0013970535814826,0.0013970535811074,6.3523571163211e-12,-6.7214024304754e-12,1.1737523779647e-14,-3.7942640878366e-13,-0.0014221419188823,0.0014221419233164,-0.0014221419231827,0.0014221419186651,-0.0014221419197098,0.0014221419236058,-0.0014221419243351,0.0014221419191699,-0.0013697247126482,0.0013697247267584,-0.0013697247269592,0.001369724712241,-7.7354492755697e-13,-3.5478051463998e-13,-1.4935055509012e-13,6.6611170956804e-14,-0.0013970535817013,0.0013970535808926,-0.0014221419214848,0.0014221419210019,-0.00142214192129,0.001422141921165,-0.0014221419217527,0.001422141921147,-0.0014221419212992,0.0014221419212821,-0.0013697247201566,0.0013697247188602,-0.0013697247181631,0.0013697247171624,-0.0013697247210362,0.0013697247173756,-0.0013697247196132,0.0013697247170042,-6.8016595080885e-12,6.7570550471948e-12,-0.001397053581364,0.0013970535812414,1.6379146687135e-14,-2.0513738025267e-13,-0.0014221419238967,0.0014221419187805,-0.0014221419237932,0.0014221419187417,-0.0014221419190594,0.0014221419239835,-0.0014221419191718,0.0014221419234632,-0.0013697247108193,0.0013697247246627,-0.001369724725095,0.0013697247106705,0.0040186397975451,0.0038013420323135,0.69146348457312,0.37346580299769,1368840,32768,0.0058041327613462,0.0058041327613542,0.0058041327613782,33.845353641456,33.835077220502,0.00018596282913165,0.00018596282913165,0.00018596282913165,409502.94339544,0.017565073918874
13996800,0.99857770143461,0.016893001243009,0.0056310004143309,0.0056310004143901,0.0056310004142878,-0.001396859468877,0.0013968594688497,6.5444096021907e-12,-6.5444165431551e-12,2.0293321229437e-13,-2.1437450982941e-13,-0.0014219457231169,0.0014219457276207,-0.001421945727252,0.0014219457230561,-0.0014219457235621,0.0014219457276046,-0.0014219457281295,0.0014219457235117,-0.0013695337553336,0.0013695337692439,-0.001369533769243,0.0013695337550033,-6.8452497058496e-13,-2.4376184736053e-13,-7.240622921587e-14,1.7877956781869e-13,-0.0013968594691312,0.0013968594685904,-0.0014219457254817,0.0014219457254783,-0.0014219457251439,0.0014219457257684,-0.0014219457254302,0.0014219457257609,-0.0014219457253533,0.0014219457257273,-0.0013695337627923,0.0013695337617031,-0.0013695337606551,0.0013695337603979,-0.0013695337628988,0.0013695337608954,-0.001369533762854,0.0013695337601656,-6.670586629922e-12,6.9076199475404e-12,-0.0013968594687524,0.0013968594689504,1.8444874757031e-13,-6.5222036923307e-14,-0.0014219457279143,0.0014219457234338,-0.001421945727715,0.0014219457232021,-0.0014219457233168,0.0014219457281836,-0.0014219457232224,0.0014219457279092,-0.0013695337536494,0.001369533768198,-0.0013695337676413,0.0013695337541216,0.0040146057654574,0.0037984832859799,0.69130412026732,0.37769933802919,1368840,32768,0.00580332864318,0.0058033286431693,0.0058033286431307,33.694144539335,33.683873266555,0.00018475315631468,0.00018475315631468,0.00018475315631468,408013.03605806,0.017562619200562
14083200,0.99864366671439,0.01689399810371,0.0056313327012315,0.0056313327012906,0.0056313327011884,-0.0013966609082378,0.0013966609078518,6.3672124272074e-12,-6.7342373324956e-12,2.3768685647675e-15,-4.1928025009969e-13,-0.0014217446356545,0.0014217446402241,-0.0014217446398532,0.0014217446352813,-0.0014217446363733,0.0014217446401874,-0.0014217446406266,0.0014217446357222,-0.0013693386544877,0.0013693386679143,-0.0013693386685518,0.0013693386540139,-7.821007838285e-13,-3.3416473267327e-13,-5.5901498129957e-14,2.0139399461053e-13,-0.0013966609083587,0.0013966609076799,-0.0014217446379434,0.0014217446377178,-0.0014217446378664,0.0014217446381317,-0.0014217446377533,0.0014217446381628,-0.0014217446378668,0.001421744638064,-0.001369338661559,0.0013693386601853,-0.0013693386591617,0.0013693386588306,-0.0013693386621611,0.001369338658862,-0.0013693386618461,0.0013693386585779,-6.8702327661637e-12,6.7211002926467e-12,-0.0013966609080472,0.0013966609079776,7.267845619364e-14,-1.914405633869e-13,-0.0014217446405089,0.0014217446361607,-0.0014217446405537,0.0014217446354213,-0.0014217446358669,0.0014217446406148,-0.0014217446355678,0.0014217446402848,-0.0013693386523009,0.0013693386660543,-0.0013693386663861,0.0013693386523636,0.0040106119227828,0.0037956635900292,0.69033351296549,0.36864124454672,1368840,32768,0.0058025060966121,0.0058025060965065,0.0058025060964781,33.542935677958,33.532669312603,0.00018354348542366,0.00018354348542366,0.00018354348542366,406528.84295588,0.0175601082313
14169600,0.99870605623965,0.016894936524021,0.0056316455080017,0.0056316455080609,0.0056316455079586,-0.0013963944802065,0.001396394479755,6.3114875413292e-12,-6.7692190285347e-12,-2.502658839608e-14,-4.3839072511133e-13,-0.0014215064230419,0.0014215064273412,-0.0014215064274758,0.0014215064227846,-0.0014215064239232,0.0014215064275843,-0.0014215064282099,0.0014215064233144,-0.0013690473817869,0.0013690473948352,-0.0013690473953213,0.0013690473811948,-7.6507962734255e-13,-3.2962187145456e-13,-7.2302026516838e-14,1.4761613748715e-13,-0.0013963944803278,0.0013963944796477,-0.0014215064246109,0.0014215064242944,-0.0014215064244002,0.001421506424579,-0.0014215064243619,0.0014215064244683,-0.0014215064244636,0.0014215064245851,-0.0013690473891802,0.0013690473880429,-0.0013690473871845,0.0013690473867162,-0.0013690473902538,0.0013690473868934,-0.0013690473895192,0.0013690473869499,-6.7991591727073e-12,6.7660815361476e-12,-0.0013963944799713,0.0013963944799567,1.1547109008452e-13,-1.0750574518504e-13,-0.001421506426795,0.0014215064223435,-0.0014215064268206,0.001421506422039,-0.0014215064222572,0.0014215064271469,-0.0014215064222121,0.0014215064267038,-0.0013690473807476,0.0013690473944138,-0.0013690473943464,0.0013690473805616,0.0040063952394399,0.003792882391817,0.68709728657988,0.32446844578257,1368840,32768,0.0058014023607683,0.005801402360797,0.0058014023606984,33.391726938944,33.381465358655,0.00018233381551155,0.00018233381551155,0.00018233381551155,406947.87377341,0.017556739041755
14256000,0.9987650865875,0.016895819995285,0.0056319399984231,0.0056319399984822,0.0056319399983799,-0.0013959505001981,0.0013959504997564,6.3169811970312e-12,-6.7739730597729e-12,-7.5635336451213e-15,-4.2779210771535e-13,-0.0014211788905806,0.0014211788947786,-0.001421178894981,0.0014211788902388,-0.0014211788913552,0.0014211788950171,-0.0014211788957038,0.0014211788907327,-0.0013684986671236,0.0013684986802341,-0.0013684986806468,0.0013684986664291,-7.672430024294e-13,-3.2386916484286e-13,-1.0979846926154e-13,1.4277349130902e-13,-0.0013959505003271,0.0013959504996496,-0.00142117889297,0.0014211788927307,-0.0014211788928453,0.0014211788929822,-0.0014211788928093,0.0014211788930102,-0.0014211788927749,0.0014211788930107,-0.0013684986742467,0.0013684986727492,-0.0013684986723016,0.0013684986714931,-0.001368498674512,0.0013684986712308,-0.0013684986739683,0.0013684986711974,-6.7927946612564e-12,6.782457977035e-12,-0.0013959504999753,0.0013959504999524,1.1700310210613e-13,-1.4045812086553e-13,-0.0014211788953512,0.001421178890785,-0.0014211788952591,0.0014211788905045,-0.001421178890711,0.0014211788955155,-0.0014211788906357,0.001421178895109,-0.0013684986649229,0.0013684986788424,-0.0013684986787501,0.0013684986649529,0.0040015012348122,0.0037901399098322,0.68368223355657,0.28029564701839,1368840,32768,0.0057995629876511,0.0057995629876969,0.0057995629875957,33.240518205271,33.230261404706,0.00018112414564217,0.00018112414564217,0.00018112414564217,412643.20045368,0.017551124619803
14342400,0.99882058800902,0.01689665355692,0.0056322178523014,0.0056322178523605,0.0056322178522582,-0.0013952560727099,0.0013952560723428,6.380008330419e-12,-6.8058332041144e-12,3.7712377324524e-15,-3.8432837667896e-13,-0.0014206079118224,0.001420607916116,-0.0014206079161857,0.0014206079114953,-0.0014206079126489,0.0014206079163879,-0.0014206079169996,0.0014206079121879,-0.0013676940760136,0.0013676940893303,-0.0013676940897883,0.0013676940755368,-7.690194481602e-13,-3.6002117807073e-13,-1.4063893887107e-13,9.6339909823062e-14,-0.001395256072912,0.001395256072184,-0.0014206079143083,0.001420607914095,-0.0014206079142269,0.0014206079142285,-0.0014206079143734,0.0014206079143845,-0.0014206079141774,0.0014206079143027,-0.0013676940833183,0.0013676940820256,-0.0013676940815923,0.0013676940807318,-0.0013676940837551,0.0013676940802595,-0.0013676940832349,0.0013676940802368,-6.8869790192831e-12,6.7856734670393e-12,-0.0013952560725562,0.0013952560724402,6.2615822423724e-14,-1.7831593492353e-13,-0.0014206079168147,0.0014206079121252,-0.0014206079167803,0.0014206079115777,-0.0014206079121105,0.0014206079168542,-0.0014206079119192,0.0014206079164602,-0.0013676940744434,0.0013676940881947,-0.0013676940884288,0.0013676940741857,0.0039956122392448,0.0037874363918823,0.68609892429673,0.33016534651402,1368840,32768,0.0057966861058752,0.0057966861059648,0.0057966861057588,32.967870877983,32.94967694497,0.00017894296702386,0.00017894296702386,0.00017894296702386,418808.10479937,0.017542343121187
14428800,0.99887257675175,0.016897434474463,0.005632478158149,0.005632478158208,0.0056324781581058,-0.001394878437925,0.0013948784374482,6.3963095383107e-12,-6.9186351110347e-12,-3.2976286714724e-14,-4.7431292183052e-13,-0.0014201249962696,0.0014201250008476,-0.0014201250003843,0.0014201249956575,-0.0014201249976093,0.0014201250010001,-0.0014201250011281,0.0014201249966726,-0.0013674170827758,0.001367417096864,-0.0013674170974426,0.0013674170822973,-5.853276480539e-13,-1.418002563348e-13,7.2933154295141e-14,3.0631743633023e-13,-0.0013948784379605,0.0013948784375826,-0.0014201249993616,0.0014201249990767,-0.0014201249984537,0.0014201249992111,-0.001420124999039,0.0014201249990956,-0.0014201249983904,0.0014201249998734,-0.0013674170898633,0.0013674170888288,-0.001367417087709,0.0013674170876521,-0.0013674170892117,0.0013674170879256,-0.0013674170891806,0.0013674170866253,-6.9107588810599e-12,6.8886488506238e-12,-0.0013948784377431,0.0013948784378264,1.6291237607991e-13,-7.4371198599168e-14,-0.0014201250012955,0.0014201249966079,-0.0014201250011106,0.0014201249964888,-0.0014201249974589,0.0014201250016698,-0.0014201249966474,0.0014201250013081,-0.001367417079568,0.0013674170953279,-0.0013674170948005,0.001367417080127,0.0039910775795327,0.0037847702147406,0.68623943510327,0.34057045049583,1368840,32768,0.0057951218875086,0.0057951218878608,0.0057951218879156,32.615379034857,32.591717266086,0.00017612303227885,0.00017612303227885,0.00017612303227885,410737.6412368,0.017537567628984
14515200,0.99892130254375,0.016898166670517,0.0056327222235002,0.0056327222235594,0.0056327222234571,-0.0013942895798239,0.001394289579868,6.6651321494938e-12,-6.6418182146597e-12,2.2899912188108e-13,-1.8655553615054e-13,-0.0014195134251132,0.0014195134299936,-0.0014195134299901,0.0014195134252517,-0.0014195134262709,0.0014195134304524,-0.0014195134311916,0.0014195134257442,-0.0013668496860481,0.0013668496994137,-0.0013668496986644,0.0013668496853595,-6.1916767308789e-13,-1.8911151689062e-13,5.7559094550348e-14,3.1258474486826e-13,-0.0013942895798912,0.0013942895796122,-0.0014195134284456,0.0014195134284685,-0.0014195134276695,0.0014195134281654,-0.0014195134282966,0.0014195134284044,-0.0014195134278093,0.001419513428226,-0.0013668496923386,0.00136684969172,-0.0013668496899388,0.0013668496901279,-0.0013668496927701,0.0013668496892661,-0.0013668496917432,0.0013668496891514,-7.0949163140003e-12,6.6994007202596e-12,-0.0013942895798969,0.0013942895796168,1.0030546514866e-14,-2.504075561034e-13,-0.0014195134308271,0.0014195134257793,-0.0014195134308832,0.0014195134256043,-0.0014195134261234,0.0014195134309635,-0.0014195134261877,0.0014195134300456,-0.0013668496829258,0.0013668496977134,-0.0013668496968821,0.0013668496834677,0.003985722375218,0.0037821417904895,0.6864318607093,0.35097555447752,1368840,32768,0.0057926825143259,0.0057926825139353,0.0057926825139566,32.257908534039,32.233757587195,0.00017326326827231,0.00017326326827231,0.00017326326827231,408395.71425606,0.017530121101488
14601600,0.99896700713417,0.016898853726536,0.0056329512421732,0.0056329512422323,0.00563295124213,-0.0013936965317624,0.0013936965310359,6.3048580379736e-12,-7.0019610360731e-12,-1.274946345382e-13,-6.0544138653417e-13,-0.0014189011452098,0.0014189011496062,-0.0014189011496508,0.0014189011449215,-0.0014189011463547,0.001418901149329,-0.0014189011511588,0.0014189011457179,-0.0013662754504875,0.001366275464888,-0.0013662754651229,0.0013662754502098,-8.8044136782645e-13,-3.7976357495405e-13,-2.6312278530893e-13,2.7560099234357e-14,-0.0013936965317915,0.0013936965309232,-0.0014189011479422,0.0014189011471617,-0.0014189011476239,0.0014189011476668,-0.0014189011482778,0.0014189011479056,-0.0014189011477742,0.0014189011479467,-0.0013662754575636,0.0013662754567451,-0.0013662754566784,0.0013662754547883,-0.0013662754585739,0.0013662754542827,-0.0013662754591304,0.0013662754544611,-7.1705499446212e-12,6.6083609132279e-12,-0.001393696531506,0.0013936965310684,-9.9654249748722e-14,-3.9534971645519e-13,-0.0014189011506088,0.0014189011456015,-0.0014189011502677,0.0014189011447709,-0.0014189011458662,0.0014189011503654,-0.0014189011455344,0.0014189011498331,-0.0013662754482329,0.0013662754615933,-0.0013662754629713,0.0013662754484137,0.0039804030335594,0.0037795514302037,0.68667198273367,0.3613806584591,1368840,32768,0.0057902257771496,0.0057902257769765,0.0057902257766862,31.899972915703,31.875797908313,0.00017039978332562,0.00017039978332562,0.00017039978332562,406100.87088626,0.017522621628441
14688000,0.99900991293246,0.016899498994116,0.0056331663313667,0.0056331663314258,0.0056331663313235,-0.001393100242071,0.0013931002411764,6.1905620002273e-12,-7.0623863665914e-12,-2.0384783141221e-13,-6.4768444897879e-13,-0.0014182857516611,0.0014182857555539,-0.0014182857561654,0.0014182857507703,-0.0014182857518661,0.0014182857551364,-0.0014182857563342,0.0014182857506965,-0.0013656978362208,0.0013656978497948,-0.0013656978493348,0.0013656978346045,-9.3881373164963e-13,-4.7130701365896e-13,-3.408748218023e-13,-4.6741101503198e-14,-0.00139310024207,0.0013931002411345,-0.0014182857536767,0.00141828575343,-0.001418285753109,0.001418285753214,-0.0014182857536798,0.0014182857534645,-0.0014182857533411,0.0014182857536348,-0.0013656978424575,0.0013656978419372,-0.0013656978409706,0.001365697840096,-0.0013656978434851,0.001365697840132,-0.0013656978423491,0.0013656978399089,-7.0477903419017e-12,6.70463661913e-12,-0.0013931002419146,0.0013931002417693,8.9061838045511e-14,-1.9992924523997e-13,-0.0014182857560901,0.0014182857513794,-0.0014182857557696,0.0014182857510447,-0.0014182857515738,0.0014182857562001,-0.0014182857511827,0.001418285755365,-0.0013656978329684,0.0013656978483484,-0.0013656978481483,0.001365697833149,0.0039751226168882,0.0037769993784374,0.6869561326539,0.3717857624407,1368840,32768,0.005787755606007,0.0057877556059183,0.0057877556069113,31.541990957231,31.517838229428,0.00016753592765785,0.00016753592765785,0.00016753592765785,403814.31762697,0.017515081205881
14774400,0.9990502237753,0.01690010553905,0.0056333685130113,0.0056333685130704,0.0056333685129682,-0.0013925009585229,0.0013925009582187,6.5576918434861e-12,-6.6370159496009e-12,9.3899013802524e-14,-3.824251995256e-13,-0.0014176670977803,0.0014176671019735,-0.0014176671023665,0.0014176670976407,-0.0014176670985759,0.0014176671014849,-0.0014176671029716,0.0014176670972627,-0.0013651173388277,0.0013651173537095,-0.0013651173525461,0.0013651173386862,-1.09494775598e-12,-6.0237653898669e-13,-4.0014024657837e-13,-1.4498774719443e-13,-0.0013925009589743,0.0013925009578132,-0.0014176671003504,0.0014176670998073,-0.0014176670999985,0.0014176671000186,-0.0014176671002416,0.0014176671001773,-0.0014176671000941,0.0014176671002044,-0.0013651173467478,0.0013651173452174,-0.0013651173448221,0.0013651173432271,-0.0013651173456691,0.0013651173439061,-0.0013651173464069,0.0013651173437377,-6.9689674557691e-12,6.6868161341218e-12,-0.0013925009584646,0.0013925009581363,1.6241680298404e-14,-2.3327166782832e-13,-0.0014176671026356,0.0014176670979601,-0.001417667102413,0.0014176670975749,-0.0014176670977412,0.0014176671021778,-0.0014176670981813,0.0014176671020745,-0.0013651173366139,0.0013651173505177,-0.0013651173517658,0.0013651173375951,0.0039698812766392,0.0037744857943436,0.68728109403389,0.38219086642241,1368840,32768,0.0057852730273336,0.0057852730274289,0.0057852730270425,31.184004319127,31.159878550549,0.00016467203455302,0.00016467203455302,0.00016467203455302,401532.65904227,0.017507502963594
14860800,0.99908812655904,0.016900676167377,0.0056335587224537,0.0056335587225128,0.0056335587224105,-0.0013918988549579,0.0013918988545327,6.4078867728694e-12,-6.8463829065253e-12,2.1148001001909e-14,-4.7846550085444e-13,-0.0014170453441049,0.0014170453483488,-0.0014170453484043,0.0014170453443546,-0.0014170453452588,0.0014170453481146,-0.0014170453491923,0.001417045345953,-0.0013645341326479,0.001364534147572,-0.0013645341450381,0.0013645341309221,-8.2234446617633e-13,-2.9924962283532e-13,-1.0706531746334e-13,1.1154535707179e-13,-0.0013918988552051,0.0013918988543471,-0.0014170453487083,0.0014170453465465,-0.0014170453471982,0.0014170453465315,-0.0014170453471432,0.0014170453466413,-0.0014170453464617,0.0014170453475281,-0.0013645341404096,0.0013645341397628,-0.0013645341370851,0.0013645341366368,-0.0013645341403459,0.0013645341384319,-0.0013645341401247,0.0013645341371295,-6.8546828882606e-12,6.87836437069e-12,-0.0013918988549297,0.001391898854822,4.5713456426462e-14,-1.6414119148162e-13,-0.0014170453491479,0.001417045343849,-0.001417045350203,0.0014170453448936,-0.0014170453448632,0.0014170453493098,-0.0014170453449143,0.0014170453486146,-0.0013645341292752,0.0013645341455254,-0.0013645341441523,0.001364534132084,0.0039646788725961,0.0037720107603893,0.68764402677038,0.39259597040421,1368840,32768,0.0057827787581579,0.0057827787582855,0.0057827787586991,30.826017214416,30.801918871653,0.00016180813771533,0.00016180813771533,0.00016180813771533,399257.04733755,0.017499889095405
14947200,0.99912365977204,0.016901211459687,0.0056337371532237,0.0056337371532828,0.0056337371531806,-0.0013911656576428,0.0013911656563246,5.9486633312421e-12,-7.2768599322182e-12,-4.5261864339937e-13,-1.0160170790227e-12,-0.0014162940617634,0.0014162940649829,-0.0014162940665759,0.0014162940609877,-0.0014162940632426,0.0014162940652458,-0.0014162940674036,0.001416294059974,-0.0013638187229794,0.0013638187341641,-0.0013638187352028,0.0013638187206649,-8.7742204829989e-13,-2.9637406362285e-13,-2.0472106944127e-13,-8.090111676171e-14,-0.0013911656574561,0.0013911656565508,-0.0014162940640941,0.0014162940624308,-0.001416294062427,0.0014162940635372,-0.0014162940643465,0.0014162940644212,-0.0014162940648262,0.0014162940640557,-0.0013638187296708,0.0013638187278228,-0.0013638187266164,0.0013638187260663,-0.001363818729401,0.0013638187262164,-0.0013638187281794,0.0013638187263398,-6.8729030375299e-12,6.8362973028688e-12,-0.0013911656570002,0.0013911656567975,-1.8009596878001e-14,-1.4319715483698e-13,-0.0014162940666836,0.001416294061598,-0.0014162940643154,0.0014162940614347,-0.0014162940611895,0.0014162940661124,-0.001416294061323,0.0014162940658285,-0.0013638187201696,0.0013638187342527,-0.0013638187323685,0.0013638187202399,0.0039589764923645,0.0037695736240624,0.68804312679751,0.40300107438599,1368840,32768,0.0057797414005132,0.0057797414005949,0.0057797414001619,30.401664529419,30.373290101478,0.00015841331623535,0.00015841331623535,0.00015841331623535,397033.94637537,0.017490617541665
15033600,0.9991566731201,0.016901707407319,0.0056339024691011,0.0056339024691602,0.005633902469058,-0.0013900913385368,0.0013900913381788,6.4156557120042e-12,-6.7974808122154e-12,-5.8738087944674e-14,-3.4703716295877e-13,-0.0014152029432509,0.0014152029475995,-0.0014152029476959,0.0014152029430277,-0.0014152029440035,0.001415202947808,-0.0014152029484471,0.0014152029435793,-0.0013627611027753,0.0013627611157353,-0.0013627611160092,0.0013627611020084,-6.9547181263704e-13,-3.85858976979e-13,-1.1252900349266e-13,1.2200912564614e-13,-0.0013900913387098,0.0013900913380256,-0.0014152029458007,0.0014152029454654,-0.0014152029455721,0.0014152029458075,-0.0014152029457539,0.0014152029457282,-0.0014152029456504,0.0014152029457723,-0.0013627611092628,0.0013627611082111,-0.0013627611077949,0.0013627611069135,-0.0013627611098743,0.0013627611065848,-0.0013627611089518,0.0013627611066884,-6.828977732359e-12,6.86888368973e-12,-0.0013900913383602,0.0013900913383389,7.9143317520093e-14,-1.589882018431e-13,-0.0014152029481999,0.001415202943656,-0.0014152029480326,0.0014152029433153,-0.0014152029434763,0.0014152029483271,-0.0014152029435171,0.0014152029479645,-0.001362761100427,0.001362761114284,-0.0013627611140182,0.0013627611004354,0.0039518915298553,0.0037671723257525,0.68606450624505,0.37427876945461,1368840,32768,0.0057752908751309,0.0057752908751718,0.0057752908750967,29.802576669996,29.762787355813,0.00015362061335997,0.00015362061335997,0.00015362061335997,394868.19938525,0.01747703249757
15120000,0.99918736282347,0.016902165785909,0.0056340552619643,0.0056340552620234,0.0056340552619211,-0.0013888145217339,0.0013888145212545,6.2843600171152e-12,-6.8655901432868e-12,-1.5415434951397e-13,-2.1847185524655e-13,-0.0014139952019376,0.0014139952059003,-0.001413995206319,0.0014139952012676,-0.0014139952021254,0.0014139952062935,-0.0014139952062883,0.001413995201503,-0.0013614218031882,0.0013614218154083,-0.0013614218160655,0.0013614218018659,-4.7140342247844e-13,-3.7784886874113e-13,-8.0011202771501e-14,3.5979733196789e-13,-0.0013888145216816,0.0013888145213139,-0.001413995203854,0.0014139952037354,-0.0014139952036387,0.0014139952045815,-0.0014139952039214,0.0014139952046528,-0.0014139952035792,0.0014139952041209,-0.0013614218087556,0.0013614218077446,-0.0013614218077293,0.0013614218067176,-0.0013614218108858,0.0013614218066876,-0.001361421809137,0.001361421805931,-6.7961113246405e-12,6.8403197976314e-12,-0.00138881452148,0.0013888145215117,1.892188077306e-13,-2.5158046144842e-13,-0.0014139952059954,0.0014139952019971,-0.0014139952064603,0.0014139952012215,-0.0014139952017209,0.0014139952069219,-0.0014139952021771,0.0014139952063841,-0.0013614218002961,0.0013614218133028,-0.001361421812748,0.0013614217996475,0.0039440157626753,0.0037648067064764,0.68207975007224,0.31554913324883,1368840,32768,0.0057700013250543,0.0057700013250692,0.0057700013250613,29.193059902159,29.152284610153,0.00014874447921727,0.00014874447921727,0.00014874447921727,398001.35720096,0.017460887004345
15206400,0.99921592349154,0.016902589635016,0.0056341965450002,0.0056341965450592,0.005634196544957,-0.0013873819646376,0.0013873819642485,6.3640766406506e-12,-6.7257950021677e-12,-1.2535852332434e-13,-3.6142619397198e-13,-0.0014127098412195,0.0014127098454552,-0.0014127098456899,0.0014127098410601,-0.0014127098418969,0.0014127098457918,-0.0014127098464123,0.0014127098414425,-0.0013598564107531,0.0013598564239124,-0.0013598564239197,0.0013598564104901,-7.3173249901561e-13,-4.7164906203314e-13,-1.4192713481169e-13,6.2092338415801e-14,-0.0013873819648535,0.0013873819640699,-0.0014127098439085,0.0014127098434545,-0.0014127098437165,0.0014127098436794,-0.001412709843645,0.0014127098437211,-0.0014127098436303,0.0014127098437599,-0.0013598564180652,0.0013598564165249,-0.0013598564154197,0.0013598564146697,-0.0013598564177166,0.0013598564147435,-0.001359856417914,0.0013598564145151,-6.7546382386737e-12,6.8214485800165e-12,-0.001387381964442,0.0013873819644331,1.3865455831607e-13,-6.7200005909477e-14,-0.0014127098461345,0.0014127098414318,-0.0014127098460309,0.0014127098411879,-0.0014127098415386,0.001412709846255,-0.001412709841358,0.0014127098458274,-0.0013598564082798,0.0013598564218115,-0.0013598564220411,0.001359856408643,0.0039355429791666,0.0037624769552721,0.67774694276003,0.25467942007145,1368840,32768,0.0057640664652719,0.0057640664653494,0.0057640664652494,28.582583443355,28.541781864492,0.00014386066754684,0.00014386066754684,0.00014386066754684,405761.92326808,0.017442772400628
15292800,0.99924253205311,0.016902991366606,0.00563433045553,0.0056343304555891,0.0056343304554868,-0.00138591738497,0.0013859173845602,6.3086631570239e-12,-6.6480771411009e-12,-6.3699230502821e-14,-3.528323388613e-13,-0.0014114045747483,0.0014114045783108,-0.0014114045787267,0.0014114045741138,-0.0014114045756173,0.0014114045782924,-0.0014114045790578,0.0014114045744626,-0.0013582480658796,0.0013582480793368,-0.0013582480798912,0.001358248066361,-7.0838627105038e-13,-3.9005267239389e-13,-2.9046583235056e-14,1.7787106616102e-13,-0.0013859173850897,0.0013859173844543,-0.0014114045768861,0.001411404576609,-0.0014114045765182,0.0014114045769827,-0.0014114045760242,0.0014114045770369,-0.0014114045764609,0.0014114045772166,-0.0013582480734794,0.0013582480715469,-0.0013582480721227,0.0013582480709586,-0.0013582480741878,0.0013582480697024,-0.0013582480743376,0.0013582480699263,-6.7988850046124e-12,6.6422302020738e-12,-0.0013859173848768,0.0013859173847046,3.8612643939644e-15,-2.0733651895284e-13,-0.0014114045792021,0.0014114045749249,-0.0014114045788565,0.0014114045745587,-0.001411404574802,0.0014114045794056,-0.0014114045748371,0.0014114045789689,-0.0013582480647758,0.0013582480775253,-0.0013582480786916,0.0013582480640966,0.0039269828345645,0.0037601857389864,0.68959759805188,0.46598060193546,1368840,32768,0.0057579989008779,0.0057579989009065,0.0057579989009841,27.972010071512,27.931279118832,0.0001389760805721,0.0001389760805721,0.0001389760805721,414480.10619761,0.017424253080757
15379200,0.99926734835695,0.016903369528738,0.005634456509574,0.005634456509633,0.0056344565095308,-0.0013857527201299,0.0013857527198699,6.380349555289e-12,-6.4795879353893e-12,6.8216386624449e-14,-3.6880520384242e-13,-0.0014107611889413,0.0014107611936788,-0.0014107611933566,0.0014107611889219,-0.0014107611898265,0.0014107611932426,-0.0014107611942837,0.0014107611891853,-0.0013585262514275,0.001358526263485,-0.0013585262644932,0.0013585262510272,-7.8665032131384e-13,-3.3251607715621e-13,6.064341209127e-14,1.1624315473377e-13,-0.0013857527203151,0.0013857527196769,-0.0014107611914203,0.0014107611915889,-0.0014107611916424,0.0014107611915772,-0.0014107611916333,0.0014107611916369,-0.001410761191461,0.0014107611919013,-0.0013585262584391,0.0013585262560531,-0.0013585262568603,0.0013585262552329,-0.001358526258748,0.0013585262551547,-0.0013585262585037,0.0013585262545344,-6.85986714165e-12,6.4901542008324e-12,-0.0013857527200659,0.0013857527198674,4.9787831957086e-14,-4.3826602303854e-15,-0.0014107611941025,0.0014107611891767,-0.0014107611937621,0.0014107611890787,-0.0014107611894432,0.0014107611939564,-0.0014107611892087,0.0014107611938093,-0.0013585262496532,0.0013585262620486,-0.0013585262621686,0.0013585262484475,0.0039238367177351,0.0037579320489679,0.69611490729864,0.58118402251388,1368840,32768,0.0057573174503155,0.0057573174502994,0.0057573174501778,27.361427335769,27.320776373171,0.00013409141868615,0.00013409141868615,0.00013409141868615,384338.36688018,0.017422170655143
15465600,0.99929051692413,0.016903724490519,0.0056345748301678,0.0056345748302269,0.0056345748301246,-0.0013850685861674,0.0013850685855067,6.0972320278645e-12,-6.7391626526187e-12,-2.2283048679923e-13,-4.7195681733731e-13,-0.00140984143479,0.0014098414391042,-0.0014098414392127,0.0014098414343109,-0.0014098414361784,0.0014098414398778,-0.0014098414408821,0.0014098414347616,-0.0013580576585008,0.0013580576699154,-0.001358057670712,0.0013580576567763,-7.2423919851903e-13,-4.4996431272264e-13,-8.1728297374263e-14,-7.4214173984398e-14,-0.0013850685862882,0.001385068585421,-0.001409841437436,0.0014098414371266,-0.0014098414374658,0.0014098414369871,-0.0014098414373248,0.0014098414371536,-0.0014098414369828,0.00140984143722,-0.0013580576643225,0.0013580576636888,-0.0013580576631864,0.0013580576614871,-0.0013580576643226,0.0013580576621888,-0.0013580576652076,0.0013580576608003,-6.5882061465892e-12,6.7341960690503e-12,-0.0013850685857547,0.0013850685858107,7.5638748111695e-14,5.9779644361134e-14,-0.0014098414395301,0.001409841434899,-0.0014098414396969,0.0014098414349949,-0.0014098414350203,0.0014098414398373,-0.0014098414350113,0.0014098414394699,-0.0013580576554905,0.0013580576690227,-0.0013580576677077,0.0013580576550791,0.0039185890673089,0.0037557153724421,0.69958330814909,0.63479025455408,1368840,32768,0.0057544835969409,0.0057544835970136,0.0057544835967158,26.750844228572,26.71027362751,0.00012920675382857,0.00012920675382857,0.00012920675382857,369691.96863707,0.017413519784798
15552000,0.99931216859662,0.016904057106175,0.005634685702053,0.0056346857021121,0.0056346857020099,-0.0013841224162099,0.0013841224158332,6.2633954810968e-12,-6.7190253854454e-12,-3.2018727732199e-14,-2.2773127825989e-13,-0.001408787741864,0.0014087877460445,-0.0014087877463177,0.0014087877415051,-0.0014087877425919,0.0014087877463816,-0.0014087877469854,0.0014087877420451,-0.0013572075886472,0.0013572076012937,-0.0013572076018528,0.0013572075879721,-6.5108219812106e-13,-4.3493436011267e-13,-4.5850128721805e-14,3.6360565680266e-14,-0.0013841224163757,0.0013841224156759,-0.0014087877441768,0.0014087877441296,-0.0014087877441741,0.0014087877442202,-0.0014087877441955,0.0014087877443189,-0.0014087877441193,0.0014087877442214,-0.0013572075950926,0.0013572075937026,-0.0013572075937493,0.0013572075929398,-0.0013572075955147,0.0013572075925017,-0.0013572075954508,0.001357207592188,-6.7010104652006e-12,6.7668938348618e-12,-0.0013841224159955,0.0013841224160222,-1.0025958419735e-14,-9.5945598339595e-14,-0.0014087877466714,0.0014087877421255,-0.0014087877465121,0.0014087877419062,-0.0014087877420594,0.0014087877468735,-0.0014087877418882,0.0014087877465416,-0.0013572075861922,0.0013572075997673,-0.0013572075994671,0.0013572075861404,0.0039123063011649,0.0037535352971785,0.7013292439665,0.65271059529583,1368840,32768,0.0057505639719996,0.0057505639720173,0.0057505639719472,26.14026171104,26.09977088185,0.00012432209368832,0.00012432209368832,0.00012432209368832,362638.02176637,0.017401555720955
15638400,0.99933288400024,0.016904376153711,0.0056347920512316,0.0056347920512906,0.0056347920511883,-0.0013837839882871,0.0013837839878913,6.2636888838983e-12,-6.7085582346214e-12,-6.624527037011e-14,-2.9408954517803e-13,-0.0014084020028728,0.001408402007021,-0.0014084020072139,0.0014084020025014,-0.0014084020035852,0.0014084020072526,-0.0014084020078993,0.0014084020030761,-0.0013569072937878,0.0013569073068177,-0.0013569073070516,0.0013569072931745,-6.9032920503429e-13,-4.4091641265919e-13,-4.2486260897423e-14,1.6465732277299e-14,-0.001383783988471,0.0013837839877405,-0.0014084020052809,0.0014084020050879,-0.0014084020052082,0.0014084020053057,-0.0014084020051701,0.0014084020053411,-0.001408402005208,0.0014084020052552,-0.0013569073005334,0.0013569072991773,-0.0013569072989776,0.001356907297791,-0.0013569073007021,0.0013569072979027,-0.001356907300413,0.0013569072973866,-6.7146938118896e-12,6.7431884413983e-12,-0.001383783988074,0.0013837839880964,3.2233280001304e-14,-3.1211811206475e-14,-0.0014084020076709,0.0014084020031479,-0.0014084020075506,0.0014084020029181,-0.0014084020030889,0.0014084020078355,-0.0014084020029882,0.0014084020075196,-0.001356907291181,0.00135690730506,-0.0013569073048281,0.0013569072914127,0.00390862720791,0.0037513939887545,0.70313728962077,0.67063093603757,1368840,32768,0.0057491619881548,0.0057491619882234,0.0057491619881384,25.914225552931,25.898385426056,0.00012251380442345,0.00012251380442345,0.00012251380442345,359254.1199768,0.01739727637981
15724800,0.99935276913815,0.016904686013491,0.0056348953378252,0.0056348953378843,0.005634895337782,-0.0013835392136614,0.0013835392133455,6.3114621303407e-12,-6.6694020190522e-12,-2.5215112048576e-15,-2.2846243239422e-13,-0.0014081193895108,0.0014081193937271,-0.0014081193939765,0.0014081193891681,-0.0014081193902111,0.0014081193940755,-0.0014081193946484,0.0014081193899349,-0.0013566938846247,0.0013566938977649,-0.0013566938982571,0.0013566938842531,-6.2320816730063e-13,-3.7639326614997e-13,1.043429888639e-14,1.0186818211461e-13,-0.0013835392138366,0.001383539213221,-0.0014081193919892,0.0014081193917729,-0.0014081193918485,0.0014081193920314,-0.0014081193918163,0.0014081193920959,-0.0014081193918814,0.0014081193919846,-0.0013566938914457,0.0013566938901574,-0.0013566938897413,0.0013566938885653,-0.0013566938921275,0.0013566938890484,-0.0013566938912506,0.0013566938884172,-6.7569447564464e-12,6.7097798737718e-12,-0.0013835392135257,0.0013835392134936,3.1105726212004e-14,-6.4457795564473e-14,-0.0014081193944217,0.0014081193898663,-0.0014081193942877,0.0014081193896337,-0.0014081193898096,0.001408119394476,-0.0014081193897114,0.0014081193941443,-0.0013566938823,0.0013566938961018,-0.0013566938959176,0.0013566938820994,0.0039053870623008,0.0037492919673462,0.71137692864818,0.79804980302724,1368840,32768,0.0057481479678726,0.0057481479679776,0.0057481479678985,25.737796380549,25.725959157769,0.00012110237104439,0.00012110237104439,0.00012110237104439,356115.16070759,0.017394181295715
15811200,0.99937186713369,0.016904986217397,0.0056349954057936,0.0056349954058527,0.0056349954057504,-0.0013836675972085,0.0013836675965881,6.1892078063029e-12,-6.8421114487801e-12,-2.0028341089104e-13,-4.7447968144202e-13,-0.0014080320995328,0.0014080321035015,-0.0014080321038688,0.0014080320987072,-0.0014080321001241,0.0014080321036848,-0.0014080321045177,0.0014080320993725,-0.0013570160896355,0.001357016102763,-0.0013570161025786,0.0013570160889472,-7.6315030392912e-13,-4.6607287944052e-13,-3.1677179342739e-14,-8.8786787624584e-14,-0.0013836675972898,0.001383667596562,-0.0014080321016105,0.0014080321016634,-0.0014080321017686,0.0014080321018248,-0.0014080321015287,0.0014080321019556,-0.0014080321014895,0.0014080321017806,-0.0013570160969183,0.001357016094868,-0.001357016095224,0.001357016093465,-0.0013570160969869,0.0013570160930322,-0.0013570160967017,0.001357016092892,-6.7297623515561e-12,6.7880261892829e-12,-0.0013836675968567,0.0013836675969075,-3.9953720617731e-14,1.0791523267548e-14,-0.0014080321041327,0.0014080320994997,-0.0014080321040534,0.0014080320995484,-0.0014080320994576,0.0014080321043665,-0.0014080320994602,0.0014080321040253,-0.0013570160866574,0.0013570161008138,-0.0013570161005114,0.0013570160874818,0.0039037258829854,0.003747228445163,0.71758699896665,0.84262532356393,1368840,32768,0.0057486801519009,0.0057486801520152,0.0057486801518338,25.564982743445,25.55353288948,0.00011971986194756,0.00011971986194756,0.00011971986194756,342518.7728796,0.017395804474773
15897600,0.9993902149141,0.01690527585635,0.0056350919521114,0.0056350919521705,0.0056350919520682,-0.0013835204024072,0.0013835204020126,6.2644016268303e-12,-6.6925127836225e-12,-2.9553273638365e-14,-3.5293268873686e-13,-0.0014077957276783,0.001407795731847,-0.0014077957320468,0.0014077957273491,-0.0014077957284154,0.0014077957321053,-0.0014077957327236,0.0014077957278731,-0.0013569350252066,0.0013569350380771,-0.0013569350385208,0.0013569350245839,-7.3531344844359e-13,-3.8994549919737e-13,8.5453595333673e-14,-5.6221694230539e-14,-0.0013835204025736,0.0013835204018788,-0.0014077957300379,0.0014077957299583,-0.001407795730062,0.0014077957300699,-0.0014077957299025,0.001407795730211,-0.0014077957300245,0.0014077957300799,-0.0013569350320987,0.0013569350308697,-0.0013569350303769,0.00135693502916,-0.0013569350325527,0.0013569350290842,-0.0013569350319923,0.0013569350289342,-6.6557039669301e-12,6.7873822971887e-12,-0.001383520402141,0.0013835204022639,5.81005780084e-15,1.41932781698e-13,-0.0014077957324873,0.0014077957279542,-0.0014077957322689,0.0014077957277874,-0.0014077957278805,0.0014077957326603,-0.0014077957276794,0.0014077957323674,-0.001356935022817,0.0013569350366995,-0.0013569350363329,0.0013569350230007,0.0039009793987193,0.0037452024911195,0.72050764660709,0.82628061128144,1368840,32768,0.0057480703691543,0.0057480703692218,0.0057480703691235,25.392512897483,25.381106621192,0.00011834010317987,0.00011834010317987,0.00011834010317987,336216.09557128,0.017393943228033
15984000,0.99940784711269,0.016905555013913,0.0056351850046322,0.0056351850046913,0.0056351850045891,-0.0013831822106429,0.0013831822101677,6.2939498417997e-12,-6.686961188514e-12,-5.9038902284414e-14,-4.6279150909589e-13,-0.0014074637243496,0.0014074637284088,-0.0014074637289148,0.0014074637239288,-0.0014074637253186,0.0014074637284122,-0.0014074637292025,0.0014074637245541,-0.0013565768488014,0.001356576862443,-0.0013565768627923,0.0013565768483723,-6.5601728265173e-13,-2.2896135832884e-13,1.505876643561e-13,-5.7721942516631e-14,-0.0013831822106854,0.0013831822100823,-0.0014074637254558,0.0014074637250486,-0.0014074637258608,0.0014074637252298,-0.0014074637254371,0.0014074637260203,-0.0014074637252375,0.0014074637252825,-0.001356576856552,0.0013565768549768,-0.0013565768544076,0.001356576853091,-0.0013565768560063,0.0013565768528941,-0.0013565768558419,0.0013565768531627,-6.6462156097341e-12,6.8217115719823e-12,-0.0013831822102861,0.0013831822104776,1.0599823241499e-14,2.1228992645317e-13,-0.0014074637277581,0.0014074637230896,-0.001407463727563,0.0014074637231009,-0.0014074637229956,0.0014074637277839,-0.0014074637230164,0.0014074637276975,-0.0013565768464869,0.001356576861073,-0.0013565768608785,0.0013565768469469,0.0038974881171026,0.0037432134261453,0.72255833990919,0.80993589899896,1368840,32768,0.005746669165705,0.0057466691656155,0.0057466691656073,25.220076832073,25.208680352904,0.00011696061465658,0.00011696061465658,0.00011696061465658,335348.90560541,0.017389667013834
16070400,0.999424796524,0.016905823868988,0.0056352746229907,0.0056352746230497,0.0056352746229475,-0.0013828376086999,0.0013828376082493,6.2579909403195e-12,-6.704672882728e-12,3.3756615817382e-15,-4.2759864303732e-13,-0.0014071297071385,0.0014071297112108,-0.0014071297115568,0.0014071297068392,-0.0014071297080455,0.0014071297115591,-0.0014071297124047,0.0014071297074499,-0.0013562121659069,0.0013562121788197,-0.0013562121793224,0.001356212165288,-6.9743731141593e-13,-2.4509651246978e-13,1.7365822427222e-13,-2.4520721497025e-14,-0.0013828376089521,0.0013828376083452,-0.0014071297093544,0.0014071297092349,-0.0014071297095012,0.0014071297092463,-0.001407129709194,0.0014071297096803,-0.0014071297093723,0.0014071297095285,-0.0013562121722941,0.0013562121711533,-0.0013562121702852,0.0013562121691824,-0.0013562121716485,0.0013562121690157,-0.0013562121715534,0.0013562121686386,-6.6464928953808e-12,6.8026987410465e-12,-0.0013828376085173,0.0013828376087214,2.7234226836594e-14,2.2100818952799e-13,-0.0014071297117629,0.0014071297072502,-0.00140712971138,0.0014071297071525,-0.0014071297070436,0.0014071297120524,-0.0014071297070025,0.0014071297116927,-0.0013562121626585,0.0013562121767416,-0.0013562121762728,0.001356212162774,0.0038940071939504,0.0037412606085206,0.72392196904445,0.79359118671651,1368840,32768,0.0057452414297867,0.0057452414305078,0.0057452414303866,25.047644129133,25.036254084616,0.00011558115303306,0.00011558115303306,0.00011558115303306,334858.20157919,0.017385309751217
16156800,0.99944109424,0.016906082678777,0.0056353608929203,0.0056353608929794,0.0056353608928771,-0.0013824875909859,0.0013824875905367,6.2700358664729e-12,-6.679838876684e-12,2.5028411869786e-14,-4.4910610364622e-13,-0.0014067938003404,0.0014067938046587,-0.0014067938047858,0.0014067938002535,-0.0014067938012981,0.0014067938049165,-0.0014067938055372,0.0014067938007414,-0.0013558415875303,0.0013558416006241,-0.0013558416013264,0.0013558415870693,-7.0108084716724e-13,-2.0545113537355e-13,1.9662581674568e-13,-6.3743817376017e-14,-0.0013824875913518,0.0013824875907418,-0.0014067938039968,0.0014067938042086,-0.0014067938043216,0.0014067938040953,-0.0014067938037961,0.0014067938046058,-0.001406793804049,0.0014067938041625,-0.0013558415940095,0.0013558415932406,-0.0013558415924709,0.0013558415915132,-0.0013558415922658,0.0013558415897193,-0.0013558415920392,0.0013558415897201,-6.5271954810114e-12,6.9092482801489e-12,-0.0013824875908416,0.0013824875912018,9.0359327819854e-14,3.4157306517732e-13,-0.0014067938064111,0.0014067938021745,-0.001406793806039,0.0014067938021337,-0.0014067938020279,0.0014067938068486,-0.0014067938016218,0.0014067938063821,-0.0013558415831457,0.0013558415976235,-0.0013558415968889,0.0013558415836508,0.0038905407100761,0.0037393434293264,0.7247396717243,0.77724647443405,1368840,32768,0.0057437912744574,0.0057437912756407,0.0057437912755368,24.875211769104,24.863827816329,0.00011420169415283,0.00011420169415283,0.00011420169415283,334662.49229249,0.017380884013856
16243200,0.99945676975016,0.016906331738364,0.0056354439127826,0.0056354439128417,0.0056354439127394,-0.0013821329217977,0.0013821329212897,6.2521002967452e-12,-6.7165045212796e-12,-1.8379438520769e-14,-4.7071626699998e-13,-0.001406456270869,0.0014064562748261,-0.0014064562750929,0.00140645627085,-0.0014064562713833,0.0014064562747697,-0.0014064562757738,0.0014064562703582,-0.0013554656068778,0.001355465619531,-0.0013554656204762,0.0013554656059844,-7.0429739596271e-13,-2.3048860579013e-13,1.5484585780063e-13,-9.2842810774684e-14,-0.0013821329220364,0.0013821329213786,-0.0014064562745154,0.0014064562737565,-0.001406456273964,0.0014064562744324,-0.0014064562743075,0.0014064562745812,-0.0014064562741542,0.0014064562746641,-0.0013554656131853,0.0013554656119129,-0.0013554656118893,0.0013554656105676,-0.0013554656112343,0.0013554656088022,-0.0013554656113317,0.0013554656088399,-6.6429942375565e-12,6.8121803631542e-12,-0.0013821329215849,0.0013821329217605,-2.2466048971743e-14,2.2145335239915e-13,-0.0014064562764449,0.0014064562725099,-0.0014064562765934,0.0014064562721379,-0.0014064562726303,0.0014064562767722,-0.0014064562719449,0.0014064562764256,-0.0013554656021649,0.0013554656163913,-0.0013554656157923,0.0013554656023315,0.0038870916407477,0.0037374612998774,0.7251219605634,0.76090176215157,1368840,32768,0.0057423218612704,0.0057423218619498,0.0057423218618056,24.702779447575,24.691401548041,0.00011282223558059,0.00011282223558059,0.00011282223558059,334705.29525543,0.017376399466749
16329600,0.99947185103301,0.016906571366593,0.0056355237888588,0.005635523788918,0.0056355237888157,-0.0013817742254399,0.0013817742249696,6.267647821779e-12,-6.7053085103689e-12,4.9505840571729e-14,-4.5332432772355e-13,-0.0014061172941301,0.0014061172979289,-0.0014061172985355,0.0014061172937024,-0.0014061172949179,0.0014061172983492,-0.0014061172991842,0.0014061172938899,-0.0013550846067185,0.0013550846200244,-0.0013550846201247,0.0013550846065545,-7.1352005539326e-13,-1.9168461475483e-13,1.989106881209e-13,-2.5083645476555e-14,-0.0013817742255393,0.0013817742249302,-0.0014061172969862,0.0014061172967655,-0.0014061172970964,0.0014061172968421,-0.0014061172966633,0.0014061172970547,-0.0014061172967234,0.0014061172968566,-0.0013550846129261,0.0013550846115753,-0.0013550846117003,0.00135508460981,-0.0013550846123296,0.0013550846089587,-0.0013550846116235,0.0013550846093657,-6.7158642467219e-12,6.7417791609214e-12,-0.0013817742252259,0.0013817742253204,-4.2384205191625e-14,1.756530750956e-13,-0.0014061172997099,0.0014061172950245,-0.0014061172992058,0.0014061172948486,-0.0014061172946848,0.0014061173000287,-0.0014061172950029,0.0014061172992681,-0.0013550846027814,0.0013550846165326,-0.0013550846169618,0.001355084602954,0.0038836622371736,0.0037356136476142,0.72515652892369,0.7445570498691,1368840,32768,0.0057408357737661,0.0057408357738907,0.00574083577405,24.530347128178,24.518975279753,0.00011144277702542,0.00011144277702542,0.00011144277702542,334941.28162844,0.017371864009132
16416000,0.99948641396536,0.016906798416629,0.0056355994722044,0.0056355994722636,0.0056355994721613,-0.0013815222289968,0.0013815222285244,6.3067183929057e-12,-6.724736563914e-12,4.1162271932612e-14,-5.3125506464009e-13,-0.0014058864484349,0.0014058864526659,-0.0014058864528555,0.001405886448074,-0.0014058864492684,0.0014058864528109,-0.0014058864536215,0.0014058864484548,-0.0013548097598507,0.0013548097730298,-0.0013548097730945,0.0013548097589784,-8.0991437531884e-13,-2.161138684579e-13,2.4396122362267e-13,-1.647608490221e-14,-0.0013815222290633,0.0013815222284954,-0.0014058864509814,0.0014058864508233,-0.0014058864510807,0.0014058864509573,-0.0014058864506306,0.0014058864512309,-0.0014058864507402,0.0014058864510497,-0.0013548097661886,0.0013548097656228,-0.0013548097649502,0.0013548097638641,-0.0013548097669498,0.0013548097632317,-0.0013548097662221,0.0013548097635373,-6.683133364275e-12,6.83439971378e-12,-0.0013815222286985,0.0013815222288248,-6.5769108445941e-14,1.8902340193541e-13,-0.0014058864533342,0.0014058864487956,-0.0014058864531067,0.0014058864486948,-0.0014058864486522,0.0014058864534973,-0.0014058864485207,0.0014058864532597,-0.0013548097569156,0.0013548097712492,-0.0013548097708888,0.0013548097576501,0.003880716618502,0.0037337990350582,0.71157451946907,0.52307539463863,1368840,32768,0.0057397917342539,0.0057397917343314,0.0057397917342584,24.415110041576,24.407384628375,0.0001105208803326,0.0001105208803326,0.0001105208803326,335314.99884084,0.017368677705236
16502400,0.99950048398732,0.016907021144485,0.0056356737148229,0.0056356737148821,0.0056356737147798,-0.0013805437218077,0.0013805437212871,6.2228504844245e-12,-6.755713029369e-12,7.8175611788722e-14,-5.8531558959875e-13,-0.0014052945918202,0.0014052945959799,-0.0014052945962182,0.0014052945914467,-0.001405294592693,0.001405294596067,-0.0014052945970107,0.0014052945918195,-0.0013534801413221,0.0013534801542812,-0.0013534801547999,0.0013534801406269,-8.1869669526029e-13,-1.3362303555504e-13,2.3029711164014e-13,-2.2526576534432e-14,-0.0013805437218475,0.0013805437212921,-0.0014052945942583,0.0014052945941167,-0.0014052945942435,0.0014052945942057,-0.001405294593979,0.0014052945945237,-0.0014052945940936,0.0014052945943712,-0.0013534801478205,0.001353480147078,-0.001353480146212,0.0013534801451621,-0.00135348014852,0.0013534801450494,-0.0013534801475592,0.0013534801450683,-6.6539614907498e-12,6.810852491955e-12,-0.0013805437214674,0.0013805437216204,-4.685442157076e-14,2.0019761939427e-13,-0.0014052945966505,0.0014052945921153,-0.0014052945963963,0.0014052945920246,-0.0014052945920021,0.0014052945967928,-0.0014052945918011,0.0014052945965972,-0.0013534801385156,0.0013534801526274,-0.0013534801524188,0.0013534801389802,0.0038748122914959,0.0037320190021544,0.72247542827119,0.73248561102732,1368840,32768,0.0057357373445826,0.0057357373446754,0.0057357373445682,24.305846140536,24.298625314241,0.00010964676912429,0.00010964676912429,0.00010964676912429,357291.37030622,0.017356305491769
16588800,0.99951408054811,0.016907239482444,0.0056357464941427,0.005635746494202,0.0056357464940997,-0.001381079829769,0.0013810798292855,6.2814571646189e-12,-6.7653976158644e-12,5.0626041644473e-14,-5.297988738316e-13,-0.0014054767889083,0.0014054767931044,-0.0014054767933044,0.0014054767885782,-0.0014054767897482,0.0014054767932557,-0.0014054767940823,0.0014054767890084,-0.0013543420490402,0.0013543420620846,-0.0013543420625153,0.0013543420483224,-8.0465338897954e-13,-2.0235917100741e-13,1.5232578772822e-13,-3.5545178825068e-14,-0.0013810798298466,0.0013810798292436,-0.001405476791329,0.0014054767912035,-0.001405476791314,0.0014054767913144,-0.0014054767910887,0.001405476791572,-0.001405476791196,0.001405476791425,-0.0013543420556839,0.0013543420547839,-0.0013543420542231,0.0013543420530957,-0.0013543420562668,0.0013543420528327,-0.0013543420555629,0.0013543420529015,-6.694328434038e-12,6.8387516690661e-12,-0.0013810798294615,0.0013810798295825,-3.7683966427752e-14,1.4440388267815e-13,-0.0014054767937448,0.0014054767892013,-0.0014054767935239,0.0014054767890488,-0.0014054767891258,0.0014054767939253,-0.0014054767889237,0.0014054767936493,-0.0013543420463969,0.0013543420605602,-0.001354342060273,0.0013543420467928,0.00387517821552,0.003730272908142,0.7331149329672,0.90536956812686,1368840,32768,0.0057379589679274,0.0057379589680011,0.0057379589679055,24.197033200652,24.189866000108,0.00010877626560521,0.00010877626560521,0.00010877626560521,335758.16189559,0.017363083876328
16675200,0.99952722191413,0.016907452216235,0.0056358174054061,0.0056358174054654,0.0056358174053631,-0.0013814177868138,0.0013814177863396,6.2632724260325e-12,-6.7656342556941e-12,3.3397685605983e-14,-5.166472756039e-13,-0.0014055547368678,0.0014055547410393,-0.0014055547412401,0.001405554736543,-0.0014055547376673,0.0014055547412092,-0.0014055547419895,0.0014055547369821,-0.0013549141044765,0.001354914117445,-0.0013549141179247,0.0013549141036128,-7.931629752979e-13,-2.212572995649e-13,1.6279311501738e-13,-6.9869512593174e-14,-0.0013814177869021,0.0013814177862869,-0.0014055547392404,0.0014055547391455,-0.0014055547392503,0.0014055547392446,-0.0014055547390094,0.0014055547394832,-0.0014055547391399,0.0014055547393218,-0.0013549141110185,0.0013549141101561,-0.0013549141096259,0.0013549141084213,-0.0013549141116619,0.0013549141081843,-0.0013549141110633,0.0013549141082805,-6.6784746830651e-12,6.8368398451181e-12,-0.0013814177865043,0.0013814177866374,-5.1660598274772e-14,1.7525564606031e-13,-0.0014055547416954,0.0014055547371429,-0.0014055547414528,0.0014055547370162,-0.0014055547370833,0.0014055547418508,-0.0014055547368594,0.0014055547415926,-0.00135491410177,0.001354914116026,-0.0013549141155375,0.0013549141021208,0.0038747661056082,0.0037285598494339,0.7388163217517,0.93026865924923,1368840,32768,0.0057393594900022,0.005739359490076,0.0057393594899782,24.088265362751,24.081106685975,0.00010790612290201,0.00010790612290201,0.00010790612290201,319855.33054492,0.01736735687261
16761600,0.9995399255362,0.016907658873474,0.0056358862911525,0.0056358862912117,0.0056358862911094,-0.0013813175037293,0.0013813175032807,6.3014474951045e-12,-6.7653754400713e-12,1.9551167431138e-14,-4.9110299714054e-13,-0.0014054014751782,0.0014054014794207,-0.0014054014795971,0.0014054014748801,-0.0014054014759778,0.0014054014795645,-0.0014054014802991,0.0014054014753389,-0.0013548501049512,0.0013548501179008,-0.0013548501182301,0.0013548501043454,-8.0046666393994e-13,-2.6809651571783e-13,1.5788979422222e-13,-1.3082544454894e-13,-0.0013813175038495,0.0013813175031922,-0.0014054014773477,0.0014054014772376,-0.0014054014773623,0.0014054014773749,-0.0014054014771012,0.0014054014775504,-0.0014054014772976,0.0014054014774307,-0.0013548501115837,0.0013548501106863,-0.0013548501103341,0.0013548501090334,-0.0013548501121647,0.0013548501087892,-0.0013548501116452,0.0013548501090135,-6.699542862976e-12,6.8538463255818e-12,-0.0013813175034292,0.0013813175035674,-8.4012904051685e-14,1.987066649419e-13,-0.0014054014798004,0.0014054014752319,-0.0014054014795588,0.0014054014751306,-0.0014054014751818,0.0014054014800028,-0.0014054014749673,0.0014054014797597,-0.0013548501025442,0.0013548501165442,-0.0013548501162423,0.001354850102989,0.0038725962647179,0.0037268790857526,0.74227973038646,0.91509256745445,1368840,32768,0.0057389439934197,0.0057389439934854,0.0057389439933921,23.979502598785,23.972347371842,0.00010703602079028,0.00010703602079028,0.00010703602079028,315690.00824343,0.017366088861945
16848000,0.9995522081181,0.016907859412318,0.005635953137434,0.0056359531374932,0.0056359531373909,-0.0013811036738706,0.0013811036734343,6.315677060401e-12,-6.7494941605276e-12,4.8070237369598e-14,-4.9767667867203e-13,-0.0014051892551971,0.001405189259396,-0.0014051892595922,0.0014051892548741,-0.0014051892559534,0.0014051892595912,-0.0014051892603614,0.0014051892553758,-0.0013546237834371,0.0013546237964374,-0.0013546237968229,0.0013546237830184,-8.3841376938779e-13,-2.7114977538402e-13,1.8210870141006e-13,-1.1963672753304e-13,-0.0013811036739749,0.001381103673334,-0.0014051892569955,0.0014051892570257,-0.0014051892570619,0.0014051892570247,-0.0014051892568736,0.0014051892572569,-0.0014051892569561,0.0014051892571201,-0.0013546237898994,0.0013546237890335,-0.0013546237886864,0.0013546237872639,-0.001354623790771,0.001354623787415,-0.0013546237902189,0.0013546237874999,-6.6912727626807e-12,6.8603509798102e-12,-0.0013811036735514,0.0013811036737107,-8.1194225454499e-14,2.1426721898942e-13,-0.0014051892594155,0.0014051892549344,-0.0014051892591988,0.0014051892547917,-0.0014051892547958,0.001405189259702,-0.0014051892545986,0.0014051892594214,-0.0013546237809617,0.0013546237948687,-0.0013546237946925,0.0013546237814061,0.0038699933965931,0.0037252299917934,0.74495601429487,0.89991647565968,1368840,32768,0.0057380579963254,0.0057380579963333,0.0057380579962365,23.87074041019,23.863588057709,0.00010616592328152,0.00010616592328152,0.00010616592328152,314710.67715336,0.01736338518557
16934400,0.99956408565483,0.016908053865253,0.0056360179550788,0.005636017955138,0.0056360179550358,-0.0013808841008751,0.0013808841003735,6.261595300797e-12,-6.7865290879595e-12,1.8798661007928e-14,-5.3201257091056e-13,-0.0014049759836978,0.0014049759878357,-0.0014049759881099,0.0014049759833237,-0.0014049759846192,0.001404975988019,-0.0014049759887528,0.001404975983835,-0.0013543899043597,0.0013543899170821,-0.0013543899177524,0.0013543899037657,-8.3045124793148e-13,-2.5792288533878e-13,1.8242169184842e-13,-1.0023329088294e-13,-0.0013808841009794,0.0013808841003378,-0.0014049759860503,0.0014049759859502,-0.0014049759860506,0.0014049759860942,-0.0014049759857336,0.0014049759862467,-0.0014049759859563,0.0014049759861316,-0.0013543899107102,0.0013543899100057,-0.0013543899094945,0.0013543899080581,-0.0013543899112918,0.0013543899081979,-0.0013543899107604,0.0013543899079724,-6.6735746562869e-12,6.8612762750725e-12,-0.00138088410055,0.0013808841007168,-5.5728621058292e-14,2.2032891616167e-13,-0.001404975988464,0.0014049759838497,-0.0014049759882372,0.001404975983781,-0.0014049759837873,0.0014049759886693,-0.0014049759836243,0.0014049759884452,-0.0013543899017125,0.0013543899155722,-0.0013543899154769,0.0013543899020546,0.0038673974227352,0.0037236119741635,0.74697641712079,0.88474038386491,1368840,32768,0.0057371482278547,0.0057371482279967,0.0057371482278923,23.761978414514,23.754828743574,0.00010529582731611,0.00010529582731611,0.00010529582731611,314059.53068798,0.017360608889948
17020800,0.99957557346662,0.016908241389876,0.0056360804632867,0.005636080463346,0.0056360804632437,-0.0013806592345885,0.0013806592341116,6.2450299245049e-12,-6.7537993819472e-12,5.6501332746598e-14,-5.1154254919685e-13,-0.001404761072501,0.0014047610766337,-0.0014047610768818,0.0014047610721833,-0.00140476107323,0.0014047610767974,-0.0014047610775564,0.0014047610725653,-0.0013541492455327,0.0013541492584953,-0.0013541492588479,0.0013541492447664,-7.7763883190277e-13,-1.8801972671465e-13,1.8674403039218e-13,-6.234580126092e-14,-0.0013806592346709,0.0013806592340977,-0.0014047610751936,0.0014047610752588,-0.0014047610752194,0.0014047610753768,-0.0014047610750404,0.0014047610756499,-0.00140476107514,0.0014047610754169,-0.001354149251945,0.0013541492509322,-0.0013541492502914,0.0013541492490758,-0.001354149251545,0.0013541492481777,-0.0013541492507012,0.0013541492481876,-6.6400237400679e-12,6.8454069657513e-12,-0.0013806592342808,0.0013806592344389,-3.4000049557119e-14,2.0903661407493e-13,-0.0014047610777436,0.0014047610732868,-0.001404761077552,0.0014047610730485,-0.0014047610731597,0.0014047610779954,-0.0014047610729256,0.0014047610776841,-0.001354149241646,0.0013541492558222,-0.001354149255406,0.0013541492421146,0.0038648100726791,0.0037220242153033,0.74480063937671,0.8168373588107,1368840,32768,0.0057362165467335,0.0057362165468759,0.0057362165467747,23.653218124162,23.646069429442,0.00010442574499329,0.00010442574499329,0.00010442574499329,313681.8927218,0.017357765663421
17107200,0.99958668622729,0.016908422525852,0.0056361408419453,0.0056361408420045,0.0056361408419022,-0.0013802729070341,0.001380272906596,6.2835651590447e-12,-6.699885617211e-12,6.8247091568787e-14,-5.1103303535038e-13,-0.0014044644916052,0.0014044644957376,-0.0014044644960251,0.0014044644913598,-0.0014044644923242,0.001404464496001,-0.0014044644965594,0.0014044644916998,-0.0013536764234882,0.0013536764362915,-0.00135367643725,0.0013536764233524,-8.3937212246371e-13,-2.376260348054e-13,1.3604557919506e-13,-8.3758294182783e-14,-0.0013802729071704,0.0013802729065191,-0.0014044644938098,0.0014044644939336,-0.0014044644941578,0.0014044644942214,-0.001404464493859,0.0014044644942881,-0.001404464494003,0.0014044644941586,-0.001353676430264,0.0013536764295598,-0.0013536764292057,0.0013536764276521,-0.0013536764307291,0.0013536764270239,-0.001353676430085,0.0013536764274234,-6.676848673915e-12,6.7932868815136e-12,-0.0013802729067524,0.0013802729068698,-5.7146695384154e-14,1.5742527900108e-13,-0.001404464496598,0.0014044644920264,-0.0014044644964013,0.0014044644919057,-0.0014044644920146,0.0014044644966755,-0.0014044644915954,0.0014044644963646,-0.0013536764212984,0.0013536764347751,-0.0013536764349888,0.001353676421352,0.0038615876433084,0.0037204662722427,0.74370784202075,0.78518100685759,1368840,32768,0.005734615852611,0.0057346158527343,0.0057346158525952,23.544457091204,23.537310115309,0.00010355565672963,0.00010355565672963,0.00010355565672963,318021.658885,0.017352880951103
17193600,0.9995972455724,0.016908594000407,0.0056361980001303,0.0056361980001895,0.0056361980000872,-0.0013793982858531,0.0013793982854278,6.2948451085676e-12,-6.7880288656717e-12,1.3395002556572e-13,-4.0583819015716e-13,-0.0014036449579247,0.0014036449618429,-0.0014036449620243,0.0014036449573014,-0.0014036449578218,0.0014036449622521,-0.001403644962842,0.0014036449578904,-0.0013527505214335,0.0013527505349953,-0.0013527505355971,0.0013527505204783,-1.0017498678174e-12,-4.3733199274899e-13,-9.3414616835813e-14,-2.9307519381283e-13,-0.0013793982861807,0.0013793982850981,-0.0014036449602075,0.0014036449597422,-0.0014036449602592,0.0014036449596882,-0.0014036449600357,0.0014036449598856,-0.0014036449600695,0.0014036449597306,-0.001352750528287,0.0013527505271041,-0.0013527505277373,0.0013527505255337,-0.0013527505294849,0.0013527505252945,-0.00135275052818,0.0013527505247227,-6.6927465411872e-12,6.8793434878374e-12,-0.0013793982855104,0.0013793982857119,-6.3375622741757e-14,1.2922940507156e-13,-0.0014036449624419,0.0014036449583979,-0.0014036449622816,0.001403644958113,-0.0014036449577968,0.0014036449628313,-0.0014036449574057,0.0014036449623572,-0.0013527505184988,0.0013527505333437,-0.0013527505325808,0.0013527505187808,0.0038563376262583,0.0037189364976389,0.74096812938616,0.73653500939555,1368840,32768,0.0057309923230493,0.0057309923230447,0.005730992322928,23.134033021933,23.107758060958,0.00010027226417546,0.00010027226417546,0.00010027226417546,320087.28082321,0.017341822196617
17280000,0.99960726996654,0.016908755952194,0.0056362519840594,0.0056362519841186,0.0056362519840163,-0.0013784166668432,0.0013784166662606,6.2720340995459e-12,-6.9062269018617e-12,1.2429855570562e-14,-5.9722357875903e-13,-0.0014027409957702,0.0014027410002119,-0.0014027410004831,0.0014027409955473,-0.0014027409967593,0.0014027410001301,-0.0014027410012796,0.0014027409961563,-0.0013516962699626,0.0013516962825671,-0.0013516962835968,0.0013516962684912,-8.9182931405016e-13,-2.5918690554736e-13,4.0383031032004e-14,-6.2337948559638e-14,-0.0013784166669187,0.0013784166661288,-0.0014027409984613,0.0014027409979164,-0.0014027409987126,0.0014027409984593,-0.0014027409980882,0.0014027409986338,-0.0014027409988078,0.0014027409982598,-0.0013516962761637,0.0013516962749113,-0.0013516962746813,0.0013516962734531,-0.0013516962770127,0.0013516962738991,-0.0013516962763295,0.0013516962730558,-6.6524718891973e-12,7.0126250632356e-12,-0.0013784166663708,0.0013784166667594,1.687460802172e-13,2.6343086413263e-13,-0.0014027410005644,0.0014027409959042,-0.0014027410006998,0.0014027409958059,-0.0014027409956543,0.001402741001602,-0.001402740995965,0.001402741000965,-0.001351696267463,0.0013516962823005,-0.0013516962817665,0.0013516962670924,0.003850669983157,0.0037174343664839,0.73718358405681,0.67931440928827,1368840,32768,0.0057269254872021,0.0057269254870855,0.0057269254872571,22.699131266235,22.670708915563,9.6793050129879e-05,9.6793050129879e-05,9.6793050129879e-05,323776.71707475,0.017329410622735
17366400,0.99961679089996,0.0169089088951,0.0056363029650279,0.0056363029650872,0.0056363029649849,-0.0013773934755559,0.0013773934749658,6.3085467488154e-12,-6.8190259187331e-12,1.1755499701083e-13,-7.4227850037192e-13,-0.0014018147578724,0.0014018147624684,-0.0014018147623943,0.0014018147573186,-0.0014018147589381,0.0014018147620819,-0.0014018147627844,0.0014018147579124,-0.0013505835028779,0.0013505835151981,-0.0013505835160117,0.0013505835020366,-1.0783838208204e-12,-1.9429906429696e-13,1.211169764301e-13,-1.2288951051569e-13,-0.0013773934756357,0.0013773934748692,-0.0014018147599821,0.001401814760189,-0.0014018147601996,0.0014018147601631,-0.0014018147601189,0.0014018147608679,-0.0014018147600093,0.0014018147603759,-0.001350583511316,0.0013505835094867,-0.0013505835087072,0.0013505835075849,-0.0013505835114876,0.0013505835065261,-0.0013505835111704,0.0013505835069231,-6.8526464798833e-12,6.7613540923325e-12,-0.001377393475315,0.0013773934752166,-1.7937616724004e-13,5.8174693391285e-14,-0.0014018147628202,0.0014018147583997,-0.0014018147634454,0.0014018147584844,-0.0014018147582147,0.0014018147633514,-0.0014018147582457,0.0014018147628279,-0.001350583501923,0.0013505835155803,-0.0013505835151132,0.0013505835020477,0.0038448592862099,0.0037159594798434,0.73302923045547,0.62191897194068,1368840,32768,0.0057226863946844,0.0057226863946498,0.0057226863947051,22.262252970728,22.233659770169,9.3298023765822e-05,9.3298023765822e-05,9.3298023765822e-05,328622.53789624,0.017316473521867
17452800,0.99962583868591,0.016909053374082,0.0056363511246886,0.0056363511247478,0.0056363511246456,-0.0013763577614216,0.0013763577610879,6.2667903185633e-12,-6.7156006665388e-12,4.0506450791027e-13,-5.0522338930167e-13,-0.0014008822038817,0.0014008822086483,-0.0014008822083867,0.0014008822045008,-0.0014008822049629,0.0014008822083426,-0.0014008822093935,0.0014008822048325,-0.0013494530200632,0.0013494530332594,-0.0013494530352197,0.0013494530183475,-7.0788410992047e-13,2.2263966909917e-13,4.023619728238e-13,3.592654658631e-13,-0.0013763577612735,0.0013763577611349,-0.0014008822062145,0.0014008822066224,-0.0014008822057737,0.0014008822072719,-0.0014008822055178,0.0014008822063453,-0.0014008822061243,0.0014008822079875,-0.0013494530256893,0.001349453024953,-0.0013494530243374,0.0013494530224358,-0.0013494530278499,0.0013494530220369,-0.0013494530259117,0.0013494530241631,-6.5211070787726e-12,6.946625697118e-12,-0.0013763577610846,0.001376357761394,2.7777313186855e-13,3.1703290309772e-13,-0.0014008822088188,0.0014008822053239,-0.0014008822086881,0.0014008822047294,-0.0014008822038111,0.001400882209205,-0.0014008822036509,0.0014008822091822,-0.0013494530166017,0.0013494530317189,-0.0013494530301327,0.0013494530162601,0.0038390254282304,0.0037145114561745,0.72872690226477,0.56601547915426,1368840,32768,0.0057183954067605,0.005718395406551,0.0057183954066965,21.825185587292,21.796610624775,8.9801484698338e-05,8.9801484698338e-05,8.9801484698338e-05,333879.01057341,0.017303378193046
17539200,0.99963444157649,0.016909189954299,0.0056363966514277,0.005636396651487,0.0056363966513847,-0.0013753158525406,0.0013753158521649,6.5018384321225e-12,-6.7972525250718e-12,3.2698295207173e-14,-6.6765736823158e-13,-0.0013999469000274,0.0013999469051764,-0.001399946904853,0.0013999469003955,-0.0013999469018675,0.0013999469054186,-0.0013999469058612,0.0013999469011818,-0.001348313597862,0.001348313612011,-0.0013483136116473,0.0013483135964242,-1.1158326767835e-12,-3.9359574062618e-13,-2.6714007434822e-13,-1.1726077070512e-13,-0.0013753158529834,0.0013753158518264,-0.0013999469034526,0.0013999469035127,-0.001399946903429,0.0013999469026781,-0.0013999469037384,0.0013999469025708,-0.0013999469035503,0.0013999469033021,-0.0013483136051253,0.0013483136038355,-0.0013483136046538,0.0013483136033549,-0.0013483136057663,0.0013483136018731,-0.0013483136054887,0.0013483136028297,-6.9558010932865e-12,6.8324213036309e-12,-0.0013753158522215,0.0013753158523768,2.8678923878561e-13,1.3113993494148e-13,-0.0013999469058536,0.001399946901311,-0.0013999469059073,0.0013999469011096,-0.0013999469005795,0.0013999469062022,-0.0013999469009359,0.0013999469050887,-0.0013483135971976,0.001348313612378,-0.0013483136115562,0.0013483135981099,0.0038331943040809,0.0037130899268785,0.72456879435695,0.51484623117263,1368840,32768,0.0057140787398583,0.0057140787400745,0.0057140787396365,21.388099171807,21.359561479382,8.6304793374456e-05,8.6304793374456e-05,8.6304793374456e-05,339363.91474454,0.017290204648074
17625600,0.99964262584122,0.016909319298766,0.00563643976625,0.0056364397663092,0.005636439766207,-0.0013742806362443,0.0013742806357852,6.3215186466505e-12,-6.8049751715031e-12,1.1510454245877e-13,-5.7490949573307e-13,-0.0013990145205906,0.0013990145248572,-0.0013990145250367,0.0013990145200975,-0.0013990145213293,0.0013990145253851,-0.001399014525895,0.001399014520752,-0.0013471845576399,0.0013471845710379,-0.0013471845715047,0.0013471845568188,-6.9816446567246e-13,1.5493997257255e-14,1.8697661152228e-13,3.5301374508417e-13,-0.0013742806361542,0.0013742806358754,-0.0013990145228051,0.0013990145226929,-0.0013990145225798,0.0013990145235814,-0.0013990145233,0.0013990145236803,-0.0013990145226079,0.0013990145232538,-0.0013471845645598,0.0013471845640598,-0.0013471845618804,0.001347184561939,-0.0013471845653983,0.0013471845617099,-0.0013471845639627,0.0013471845613584,-6.8526445387661e-12,6.759457532624e-12,-0.0013742806359825,0.0013742806359632,1.6513557286866e-13,-3.9622318977118e-15,-0.0013990145254089,0.0013990145206973,-0.0013990145251931,0.0013990145202259,-0.0013990145210192,0.001399014525599,-0.0013990145203881,0.0013990145251561,-0.0013471845553751,0.0013471845699455,-0.0013471845698354,0.0013471845558954,0.0038274187267101,0.0037116945567623,0.7213396708402,0.47920502092112,1368840,32768,0.0057097897921893,0.0057097897921894,0.0057097897920157,20.951010605791,20.922512333987,8.2808084846322e-05,8.2808084846322e-05,8.2808084846322e-05,344681.59774746,0.017277115825602
17712000,0.99965041622896,0.016909441854371,0.0056364806181184,0.0056364806181776,0.0056364806180754,-0.001373297867962,0.0013732978674148,6.3253722936301e-12,-6.8248652697567e-12,-2.9506157430674e-15,-5.0251258976179e-13,-0.0013981102939787,0.0013981102977019,-0.001398110298323,0.0013981102933896,-0.0013981102951799,0.0013981102984576,-0.0013981102989734,0.0013981102937731,-0.0013461305134017,0.0013461305276501,-0.001346130526981,0.001346130513446,-9.399895486704e-13,-4.1890779088983e-13,-9.4191828386651e-15,1.1385499239637e-13,-0.0013732978680686,0.0013732978673018,-0.0013981102961933,0.0013981102962348,-0.0013981102961601,0.0013981102962907,-0.0013981102958553,0.0013981102963408,-0.0013981102962303,0.0013981102963142,-0.0013461305206382,0.0013461305191348,-0.0013461305181615,0.0013461305182218,-0.0013461305209225,0.0013461305175764,-0.0013461305204021,0.0013461305172868,-6.8137953726403e-12,6.8206879561942e-12,-0.0013732978676731,0.0013732978676171,3.8513882250864e-14,-8.9217833279964e-14,-0.0013981102986479,0.0013981102941614,-0.0013981102981665,0.0013981102939988,-0.0013981102943942,0.0013981102988686,-0.0013981102938887,0.0013981102984862,-0.001346130510904,0.0013461305252667,-0.0013461305258359,0.0013461305119229,0.0038218873300666,0.0037103249606789,0.71809245346176,0.44356381066962,1368840,32768,0.0057057181572584,0.0057057181572452,0.0057057181570792,20.514573278711,20.486155701445,7.9316586229685e-05,7.9316586229685e-05,7.9316586229685e-05,348529.50203491,0.017264690223283
17798400,0.9996578427343,0.016909558147767,0.0056365193825836,0.0056365193826428,0.0056365193825405,-0.0013723411783074,0.0013723411777814,6.2673068910177e-12,-6.8458035712824e-12,-5.5470540707175e-14,-5.0863628504004e-13,-0.0013972332684244,0.0013972332725486,-0.001397233272959,0.0013972332679458,-0.0013972332690672,0.0013972332726879,-0.0013972332736739,0.0013972332686689,-0.0013451015690399,0.0013451015824539,-0.00134510158246,0.001345101567947,-6.8119054303767e-13,-2.0763042173902e-13,8.2225546889514e-14,1.857391493259e-13,-0.0013723411783689,0.0013723411778072,-0.0013972332712847,0.0013972332707334,-0.0013972332708322,0.0013972332711122,-0.0013972332712453,0.0013972332712769,-0.0013972332705494,0.0013972332711614,-0.0013451015754839,0.0013451015739772,-0.0013451015736841,0.0013451015723321,-0.0013451015761117,0.0013451015727218,-0.0013451015757002,0.0013451015731394,-6.6979185008345e-12,6.9016709822184e-12,-0.0013723411779654,0.0013723411781336,1.5447060455848e-13,4.6468462773301e-14,-0.0013972332733756,0.0013972332688836,-0.0013972332730553,0.0013972332686708,-0.0013972332689204,0.0013972332734447,-0.0013972332686192,0.0013972332732516,-0.0013451015661276,0.0013451015810301,-0.0013451015801632,0.0013451015667348,0.0038164931016494,0.0037089807892686,0.7148318500522,0.40792260041811,1368840,32768,0.0057017545471282,0.0057017545473091,0.0057017545471496,20.094087005803,20.066711778894,7.595269604642e-05,7.595269604642e-05,7.595269604642e-05,352501.31352261,0.017252594441207
17884800,0.99966492252716,0.016909668494145,0.0056365561647095,0.0056365561647687,0.0056365561646664,-0.001371365432977,0.0013713654329161,6.598696649641e-12,-6.6421814388576e-12,1.3763214837352e-13,-8.9989839107481e-14,-0.0013963363980758,0.001396336402226,-0.0013963364024104,0.0013963363979103,-0.0013963363983748,0.0013963364031087,-0.0013963364032019,0.0013963363986204,-0.0013440537980899,0.0013440538117367,-0.001344053811396,0.0013440537975976,-6.3656046527944e-13,-3.8403085635624e-13,1.250816494297e-13,7.3736482695186e-14,-0.0013713654332066,0.0013713654327028,-0.001396336400186,0.001396336400234,-0.0013963364002262,0.0013963364006403,-0.0013963363997785,0.0013963364002511,-0.0013963364002186,0.0013963364002148,-0.0013440538049877,0.0013440538035938,-0.0013440538046202,0.001344053803042,-0.0013440538063072,0.0013440538025698,-0.0013440538050402,0.0013440538017437,-6.5957507984582e-12,7.131324701749e-12,-0.0013713654326567,0.0013713654332307,2.5748036944557e-13,3.0328526425512e-13,-0.0013963364027352,0.0013963363985641,-0.001396336402379,0.001396336398121,-0.0013963363980446,0.0013963364035605,-0.0013963363977071,0.0013963364028248,-0.0013440537961805,0.0013440538108144,-0.0013440538095007,0.0013440537969379,0.0038110451100645,0.0037076616311412,0.71156146054025,0.37228139016661,1368840,32768,0.0056977119792756,0.0056977119793093,0.0056977119792638,19.66625403007,19.647267856343,7.2530032240561e-05,7.2530032240561e-05,7.2530032240561e-05,356552.51619527,0.017240257816652
17971200,0.99967167827376,0.016909773767927,0.0056365912559701,0.0056365912560294,0.0056365912559271,-0.001370399421697,0.0013703994214845,6.5215584179257e-12,-6.8100495458963e-12,-6.7815928269942e-14,-2.9130751252016e-13,-0.0013954549182646,0.0013954549223357,-0.0013954549224615,0.0013954549177216,-0.0013954549187377,0.0013954549230649,-0.0013954549231464,0.0013954549184617,-0.0013430115405462,0.0013430115527014,-0.0013430115536192,0.0013430115395082,-9.0848151121932e-13,-6.6590118658761e-13,-7.8272285306e-14,-1.3427786849152e-13,-0.0013703994220939,0.0013703994211738,-0.0013954549204459,0.0013954549201425,-0.0013954549206719,0.0013954549208228,-0.001395454920636,0.001395454920511,-0.0013954549208643,0.0013954549202044,-0.0013430115467717,0.0013430115454766,-0.0013430115455078,0.0013430115436767,-0.0013430115459883,0.0013430115437848,-0.001343011546927,0.0013430115438076,-6.8800842887359e-12,6.9382916281887e-12,-0.0013703994215324,0.0013703994216385,1.1105598966869e-13,1.6325927724703e-13,-0.0013954549231461,0.0013954549183506,-0.0013954549229422,0.0013954549184818,-0.0013954549183602,0.0013954549232832,-0.0013954549179447,0.001395454922917,-0.0013430115372153,0.0013430115505038,-0.0013430115501422,0.0013430115367118,0.0038056659398289,0.0037063672402138,0.71145768471918,0.3844551578311,1368840,32768,0.0056937097118452,0.0056937097120237,0.0056937097118233,19.246283341314,19.227823933792,6.9170266730507e-05,6.9170266730507e-05,6.9170266730507e-05,360840.28013332,0.017228044372532
18057600,0.99967812791883,0.016909874598234,0.0056366248660727,0.0056366248661319,0.0056366248660296,-0.0013696355864874,0.0013696355858119,6.2468335164652e-12,-6.9887821445616e-12,-2.4093469843388e-13,-4.9501193654866e-13,-0.0013946769443143,0.0013946769485893,-0.0013946769489839,0.001394676943979,-0.0013946769447418,0.0013946769485111,-0.0013946769497534,0.0013946769442361,-0.0013422622734713,0.0013422622863074,-0.0013422622872153,0.0013422622733882,-5.5338738851279e-13,-2.7776133811119e-13,1.3862661799315e-13,-6.2573382543762e-15,-0.001369635586483,0.001369635585944,-0.0013946769467471,0.0013946769468868,-0.0013946769466079,0.0013946769469644,-0.0013946769464269,0.0013946769471423,-0.0013946769465368,0.0013946769471909,-0.0013422622815381,0.0013422622793625,-0.0013422622784546,0.0013422622774946,-0.001342262279653,0.001342262277261,-0.0013422622796483,0.0013422622776378,-6.7664154671227e-12,6.9553314311638e-12,-0.0013696355861905,0.0013696355862371,-5.6204341819467e-14,7.8609892639387e-14,-0.0013946769496227,0.001394676944896,-0.0013946769492412,0.0013946769447227,-0.0013946769447787,0.001394676949556,-0.0013946769446991,0.0013946769488551,-0.0013422622715076,0.0013422622849344,-0.0013422622848151,0.0013422622709794,0.0038011477304113,0.0037050973073847,0.7138110846658,0.43343334366344,1368840,32768,0.0056905451857594,0.0056905451860239,0.0056905451860253,18.826804117333,18.808380011241,6.5814432938665e-05,6.5814432938665e-05,6.5814432938665e-05,359159.32254721,0.017218387098345
18144000,0.99968428805024,0.016909971112579,0.0056366570375209,0.0056366570375801,0.0056366570374779,-0.0013690240852055,0.0013690240844573,6.1292454616408e-12,-7.1069774749518e-12,-2.752796492192e-13,-4.5898656651075e-13,-0.0013939760587812,0.0013939760626527,-0.0013939760630933,0.001393976056844,-0.0013939760583368,0.001393976062797,-0.0013939760631419,0.0013939760579395,-0.0013417345868987,0.0013417345976424,-0.0013417346006242,0.0013417345863915,-5.0367311313213e-13,-2.8850695101657e-13,1.66105484415e-13,1.5730192982814e-13,-0.0013690240851646,0.0013690240846314,-0.0013939760612883,0.0013939760610297,-0.0013939760604082,0.0013939760614967,-0.0013939760605445,0.0013939760606734,-0.0013939760614148,0.0013939760611619,-0.0013417345928526,0.0013417345917045,-0.0013417345911014,0.0013417345901579,-0.0013417345927728,0.0013417345898302,-0.0013417345931506,0.001341734589078,-6.6649835069759e-12,7.0502094738812e-12,-0.0013690240846447,0.0013690240850156,2.6518666343535e-13,2.6828353941615e-13,-0.001393976062751,0.0013939760589655,-0.0013939760624725,0.0013939760584365,-0.0013939760585254,0.0013939760633987,-0.001393976057935,0.0013939760635338,-0.0013417345849111,0.0013417345970598,-0.0013417345966639,0.0013417345837981,0.003797284087146,0.0037038513977603,0.7153498240558,0.46764876411549,1368840,32768,0.0056880118785332,0.0056880118788091,0.0056880118785282,18.407357746955,18.38893608869,6.2458861975636e-05,6.2458861975636e-05,6.2458861975636e-05,352970.57736786,0.017210655805101
18230400,0.99969017417828,0.016910063373567,0.0056366877911837,0.0056366877912429,0.0056366877911406,-0.001368349212567,0.0013683492121497,6.3480119549452e-12,-6.8471119430772e-12,-1.4216530400637e-13,-3.5157461257809e-13,-0.0013932350493418,0.0013932350536067,-0.0013932350537956,0.0013932350490216,-0.0013932350500968,0.0013932350539884,-0.001393235054468,0.0013932350495826,-0.0013411206906033,0.0013411207039366,-0.0013411207040457,0.0013411206898488,-6.8946190800021e-13,-4.5888856950449e-13,6.5507439969146e-14,-6.6585907022717e-14,-0.0013683492127502,0.0013683492120086,-0.0013932350519475,0.0013932350517632,-0.001393235051999,0.0013932350518427,-0.0013932350518464,0.0013932350519491,-0.0013932350518766,0.0013932350517327,-0.0013411206977752,0.0013411206963246,-0.0013411206959199,0.0013411206950158,-0.0013411206976756,0.0013411206941281,-0.0013411206977381,0.0013411206943679,-6.7870503661525e-12,6.8958098965646e-12,-0.0013683492123131,0.0013683492124177,1.2883077019076e-14,1.3774964478408e-13,-0.0013932350543897,0.0013932350497958,-0.0013932350541358,0.0013932350495198,-0.0013932350496204,0.0013932350545657,-0.0013932350494706,0.0013932350542503,-0.0013411206881438,0.0013411207025227,-0.0013411207020862,0.001341120688638,0.0037931840446214,0.0037026290663305,0.7155931180848,0.47962916559167,1368840,32768,0.005685215962947,0.0056852159630343,0.0056852159629764,17.987913587798,17.969492166139,5.9103308702378e-05,5.9103308702378e-05,5.9103308702378e-05,348544.39629183,0.017202123348895
18316800,0.99969581173317,0.016910151779513,0.0056367172598323,0.0056367172598916,0.0056367172597893,-0.0013676464228642,0.0013676464224226,6.3440538405687e-12,-6.7954534035631e-12,-1.7153081867476e-13,-3.4819136299287e-13,-0.0013925129884245,0.0013925129927146,-0.0013925129932313,0.0013925129878488,-0.0013925129895661,0.0013925129935375,-0.0013925129938279,0.0013925129890353,-0.0013404366500133,0.0013404366638539,-0.0013404366626335,0.0013404366496866,-6.1804497209152e-13,-4.1828592753439e-13,7.8156759423472e-14,7.0227266369924e-15,-0.0013676464230414,0.0013676464223019,-0.0013925129909131,0.0013925129907623,-0.0013925129909014,0.0013925129909937,-0.0013925129911768,0.0013925129909796,-0.0013925129911876,0.0013925129909002,-0.0013404366576642,0.0013404366570958,-0.0013404366549627,0.0013404366559535,-0.0013404366575069,0.0013404366557187,-0.0013404366574515,0.001340436655977,-6.6977826814543e-12,6.9279689729505e-12,-0.0013676464225619,0.0013676464227253,5.8387569241015e-14,1.2366245749093e-13,-0.0013925129934133,0.0013925129887831,-0.0013925129932144,0.0013925129886373,-0.0013925129887297,0.0013925129936987,-0.0013925129885182,0.0013925129934792,-0.001340436648595,0.0013404366636666,-0.0013404366633045,0.0013404366506045,0.0037889982824314,0.0037014299752232,0.71588539862127,0.49160956706785,1368840,32768,0.0056823043135321,0.0056823043136492,0.0056823043135332,17.599344396342,17.582248092657,5.5994755170736e-05,5.5994755170736e-05,5.5994755170736e-05,346729.14331733,0.017193238026591
18403200,0.99970130726171,0.016910237996678,0.0056367459988873,0.0056367459989466,0.0056367459988443,-0.0013674740429597,0.0013674740425981,6.3816316925911e-12,-6.7490640560199e-12,-8.7004636185734e-14,-2.9190555307396e-13,-0.0013923161071988,0.0013923161114324,-0.0013923161116339,0.0013923161068408,-0.0013923161078791,0.0013923161117398,-0.0013923161122895,0.0013923161074492,-0.0013402865859565,0.0013402865993809,-0.0013402865994301,0.0013402865854503,-6.7747050962332e-13,-4.5071287808978e-13,2.2967210132202e-14,-3.1658444620954e-14,-0.0013674740431666,0.0013674740424257,-0.0013923161096494,0.0013923161094817,-0.0013923161096038,0.0013923161096226,-0.0013923161095531,0.0013923161097038,-0.0013923161096065,0.0013923161096,-0.0013402865929936,0.0013402865917762,-0.0013402865912658,0.0013402865901948,-0.0013402865931743,0.001340286590092,-0.0013402865929312,0.001340286589899,-6.7392535321953e-12,6.8775258080722e-12,-0.0013674740427224,0.0013674740428243,2.6016205222789e-14,7.5313787450785e-14,-0.0013923161120721,0.0013923161074976,-0.0013923161118622,0.0013923161072868,-0.0013923161074026,0.0013923161122325,-0.0013923161072301,0.0013923161119192,-0.0013402865835643,0.001340286597817,-0.0013402865975359,0.0013402865839955,0.003787061912286,0.0037002542173044,0.71621768081598,0.50358996854403,1368840,32768,0.0056815901863577,0.0056815901864294,0.005681590186335,17.485303478967,17.48001874196,5.5082427831734e-05,5.5082427831734e-05,5.5082427831734e-05,344794.47851537,0.017191058611397
18489600,0.99970666874747,0.016910322156314,0.0056367740520992,0.0056367740521584,0.0056367740520562,-0.0013673228015988,0.0013673228012317,6.3669631995271e-12,-6.730511858071e-12,-6.4290035983531e-14,-3.1121972774506e-13,-0.0013921450150522,0.0013921450192606,-0.0013921450194611,0.001392145014722,-0.0013921450157861,0.0013921450195475,-0.0013921450201177,0.001392145015277,-0.0013401545343474,0.001340154547642,-0.0013401545478872,0.0013401545337889,-6.9276633646395e-13,-4.2436903581725e-13,3.1882349545518e-14,-2.4852623122364e-14,-0.0013673228017952,0.0013673228010716,-0.0013921450174925,0.0013921450173331,-0.0013921450174621,0.0013921450174981,-0.0013921450173765,0.0013921450175842,-0.0013921450174599,0.0013921450174818,-0.0013401545412678,0.0013401545400747,-0.0013401545396707,0.0013401545385353,-0.0013401545415013,0.0013401545384983,-0.0013401545412805,0.0013401545383631,-6.747354696475e-12,6.836748171448e-12,-0.0013673228013716,0.0013673228014498,1.1613821676308e-14,6.2779258607331e-14,-0.0013921450199092,0.0013921450153539,-0.0013921450197231,0.0013921450151613,-0.0013921450152752,0.001392145020087,-0.001392145015097,0.0013921450197723,-0.0013401545318947,0.001340154546064,-0.0013401545457842,0.001340154532166,0.0037852397298758,0.0036991013823867,0.71658676628188,0.5155703700202,1368840,32768,0.0056809636248012,0.0056809636248761,0.0056809636247825,17.382332555178,17.377789391262,5.425866044142e-05,5.425866044142e-05,5.425866044142e-05,342969.44185713,0.017189146473499
18576000,0.99971190027929,0.016910403725182,0.0056368012417218,0.0056368012417811,0.0056368012416788,-0.0013671727515562,0.0013671727512288,6.4120102939575e-12,-6.7129145721266e-12,-3.3757145212974e-14,-2.9166961910511e-13,-0.0013919756660247,0.0013919756702909,-0.0013919756704103,0.0013919756656694,-0.0013919756667284,0.0013919756705085,-0.0013919756710057,0.0013919756661152,-0.0013400232901003,0.001340023303327,-0.0013400233034989,0.0013400232896622,-6.7902416804247e-13,-3.9940426906198e-13,1.6664255624312e-14,-3.0121668039012e-14,-0.0013671727517491,0.0013671727510444,-0.0013919756684642,0.001391975668332,-0.0013919756682614,0.0013919756684228,-0.0013919756684455,0.0013919756685914,-0.0013919756683375,0.0013919756683628,-0.0013400232972244,0.001340023295923,-0.0013400232956639,0.0013400232942659,-0.0013400232972883,0.0013400232942466,-0.0013400232969408,0.0013400232941038,-6.793750455587e-12,6.8183144404682e-12,-0.0013671727513766,0.0013671727513958,-2.3658747829729e-14,1.8825571950523e-14,-0.0013919756709458,0.0013919756662912,-0.0013919756707166,0.0013919756660793,-0.0013919756662955,0.0013919756710689,-0.0013919756659748,0.0013919756708022,-0.0013400232879122,0.0013400233017905,-0.0013400233016137,0.0013400232881012,0.0037834460163982,0.0036979708866649,0.71177078142889,0.44491818485885,1368840,32768,0.0056803419967824,0.0056803419968,0.0056803419967564,17.280053442526,17.275560040565,5.3440427540205e-05,5.3440427540205e-05,5.3440427540205e-05,341157.26397207,0.017187249402875
18662400,0.99971700559195,0.016910483952609,0.0056368279841974,0.0056368279842567,0.0056368279841544,-0.0013667063009633,0.0013667063005884,6.3705049148595e-12,-6.7539947289207e-12,-4.9994943277036e-14,-3.1744347879021e-13,-0.0013916466414735,0.0013916466456852,-0.0013916466458909,0.0013916466411327,-0.0013916466421932,0.001391646645963,-0.0013916466465511,0.0013916466416813,-0.0013394319745004,0.0013394319877969,-0.0013394319881148,0.0013394319740053,-7.1379504699246e-13,-4.2430515541581e-13,1.5173448226278e-14,-2.4674716792575e-14,-0.0013667063011577,0.0013667063004282,-0.00139164664391,0.0013916466437324,-0.001391646643856,0.0013916466438997,-0.0013916466437924,0.001391646643977,-0.0013916466438508,0.001391646643887,-0.001339431981531,0.0013394319802558,-0.0013394319799146,0.0013394319787137,-0.0013394319818388,0.0013394319785821,-0.0013394319814204,0.0013394319783954,-6.7601707167191e-12,6.8505536908754e-12,-0.0013667063007315,0.0013667063008089,1.8101535245818e-14,5.2814092448082e-14,-0.0013916466463185,0.0013916466417578,-0.0013916466461442,0.0013916466415556,-0.0013916466416728,0.0013916466465062,-0.0013916466415142,0.0013916466461817,-0.0013394319721374,0.0013394319862379,-0.0013394319860392,0.0013394319723303,0.0037803707050019,0.0036968626254904,0.71734309394278,0.54534554436908,1368840,32768,0.0056784092679268,0.0056784092679978,0.0056784092679036,17.177820674711,17.173330689867,5.2622565397683e-05,5.2622565397683e-05,5.2622565397683e-05,348626.047933,0.017181352252236
18748800,0.99972198828442,0.016910562840776,0.0056368542802533,0.0056368542803125,0.0056368542802102,-0.0013668889460129,0.0013668889456329,6.3610422039388e-12,-6.7499641461699e-12,-4.8972268636691e-14,-3.2735058789954e-13,-0.0013916446387327,0.0013916446429441,-0.0013916446431457,0.0013916446383941,-0.0013916446394563,0.0013916446432133,-0.0013916446438138,0.0013916446389376,-0.0013397857960432,0.0013397858093528,-0.0013397858096126,0.0013397857955196,-7.1516135819376e-13,-4.1479862230446e-13,1.3320210723765e-14,-1.7779398028065e-14,-0.0013668889462017,0.0013668889454792,-0.0013916446411793,0.0013916446409953,-0.0013916446411154,0.0013916446411682,-0.0013916446410522,0.0013916446412449,-0.0013916446411068,0.0013916446411632,-0.0013397858030251,0.0013397858017667,-0.0013397858014295,0.0013397858002273,-0.0013397858033418,0.0013397858001048,-0.0013397858029383,0.0013397857999147,-6.7515205692104e-12,6.8456152240951e-12,-0.0013668889457811,0.0013668889458537,1.7232355916297e-14,4.3152181730469e-14,-0.0013916446435753,0.0013916446390217,-0.0013916446434105,0.0013916446388113,-0.0013916446389338,0.0013916446437649,-0.0013916446387842,0.0013916446434309,-0.0013397857936244,0.0013397858077529,-0.0013397858075471,0.0013397857938737,0.0037799924475884,0.0036957761705437,0.7227930092842,0.64489692877595,1368840,32768,0.0056791662707942,0.005679166270867,0.0056791662707714,17.075591010949,17.07110133917,5.1804728087586e-05,5.1804728087586e-05,5.1804728087586e-05,337114.43003543,0.017183661262474
18835200,0.99972685183827,0.01691064002941,0.005636880009798,0.0056368800098572,0.0056368800097549,-0.0013670404174135,0.0013670404170411,6.3817771587355e-12,-6.7529117620046e-12,-6.0793672206809e-14,-3.0394918514927e-13,-0.001391627474913,0.0013916274791533,-0.0013916274793592,0.0013916274745778,-0.0013916274756329,0.0013916274794139,-0.0013916274800226,0.0013916274751287,-0.0013400943398667,0.0013400943531472,-0.0013400943533279,0.001340094339224,-6.9817231837374e-13,-4.3315906140565e-13,2.3191409165428e-14,-1.3099982157478e-14,-0.0013670404176048,0.001367040416887,-0.0013916274773666,0.0013916274771923,-0.0013916274773247,0.0013916274773649,-0.0013916274772723,0.0013916274774595,-0.0013916274773032,0.0013916274773533,-0.0013400943468351,0.0013400943454792,-0.0013400943451818,0.0013400943439642,-0.0013400943470791,0.0013400943439877,-0.0013400943467983,0.0013400943436206,-6.7545369476504e-12,6.8662980628368e-12,-0.0013670404171814,0.0013670404172607,1.8701752203719e-14,4.9874682245046e-14,-0.0013916274797869,0.0013916274752063,-0.0013916274796133,0.0013916274749984,-0.0013916274751465,0.0013916274799698,-0.0013916274749701,0.0013916274796317,-0.0013400943373944,0.0013400943516159,-0.0013400943512823,0.0013400943377346,0.0037795066724146,0.0036947110096412,0.7244239226524,0.6714112125325,1368840,32768,0.0056797941032026,0.0056797941032797,0.0056797941031768,16.973361595505,16.968871988472,5.0986892764041e-05,5.0986892764041e-05,5.0986892764041e-05,326649.83593897,0.017185576155845
18921600,0.99973159962258,0.016910715572789,0.0056369051909243,0.0056369051909835,0.0056369051908812,-0.0013669378775418,0.0013669378771603,6.3613182543292e-12,-6.7613601509709e-12,-5.3822767516104e-14,-3.0815988004484e-13,-0.0013914804941385,0.0013914804983459,-0.0013914804985587,0.0013914804938067,-0.0013914804948923,0.0013914804986221,-0.0013914804992377,0.0013914804943741,-0.0013400329794437,0.0013400329927424,-0.0013400329930111,0.0013400329789166,-6.9201921222926e-13,-4.1564194948257e-13,2.9722356708287e-14,-1.4675992834963e-14,-0.0013669378777243,0.0013669378770135,-0.0013914804965755,0.0013914804963981,-0.0013914804965398,0.0013914804965727,-0.0013914804964439,0.0013914804966582,-0.0013914804965231,0.0013914804965819,-0.0013400329863255,0.0013400329852641,-0.0013400329847655,0.0013400329837155,-0.0013400329867254,0.0013400329835061,-0.0013400329863598,0.0013400329832934,-6.7461207341717e-12,6.8628664911984e-12,-0.001366937877299,0.0013669378773842,1.969431011705e-14,5.8926346899374e-14,-0.0013914804989858,0.0013914804944093,-0.001391480498817,0.0013914804942088,-0.0013914804943484,0.0013914804991764,-0.0013914804941878,0.001391480498853,-0.0013400329769999,0.0013400329911456,-0.0013400329909207,0.0013400329772629,0.0037779980864621,0.0036936667445047,0.726159559933,0.69792549628906,1368840,32768,0.0056793693379116,0.0056793693379855,0.0056793693378725,16.871132183866,16.866642637775,5.0169057470925e-05,5.0169057470925e-05,5.0169057470925e-05,323439.08142087,0.017184279733777
19008000,0.99973623489807,0.016910789798238,0.0056369299327407,0.0056369299328,0.0056369299326977,-0.0013668340191819,0.0013668340188306,6.3765142606899e-12,-6.7621740084611e-12,-7.8849532377381e-14,-2.7929270309375e-13,-0.0013913335006554,0.0013913335048789,-0.0013913335050318,0.0013913335002774,-0.0013913335013402,0.0013913335051887,-0.0013913335056163,0.0013913335009473,-0.0013399689112592,0.0013399689245737,-0.0013399689246926,0.0013399689107555,-6.9770145040549e-13,-4.752049534031e-13,1.1646820668212e-14,-1.7013186141195e-14,-0.0013668340194024,0.0013668340186587,-0.0013913335031012,0.0013913335028272,-0.0013913335029115,0.0013913335029471,-0.0013913335031041,0.0013913335030126,-0.0013913335030862,0.0013913335030522,-0.001339968918158,0.0013399689169257,-0.0013399689166967,0.0013399689153437,-0.0013399689185996,0.0013399689153762,-0.0013399689184183,0.0013399689150117,-6.7753323123663e-12,6.8495214282926e-12,-0.001366834018985,0.0013668340190171,9.6485287734807e-16,2.4149791652207e-14,-0.001391333505491,0.00139133350097,-0.0013913335053491,0.0013913335007022,-0.0013913335007644,0.0013913335056269,-0.0013913335007416,0.0013913335052316,-0.0013399689088885,0.001339968922961,-0.0013399689227918,0.0013399689091264,0.0037765053794718,0.003692643055265,0.73076836555932,0.77244247275956,1368840,32768,0.0056789391072755,0.005678939107376,0.0056789391072541,16.768902601681,16.764413287078,4.9351220813449e-05,4.9351220813449e-05,4.9351220813449e-05,320271.61375772,0.017182966646847
19094400,0.99974077191288,0.016910862561676,0.0056369541872201,0.0056369541872793,0.005636954187177,-0.0013669503507215,0.0013669503503792,6.4073633182723e-12,-6.7631831541029e-12,-5.7684237786132e-14,-2.8161380865616e-13,-0.0013913351681957,0.0013913351724953,-0.0013913351727311,0.001391335167968,-0.0013913351689134,0.0013913351727514,-0.0013913351733109,0.0013913351685543,-0.0013401905626287,0.0013401905760179,-0.0013401905762693,0.0013401905622352,-6.8908983113161e-13,-4.4346033494411e-13,7.9227873760488e-15,-1.7252031785801e-14,-0.0013669503509356,0.0013669503502089,-0.0013913351707198,0.0013913351705021,-0.0013913351706631,0.0013913351707135,-0.0013913351706214,0.001391335170771,-0.001391335170656,0.0013913351706781,-0.0013401905697063,0.0013401905684568,-0.0013401905679803,0.0013401905667388,-0.0013401905699109,0.0013401905668439,-0.001340190569703,0.0013401905664194,-6.7849909584777e-12,6.8718455110131e-12,-0.0013669503505092,0.0013669503505791,3.2465449379277e-14,5.2476632169026e-14,-0.0013913351731209,0.0013913351685364,-0.0013913351729905,0.0013913351683277,-0.0013913351684851,0.0013913351733247,-0.0013913351683405,0.0013913351729548,-0.001340190560104,0.0013401905741496,-0.0013401905739625,0.0013401905602624,0.0037759449727573,0.0036916395201746,0.73185969887441,0.7723372377101,1368840,32768,0.0056794212589015,0.0056794212589923,0.0056794212588759,16.705417313497,16.702590609836,4.8843338507976e-05,4.8843338507976e-05,4.8843338507976e-05,312975.91198268,0.017184437311464
19180800,0.99974529152443,0.016910935903407,0.0056369786344638,0.005636978634523,0.0056369786344207,-0.0013673768032211,0.0013673768029924,6.5136893053805e-12,-6.6589845725922e-12,4.8806861925047e-14,-1.7085207470404e-13,-0.0013917486160737,0.0013917486199163,-0.0013917486196947,0.0013917486151386,-0.0013917486173497,0.0013917486206082,-0.0013917486209545,0.0013917486166491,-0.0013406244765218,0.0013406244902055,-0.0013406244907729,0.0013406244763342,-7.2025923186899e-13,-4.7853267527289e-13,-4.3886335773155e-14,-4.2134330472185e-14,-0.001367376803447,0.0013673768026105,-0.0013917486073996,0.0013917486067382,-0.001391748607366,0.0013917486072233,-0.0013917486074575,0.00139174860723,-0.0013917486070834,0.0013917486071354,-0.0013406244904102,0.001340624489703,-0.0013406244890028,0.0013406244880519,-0.0013406245022903,0.0013406244988022,-0.0013406245017478,0.0013406244982537,-6.8709726259144e-12,6.7866724071106e-12,-0.001367376803009,0.0013673768029763,2.6508337247317e-14,2.0687573891171e-14,-0.0013917486097439,0.0013917486049061,-0.0013917486096777,0.0013917486046301,-0.0013917486050447,0.0013917486097601,-0.0013917486048386,0.0013917486095908,-0.0013406244923096,0.0013406245064624,-0.0013406245066082,0.0013406244921705,0.0037767269260747,0.0036906563676377,0.74043863266594,0.91425068683463,1368840,32768,0.0056811880623255,0.0056811880619958,0.0056811880618463,16.919376380781,16.928491019618,5.0555011046243e-05,5.0555011046243e-05,5.0555011046243e-05,311798.53777072,0.017189828852399
19267200,0.99974979579933,0.016911009125094,0.0056370030416925,0.0056370030417517,0.0056370030416494,-0.0013682233695022,0.0013682233691533,6.4128853848711e-12,-6.7601038364093e-12,-7.4222497259539e-14,-2.8158657419403e-13,-0.0013923953975166,0.0013923954017358,-0.0013923954019486,0.0013923953972,-0.0013923953982369,0.0013923954020463,-0.0013923954025981,0.0013923953977801,-0.0013416534569588,0.0013416534703387,-0.0013416534707226,0.0013416534565003,-6.9563745463562e-13,-4.6655927634613e-13,-1.5355413255607e-14,9.2030717936504e-15,-0.0013682233696964,0.0013682233689614,-0.0013923953993455,0.0013923953991344,-0.0013923953992522,0.0013923953993376,-0.0013923953992359,0.0013923953993781,-0.0013923953992463,0.0013923953993228,-0.0013416534646365,0.001341653463347,-0.0013416534629642,0.0013416534618242,-0.0013416534658571,0.0013416534626977,-0.001341653465634,0.0013416534624847,-6.8056169166042e-12,6.8537243293087e-12,-0.0013682233692894,0.0013682233693222,2.878623824724e-14,-3.9992895891541e-16,-0.0013923954017298,0.0013923953971596,-0.0013923954015899,0.0013923953969335,-0.0013923953970769,0.0013923954019143,-0.0013923953969698,0.0013923954015461,-0.001341653456267,0.0013416534703302,-0.001341653470216,0.0013416534562936,0.0037792562796294,0.0036896930385535,0.7417369034893,0.87574310507145,1368840,32768,0.0056846957628715,0.0056846957628756,0.0056846957627803,17.144526875653,17.154391429399,5.2356215005221e-05,5.2356215005221e-05,5.2356215005221e-05,299714.57514095,0.01720053171428
19353600,0.99975428373373,0.016911082106318,0.0056370273687675,0.0056370273688266,0.0056370273687243,-0.0013685800171685,0.0013685800168474,6.4318732165706e-12,-6.7191066770797e-12,-9.0267595328101e-14,-2.3560327306997e-13,-0.0013927868143857,0.0013927868186166,-0.0013927868188442,0.0013927868140679,-0.0013927868150852,0.0013927868189286,-0.0013927868194708,0.0013927868146237,-0.001341968800851,0.0013419688142969,-0.0013419688145692,0.0013419688006114,-6.7817939973192e-13,-5.1113256172168e-13,-3.9948073731416e-14,7.2453668943089e-15,-0.0013685800174,0.0013685800166478,-0.0013927868167554,0.00139278681659,-0.0013927868166856,0.0013927868167714,-0.001392786816664,0.001392786816822,-0.0013927868167022,0.0013927868167613,-0.0013419688082298,0.0013419688064883,-0.0013419688061976,0.0013419688049825,-0.0013419688084925,0.0013419688054922,-0.0013419688081933,0.0013419688049815,-6.7965683695016e-12,6.8408131649123e-12,-0.0013685800169771,0.0013685800170261,6.4126570389057e-14,1.2234332131904e-14,-0.001392786819205,0.0013927868145867,-0.0013927868190655,0.0013927868143782,-0.0013927868145529,0.0013927868193969,-0.0013927868144124,0.001392786819033,-0.0013419687986635,0.0013419688126053,-0.001341968812651,0.0013419687987791,0.0037798014417986,0.0036887491170619,0.74186859802103,0.83723552330826,1368840,32768,0.0056861731983557,0.0056861731984216,0.0056861731983295,17.370376634686,17.38029183918,5.4163013077486e-05,5.4163013077486e-05,5.4163013077486e-05,300856.91181627,0.017205040867353
19440000,0.99975875413287,0.016911154721287,0.0056370515737572,0.0056370515738163,0.005637051573714,-0.0013689281195886,0.0013689281195903,6.5768819043018e-12,-6.5185757443385e-12,3.8042955460883e-14,-1.0966259105959e-13,-0.001393174950734,0.0013931749555207,-0.0013931749552283,0.0013931749510288,-0.0013931749523192,0.0013931749560387,-0.0013931749557324,0.0013931749521625,-0.0013422737981424,0.0013422738121424,-0.0013422738121209,0.0013422737986598,-8.0497982018376e-13,-6.3858860920339e-13,-1.6127916126762e-13,-1.7213532961913e-13,-0.0013689281201236,0.001368928119107,-0.0013931749537203,0.0013931749533574,-0.0013931749538169,0.0013931749532437,-0.0013931749536462,0.0013931749531399,-0.0013931749541435,0.0013931749534499,-0.0013422738064751,0.0013422738042474,-0.0013422738045211,0.0013422738032472,-0.0013422738059203,0.0013422738029558,-0.0013422738061277,0.0013422738026105,-6.8918101069908e-12,6.6902458234648e-12,-0.0013689281196823,0.0013689281195225,-1.0704952382818e-13,-9.8330731357771e-14,-0.0013931749562812,0.0013931749514041,-0.0013931749559197,0.0013931749513507,-0.0013931749514765,0.0013931749560493,-0.0013931749513684,0.0013931749556097,-0.0013422737970144,0.0013422738106738,-0.0013422738110219,0.0013422737966347,0.0037803270133956,0.0036878241913927,0.74105942705983,0.79872794154507,1368840,32768,0.0056876152558142,0.0056876152559213,0.005687615255868,17.596273212036,17.606192248963,5.5970185696282e-05,5.5970185696282e-05,5.5970185696282e-05,302459.24355961,0.017209441983914
19526400,0.99976320578954,0.016911226881103,0.0056370756270291,0.0056370756270882,0.0056370756269859,-0.0013692682566572,0.0013692682563055,6.3460208393018e-12,-6.7403645570778e-12,-8.1989907029326e-14,-2.7186804755894e-13,-0.0013935617068268,0.0013935617110767,-0.0013935617114806,0.001393561706635,-0.0013935617076265,0.001393561711406,-0.0013935617118253,0.0013935617069246,-0.0013425676472583,0.0013425676612474,-0.0013425676615271,0.0013425676472552,-6.7403843800016e-13,-4.623238175012e-13,-9.9280761158543e-14,-9.8483756094735e-14,-0.0013692682569331,0.0013692682560802,-0.0013935617092313,0.0013935617087829,-0.0013935617094549,0.001393561709361,-0.0013935617089006,0.0013935617091584,-0.0013935617089687,0.0013935617087613,-0.0013425676546693,0.0013425676529103,-0.0013425676536198,0.0013425676519567,-0.0013425676544202,0.0013425676521533,-0.0013425676546624,0.001342567652824,-6.7636216112966e-12,6.8089494324451e-12,-0.001369268256478,0.0013692682564997,-7.9804620847142e-15,-1.454220280451e-14,-0.0013935617119001,0.001393561707172,-0.0013935617112403,0.0013935617071866,-0.0013935617073647,0.0013935617120204,-0.0013935617069879,0.0013935617116133,-0.001342567645839,0.0013425676596513,-0.0013425676597227,0.0013425676455393,0.0037808358963592,0.0036869178676967,0.73953856627434,0.76022035978189,1368840,32768,0.0056890243298454,0.0056890243299503,0.0056890243298764,17.822172993375,17.832092658743,5.7777383947001e-05,5.7777383947001e-05,5.7777383947001e-05,304483.56748771,0.017213742397938
19612800,0.99976763749682,0.016911298518461,0.0056370995061483,0.0056370995062074,0.0056370995061051,-0.001369601245811,0.0013696012455063,6.3734049439127e-12,-6.7300334020992e-12,-4.5741779090635e-14,-2.8001791623311e-13,-0.0013939477289955,0.0013939477331003,-0.0013939477332136,0.001393947728633,-0.0013939477297401,0.0013939477337037,-0.0013939477337693,0.0013939477294412,-0.001342850356207,0.0013428503705338,-0.0013428503710074,0.0013428503570656,-7.3767449396233e-13,-4.8053049659377e-13,-1.1368902687827e-13,-1.0284412288852e-13,-0.0013696012461577,0.0013696012451969,-0.0013939477314838,0.0013939477310534,-0.0013939477315341,0.0013939477310278,-0.0013939477316329,0.001393947731201,-0.0013939477314736,0.0013939477308769,-0.0013428503640446,0.0013428503632908,-0.0013428503621409,0.0013428503618202,-0.0013428503647862,0.0013428503619651,-0.0013428503635818,0.0013428503617313,-6.8364752680203e-12,6.7525400674772e-12,-0.0013696012456663,0.0013696012456822,2.5776977236922e-14,9.7739661179266e-15,-0.0013939477338496,0.0013939477292014,-0.0013939477335604,0.0013939477292153,-0.0013939477292823,0.001393947734045,-0.0013939477291246,0.0013939477338697,-0.0013428503556166,0.0013428503693729,-0.0013428503702974,0.0013428503558526,0.0037813317391888,0.0036860297649738,0.73751701576308,0.72171277801869,1368840,32768,0.0056904038044835,0.0056904038045608,0.0056904038045482,18.048073052313,18.057993068524,5.9584584418504e-05,5.9584584418504e-05,5.9584584418504e-05,306866.68948514,0.017217952454556
19699200,0.99977204805002,0.016911369582202,0.005637123194062,0.0056371231941211,0.0056371231940189,-0.0013699279098505,0.0013699279094878,6.4024809968357e-12,-6.7346697310508e-12,-3.701886909896e-14,-3.6731671990281e-13,-0.0013943307378638,0.0013943307422084,-0.0013943307421396,0.0013943307376994,-0.0013943307387254,0.0013943307425561,-0.0013943307430308,0.0013943307380593,-0.0013431244453488,0.0013431244589158,-0.0013431244591277,0.0013431244449332,-7.1932590744023e-13,-3.6530201674473e-13,1.3138686857429e-14,7.7828445923812e-14,-0.0013699279100369,0.0013699279093365,-0.0013943307404133,0.0013943307402373,-0.0013943307405203,0.0013943307404741,-0.0013943307403999,0.001394330740165,-0.0013943307405004,0.0013943307404287,-0.0013431244522193,0.0013431244513347,-0.0013431244510854,0.0013431244499622,-0.0013431244528651,0.0013431244493649,-0.0013431244521957,0.0013431244490107,-6.8649929262372e-12,6.7576557935482e-12,-0.0013699279097049,0.0013699279096496,4.0906191520399e-14,-2.7986321507677e-14,-0.0013943307426938,0.0013943307380349,-0.0013943307425721,0.0013943307380809,-0.0013943307382946,0.0013943307427232,-0.0013943307380419,0.0013943307427849,-0.0013431244433715,0.0013431244572192,-0.0013431244572491,0.0013431244433576,0.0037818180089451,0.0036851595133867,0.73515212266408,0.68320519625551,1368840,32768,0.0056917570815731,0.0056917570816459,0.0056917570816067,18.273973193962,18.283893478306,6.1391785551697e-05,6.1391785551697e-05,6.1391785551697e-05,309513.35796898,0.017222082546251
19785600,0.99977643624777,0.016911440031545,0.0056371466771763,0.0056371466772355,0.0056371466771332,-0.0013702488794911,0.0013702488790794,6.4330855912981e-12,-6.8061818405226e-12,-4.3627490739517e-15,-4.1299691263958e-13,-0.001394711629175,0.0013947116333988,-0.0013947116337253,0.0013947116288264,-0.0013947116298404,0.0013947116337135,-0.001394711633993,0.0013947116291524,-0.0013433901677855,0.0013433901808691,-0.0013433901813882,0.0013433901676911,-7.0355109523227e-13,-2.7361575887344e-13,8.9394269066443e-14,1.1306166369084e-13,-0.0013702488795801,0.0013702488790311,-0.001394711631164,0.0013947116314742,-0.0013947116313869,0.0013947116315485,-0.0013947116316125,0.0013947116316139,-0.0013947116312105,0.0013947116316626,-0.0013433901747961,0.0013433901735398,-0.0013433901725017,0.0013433901722317,-0.0013433901759965,0.0013433901718156,-0.0013433901746809,0.0013433901717612,-6.8939105722348e-12,6.8303950420024e-12,-0.0013702488793035,0.0013702488793024,2.4170438080296e-15,-2.5708596972951e-14,-0.0013947116340181,0.0013947116294183,-0.0013947116339305,0.0013947116291312,-0.0013947116292131,0.001394711634068,-0.0013947116290714,0.0013947116340641,-0.0013433901658979,0.0013433901791837,-0.0013433901796986,0.0013433901656908,0.0037822974559736,0.0036843067524886,0.7325435449597,0.64469761449232,1368840,32768,0.0056930867710169,0.0056930867711012,0.0056930867710904,18.499873391801,18.509793888087,6.3198987134405e-05,6.3198987134405e-05,6.3198987134405e-05,312390.92380475,0.017226140651886
19872000,0.99978079180343,0.01691150956447,0.0056371698548179,0.005637169854877,0.0056371698547747,-0.0013704997024558,0.0013704997018403,6.2772799981108e-12,-6.9296028936235e-12,-9.3379382618077e-14,-5.3854054795593e-13,-0.0013950261810073,0.0013950261850707,-0.0013950261854966,0.0013950261803174,-0.0013950261817715,0.001395026185347,-0.001395026186178,0.0013950261811377,-0.0013435828017013,0.0013435828148673,-0.0013435828153351,0.0013435828010603,-8.449746277816e-13,-3.7850655453163e-13,-3.4716645312669e-14,-1.9319527448757e-14,-0.0013704997025809,0.0013704997017833,-0.0013950261833825,0.0013950261831293,-0.0013950261834152,0.0013950261833678,-0.0013950261831675,0.0013950261833272,-0.0013950261831568,0.0013950261832669,-0.0013435828087267,0.0013435828073139,-0.0013435828067921,0.0013435828058945,-0.0013435828091273,0.0013435828054803,-0.0013435828086752,0.001343582805332,-6.8250240296125e-12,6.86843585047e-12,-0.0013704997021513,0.0013704997021757,4.8511341541227e-14,2.8493982469571e-14,-0.0013950261857722,0.0013950261811103,-0.0013950261857775,0.0013950261808729,-0.0013950261811244,0.0013950261859994,-0.0013950261810012,0.0013950261856156,-0.0013435827992242,0.0013435828129754,-0.0013435828133327,0.0013435827994523,0.0037824996179605,0.0036834710492938,0.72847024211987,0.58613753799082,1368840,32768,0.0056941258424111,0.0056941258425523,0.0056941258424753,18.692233735899,18.70071510933,6.473786988719e-05,6.473786988719e-05,6.473786988719e-05,315486.86941672,0.017229311892292
19958400,0.9997850606321,0.016911578313991,0.0056371927713251,0.0056371927713842,0.0056371927712819,-0.0013702924671152,0.0013702924666772,6.3709170787388e-12,-6.8231634982152e-12,2.3011002912009e-14,-4.481041342557e-13,-0.0013949233978684,0.0013949234020916,-0.0013949234022939,0.001394923397537,-0.0013949233986566,0.00139492340232,-0.0013949234030455,0.0013949233980071,-0.001343281483758,0.0013432814970625,-0.0013432814974211,0.0013432814830268,-7.6935005570743e-13,-2.7636414550035e-13,2.7945175705829e-14,2.9662799704183e-14,-0.0013702924672374,0.0013702924665908,-0.0013949234002872,0.0013949234000777,-0.0013949234002217,0.0013949234002777,-0.001394923400093,0.001394923400408,-0.0013949234001726,0.0013949234003575,-0.0013432814907468,0.0013432814896287,-0.0013432814890278,0.001343281488045,-0.0013432814910909,0.0013432814878645,-0.0013432814905509,0.0013432814877744,-6.7925979025614e-12,6.8877313198302e-12,-0.0013702924668606,0.0013702924669208,3.9403237434614e-14,3.2770440062021e-14,-0.0013949234027093,0.0013949233981156,-0.001394923402545,0.0013949233979057,-0.0013949233980549,0.0013949234028996,-0.0013949233979031,0.0013949234025576,-0.0013432814813351,0.001343281495639,-0.0013432814953864,0.0013432814815876,0.0037808019742468,0.0036826520434646,0.73489963064629,0.70684412759495,1368840,32768,0.0056932671199519,0.0056932671200261,0.0056932671199293,18.685118868003,18.685007527098,6.468095094402e-05,6.468095094402e-05,6.468095094402e-05,320819.89593501,0.017226691874375
20044800,0.99978924239991,0.016911645859427,0.0056372152864703,0.0056372152865294,0.0056372152864272,-0.0013706495161283,0.0013706495156874,6.3727474934091e-12,-6.824316874745e-12,1.7484936435429e-14,-4.5236176889377e-13,-0.0013950958080763,0.0013950958123139,-0.0013950958125159,0.001395095807741,-0.0013950958088668,0.0013950958125243,-0.0013950958132449,0.0013950958082214,-0.0013438095271091,0.0013438095403796,-0.0013438095407862,0.0013438095264541,-7.756938619085e-13,-2.8394679620852e-13,3.2588827963087e-14,3.6148572156522e-14,-0.001370649516251,0.0013706495155996,-0.0013950958105014,0.0013950958103238,-0.0013950958104418,0.0013950958105108,-0.0013950958103158,0.0013950958106365,-0.0013950958103765,0.0013950958105663,-0.0013438095340517,0.0013438095329019,-0.0013438095323813,0.0013438095313748,-0.0013438095344971,0.001343809531159,-0.0013438095338738,0.0013438095311468,-6.8006547152548e-12,6.8827557071259e-12,-0.0013706495158706,0.0013706495159333,3.5241276344375e-14,2.6718036723495e-14,-0.0013950958129246,0.0013950958083359,-0.0013950958127692,0.0013950958081199,-0.0013950958082587,0.00139509581311,-0.0013950958081151,0.0013950958127747,-0.0013438095246957,0.001343809538899,-0.0013438095387027,0.0013438095248994,0.0037814402651044,0.0036818492956612,0.73711171548819,0.74287786107421,1368840,32768,0.0056947467021914,0.0056947467022636,0.0056947467021669,18.669950850476,18.669299944867,6.4559606803803e-05,6.4559606803803e-05,6.4559606803803e-05,309474.83906356,0.017231205951029
20131200,0.99979333882966,0.016911712254066,0.0056372374180166,0.0056372374180757,0.0056372374179735,-0.001370733472272,0.0013707334718386,6.3780335083955e-12,-6.8098319643079e-12,1.6413028005025e-14,-4.463207181496e-13,-0.0013951259674451,0.0013951259716849,-0.0013951259718843,0.0013951259671108,-0.0013951259682316,0.0013951259718858,-0.001395125972613,0.0013951259675976,-0.0013439423716096,0.0013439423849123,-0.0013439423852487,0.0013439423710118,-7.7085174512597e-13,-2.8619149234048e-13,3.4286276107212e-14,3.3620325863299e-14,-0.0013707334723989,0.0013707334717456,-0.0013951259698765,0.0013951259696991,-0.0013951259698153,0.0013951259698773,-0.0013951259696975,0.0013951259700149,-0.0013951259697393,0.0013951259699379,-0.0013439423785479,0.0013439423773777,-0.0013439423769419,0.0013439423759004,-0.0013439423790049,0.001343942375628,-0.0013439423783878,0.0013439423756499,-6.795859920556e-12,6.8783813995815e-12,-0.0013707334720196,0.0013707334720789,2.5654539800831e-14,2.1362376805817e-14,-0.0013951259722969,0.0013951259677096,-0.0013951259721364,0.0013951259674932,-0.0013951259676308,0.0013951259724785,-0.0013951259674872,0.0013951259721451,-0.0013439423691704,0.0013439423833424,-0.0013439423831885,0.0013439423694307,0.0037809732446603,0.0036810625005762,0.73952435825137,0.77624390056033,1368840,32768,0.0056950946195588,0.0056950946196292,0.005695094619534,18.654279459845,18.653592362635,6.4434235678758e-05,6.4434235678758e-05,6.4434235678758e-05,305790.81689962,0.017232267380071
20217600,0.99979735173089,0.01691177754224,0.0056372591807414,0.0056372591808005,0.0056372591806982,-0.0013708087616631,0.0013708087612371,6.3762553274236e-12,-6.8079493747609e-12,2.2610426914037e-14,-4.4091547151147e-13,-0.0013951519305808,0.0013951519348584,-0.0013951519350377,0.0013951519302685,-0.0013951519314227,0.0013951519351026,-0.0013951519357923,0.0013951519307944,-0.0013440618949805,0.0013440619082134,-0.0013440619086451,0.0013440618943709,-7.605019730691e-13,-2.7507383197737e-13,4.5166326082094e-14,4.2185211270753e-14,-0.0013708087617868,0.0013708087611495,-0.001395151933039,0.0013951519328807,-0.0013951519329831,0.001395151933027,-0.0013951519328792,0.0013951519332116,-0.0013951519329352,0.0013951519330687,-0.0013440619019484,0.0013440619007824,-0.0013440619002934,0.0013440618992423,-0.0013440619023853,0.0013440618989791,-0.0013440619017269,0.0013440618989636,-6.8008337097867e-12,6.8698696007876e-12,-0.0013708087614142,0.0013708087614732,3.1924142386422e-14,2.9939555955352e-14,-0.0013951519354798,0.0013951519308793,-0.0013951519353106,0.001395151930654,-0.0013951519307928,0.001395151935663,-0.0013951519306636,0.0013951519352968,-0.00134406189257,0.001344061906725,-0.0013440619065384,0.0013440618927595,0.003780487538647,0.0036802913551937,0.74229524777013,0.80868178139082,1368840,32768,0.005695406615269,0.0056954066153436,0.0056954066152425,18.638574313188,18.637884780403,6.43085945055e-05,6.43085945055e-05,6.43085945055e-05,302316.49312197,0.017233219243317
20304000,0.99980128288126,0.016911841779174,0.0056372805930528,0.0056372805931119,0.0056372805930096,-0.001370880991772,0.0013708809913424,6.3738777529981e-12,-6.8077916736962e-12,2.2973004072848e-14,-4.3331299787947e-13,-0.0013951750276134,0.0013951750318316,-0.0013951750319932,0.0013951750272783,-0.001395175028407,0.0013951750320584,-0.0013951750327364,0.0013951750277425,-0.0013441771608433,0.0013441771740661,-0.0013441771744474,0.0013441771601613,-7.7382356610358e-13,-2.9548503195863e-13,3.3303247314537e-14,1.8342233774996e-14,-0.0013708809919087,0.001370880991239,-0.00139517503003,0.0013951750298473,-0.0013951750299793,0.0013951750300129,-0.0013951750298617,0.0013951750301455,-0.0013951750299092,0.0013951750300767,-0.0013441771677586,0.0013441771665962,-0.0013441771660272,0.0013441771650519,-0.0013441771681623,0.0013441771648416,-0.0013441771675556,0.0013441771648083,-6.7839825186966e-12,6.8840061689251e-12,-0.0013708809915124,0.0013708809915918,3.222933894523e-14,4.2182711347124e-14,-0.0013951750324626,0.0013951750278858,-0.0013951750322701,0.0013951750276605,-0.001395175027802,0.0013951750326632,-0.0013951750276405,0.0013951750322885,-0.0013441771583816,0.0013441771726122,-0.0013441771723443,0.0013441771586108,0.0037800059483814,0.0036795355656925,0.74549157312172,0.8411196622213,1368840,32768,0.0056957059236335,0.0056957059237023,0.0056957059236125,18.622866857145,18.622177198171,6.4182934857158e-05,6.4182934857158e-05,6.4182934857158e-05,298864.75870491,0.01723413243021
20390400,0.99980513401966,0.016911904739969,0.0056373015799843,0.0056373015800435,0.0056373015799412,-0.0013709527707179,0.0013709527702812,6.3652778392489e-12,-6.8056965612299e-12,1.8005508767596e-14,-4.3688277117829e-13,-0.0013951980593841,0.0013951980635794,-0.0013951980637346,0.0013951980590364,-0.0013951980600545,0.001395198063826,-0.0013951980644039,0.0013951980594854,-0.0013442908501946,0.0013442908635553,-0.0013442908639681,0.0013442908496455,-7.6624312121038e-13,-2.8937092462277e-13,4.2846867528196e-14,3.0802794289896e-14,-0.0013709527708469,0.0013709527702089,-0.0013951980617468,0.0013951980616338,-0.0013951980616495,0.0013951980618343,-0.0013951980615365,0.0013951980618765,-0.0013951980616459,0.0013951980618052,-0.0013442908573279,0.0013442908561266,-0.0013442908555872,0.0013442908546334,-0.0013442908577032,0.0013442908544087,-0.0013442908570026,0.0013442908544148,-6.7809846102807e-12,6.8764166654851e-12,-0.0013709527704612,0.0013709527705317,2.6891090260357e-14,3.3910669934664e-14,-0.0013951980641521,0.0013951980596259,-0.0013951980640087,0.0013951980594503,-0.0013951980595841,0.0013951980643829,-0.0013951980593949,0.001395198064035,-0.0013442908478113,0.0013442908620951,-0.0013442908618453,0.0013442908479912,0.0037795389314292,0.003678794769803,0.74582825429841,0.82126598431431,1368840,32768,0.0056960033533649,0.0056960033534823,0.0056960033533521,18.607159292901,18.60646961594,6.4057274343208e-05,6.4057274343208e-05,6.4057274343208e-05,295380.64673984,0.017235039919422
20476800,0.99980890684654,0.016911965880223,0.0056373219600691,0.0056373219601282,0.0056373219600259,-0.0013708802503335,0.0013708802498742,6.3352077578693e-12,-6.8096335586044e-12,1.218474541145e-14,-4.6985917553648e-13,-0.0013951443937196,0.0013951443979113,-0.0013951443981392,0.0013951443933686,-0.0013951443945245,0.0013951443981457,-0.0013951443988866,0.0013951443938887,-0.0013441973865075,0.0013441973995555,-0.0013441973999259,0.0013441973858381,-7.5599625777444e-13,-2.5216135546721e-13,5.3127524049432e-14,3.2352070489983e-14,-0.0013708802504303,0.0013708802498113,-0.0013951443961605,0.0013951443959672,-0.0013951443960839,0.0013951443961529,-0.0013951443959324,0.0013951443962841,-0.0013951443960346,0.001395144396254,-0.0013441973933318,0.0013441973922692,-0.0013441973917468,0.0013441973905214,-0.0013441973937389,0.0013441973904229,-0.0013441973931126,0.0013441973903559,-6.750886823865e-12,6.8804858352924e-12,-0.0013708802500512,0.0013708802501467,4.9673247222277e-14,6.5311504778361e-14,-0.0013951443985665,0.0013951443940242,-0.0013951443983801,0.0013951443937739,-0.0013951443938945,0.0013951443987596,-0.0013951443937412,0.0013951443984093,-0.0013441973839362,0.0013441973980019,-0.0013441973977792,0.0013441973842266,0.0037784945276351,0.0036780685234946,0.73927056497211,0.7051435878032,1368840,32768,0.0056957028227957,0.0056957028228661,0.0056957028227756,18.591451793241,18.590762033707,6.3931614345928e-05,6.3931614345928e-05,6.3931614345928e-05,295886.36614014,0.017234123058016
20563200,0.99981260302472,0.016912025010993,0.0056373416703257,0.0056373416703849,0.0056373416702826,-0.0013705196938992,0.0013705196934512,6.3355149249561e-12,-6.799551454841e-12,2.0639722411824e-14,-4.6025046907586e-13,-0.0013949476306359,0.0013949476348489,-0.0013949476350546,0.0013949476303027,-0.0013949476314334,0.0013949476350534,-0.0013949476357848,0.0013949476307742,-0.0013436857897004,0.0013436858028992,-0.0013436858033452,0.0013436857890346,-7.8052933183528e-13,-2.7776622031499e-13,3.0507656247337e-14,4.1132125794732e-14,-0.001370519694015,0.0013705196933692,-0.0013949476330516,0.0013949476328668,-0.0013949476329839,0.0013949476330548,-0.0013949476328657,0.0013949476331841,-0.0013949476329059,0.0013949476331132,-0.0013436857966093,0.0013436857954347,-0.0013436857949456,0.0013436857939311,-0.0013436857970821,0.0013436857936771,-0.0013436857964229,0.0013436857937052,-6.7697141898784e-12,6.8517942118018e-12,-0.001370519693639,0.0013705196936998,3.6450827628707e-14,2.0965771274785e-14,-0.00139494763546,0.0013949476308916,-0.0013949476353048,0.0013949476306797,-0.0013949476308131,0.0013949476356424,-0.0013949476306786,0.0013949476353057,-0.0013436857872363,0.001343685801375,-0.0013436858011855,0.0013436857874128,0.0037762776793446,0.0036773564816939,0.72982041068736,0.5627439105104,1368840,32768,0.0056942087527042,0.0056942087527743,0.0056942087526804,18.575744252198,18.575054451476,6.3805954017585e-05,6.3805954017585e-05,6.3805954017585e-05,304763.56607264,0.017229564618914
20649600,0.99981621058413,0.016912081901276,0.0056373606337533,0.0056373606338125,0.0056373606337102,-0.00136991477548,0.0013699147750274,6.338411718814e-12,-6.7881568029398e-12,2.6587070136199e-14,-4.7192311248462e-13,-0.0013945740139225,0.0013945740181266,-0.0013945740183324,0.001394574013571,-0.0013945740147246,0.001394574018332,-0.0013945740190819,0.0013945740140457,-0.0013428704635759,0.0013428704768266,-0.0013428704772871,0.0013428704631003,-7.7802576125881e-13,-2.5754589685552e-13,2.9399954792738e-14,7.242125816851e-14,-0.0013699147755872,0.0013699147749533,-0.0013945740163523,0.0013945740161511,-0.001394574016272,0.0013945740163478,-0.0013945740161566,0.0013945740164702,-0.0013945740161856,0.0013945740164108,-0.0013428704705025,0.0013428704694137,-0.0013428704689193,0.0013428704679774,-0.0013428704709635,0.0013428704676869,-0.0013428704703567,0.001342870467739,-6.7760788777945e-12,6.8369295188492e-12,-0.0013699147752272,0.0013699147752695,3.3301806182092e-14,-1.4597671698209e-14,-0.0013945740187486,0.0013945740141856,-0.001394574018609,0.0013945740139611,-0.0013945740141013,0.0013945740189393,-0.0013945740139781,0.0013945740185884,-0.0013428704612995,0.0013428704752686,-0.0013428704753121,0.0013428704614428,0.0037730555753602,0.0036766582796978,0.71951855234147,0.4203442332176,1368840,32768,0.0056917022282069,0.0056917022282755,0.0056917022281847,18.499603683486,18.496320492476,6.3196829467886e-05,6.3196829467886e-05,6.3196829467886e-05,317658.20938461,0.017221916725854
20736000,0.99981966557435,0.016912136920937,0.0056373789736402,0.0056373789736993,0.005637378973597,-0.0013686564736284,0.0013686564731344,6.2738193979474e-12,-6.8207038674729e-12,3.211413658223e-14,-5.1089721597016e-13,-0.0013935852372892,0.0013935852413802,-0.0013935852415868,0.0013935852369325,-0.00139358523786,0.0013935852414269,-0.0013935852420799,0.0013935852371421,-0.0013413684905189,0.001341368503483,-0.0013413685046591,0.0013413684902785,-7.5072485998849e-13,-1.8529598639363e-13,1.4572919513194e-13,-7.3027474943121e-15,-0.0013686564737029,0.0013686564731042,-0.0013935852394552,0.0013935852395583,-0.0013935852392512,0.0013935852397249,-0.0013935852391443,0.0013935852397607,-0.0013935852393031,0.0013935852397714,-0.0013413684979319,0.0013413684965341,-0.0013413684953506,0.0013413684943623,-0.0013413684985029,0.001341368495241,-0.0013413684975605,0.0013413684945799,-6.8227020417241e-12,6.7578874335306e-12,-0.0013686564733738,0.0013686564733787,-5.9551092519707e-14,8.7433976010873e-14,-0.001393585242075,0.0013935852373522,-0.0013935852420131,0.0013935852370984,-0.0013935852374072,0.0013935852421031,-0.0013935852372956,0.0013935852419761,-0.0013413684887381,0.0013413685024544,-0.0013413685025428,0.001341368488238,0.0037671068682238,0.0036759736632797,0.72668639784726,0.55131483595068,1368840,32768,0.0056864886897196,0.0056864886898112,0.0056864886896982,18.11831280236,18.101876023838,6.0146502418879e-05,6.0146502418879e-05,6.0146502418879e-05,332828.58238838,0.017206008150656
20822400,0.99982297317136,0.016912190130371,0.0056373967101184,0.0056373967101776,0.0056373967100753,-0.0013683612215627,0.0013683612211186,6.2836042754967e-12,-6.7914472318312e-12,4.2009775453726e-14,-4.7823591963269e-13,-0.0013930666194473,0.0013930666236736,-0.001393066623782,0.0013930666190742,-0.0013930666201119,0.0013930666239721,-0.0013930666246749,0.001393066619577,-0.0013412798337171,0.001341279846586,-0.0013412798475333,0.0013412798331262,-7.4973936068305e-13,-2.0798341095544e-13,1.0208541077254e-13,6.6644522879102e-14,-0.0013683612216644,0.0013683612210539,-0.0013930666218406,0.0013930666216258,-0.0013930666217415,0.0013930666218702,-0.0013930666215944,0.0013930666220877,-0.0013930666217094,0.0013930666218697,-0.0013412798407146,0.0013412798395909,-0.0013412798384731,0.0013412798378561,-0.0013412798408119,0.0013412798378749,-0.0013412798403684,0.0013412798375802,-6.7218103003682e-12,6.8390279547434e-12,-0.0013683612212777,0.0013683612213849,7.0037683926243e-14,1.0004573778903e-13,-0.0013930666242354,0.001393066619608,-0.0013930666240443,0.0013930666194611,-0.0013930666195566,0.001393066624338,-0.001393066619486,0.0013930666241363,-0.001341279831573,0.0013412798453956,-0.0013412798451974,0.0013412798313337,0.0037651386197436,0.0036753023737157,0.73424404756259,0.69238088739835,1368840,32768,0.0056852658198312,0.0056852658199079,0.0056852658197924,17.724693822843,17.7074315552,5.6997550582743e-05,5.6997550582743e-05,5.6997550582743e-05,318997.03270227,0.017202275131598
20908800,0.99982614073722,0.016912240845673,0.0056374136152191,0.0056374136152783,0.005637413615176,-0.0013680520245622,0.0013680520240731,6.3364740133037e-12,-6.7860005158717e-12,1.031688482625e-13,-5.4986231973063e-13,-0.0013925415039685,0.0013925415084608,-0.0013925415084465,0.0013925415034848,-0.0013925415047185,0.0013925415083281,-0.0013925415091825,0.0013925415038159,-0.0013411718289137,0.0013411718429335,-0.0013411718431809,0.0013411718288937,-9.5991294002447e-13,-2.8561586286674e-13,-1.2948457374692e-14,-5.7486890873768e-14,-0.0013680520247057,0.0013680520238884,-0.0013925415064352,0.0013925415062028,-0.0013925415062965,0.0013925415060971,-0.001392541506195,0.0013925415063959,-0.0013925415061214,0.0013925415065109,-0.0013411718361241,0.0013411718345395,-0.001341171834643,0.0013411718330238,-0.0013411718368619,0.0013411718332269,-0.0013411718364456,0.0013411718327268,-6.8190287421762e-12,6.7897587540013e-12,-0.0013680520242467,0.0013680520242324,-7.5854947389308e-14,-3.485037652139e-14,-0.0013925415088289,0.0013925415040483,-0.0013925415086866,0.0013925415038479,-0.0013925415037049,0.0013925415089425,-0.001392541503559,0.0013925415082557,-0.0013411718267578,0.0013411718407431,-0.0013411718408914,0.001341171826507,0.0037631247209403,0.0036746439688652,0.73062461051257,0.63314123000178,1368840,32768,0.0056839851796144,0.0056839851795291,0.0056839851792909,17.330305076859,17.312987086562,5.3842440614868e-05,5.3842440614868e-05,5.3842440614868e-05,305767.23845348,0.017198365807773
20995200,0.99982917533726,0.016912289265888,0.0056374297552906,0.0056374297553497,0.0056374297552475,-0.001367109085731,0.0013671090852177,6.2420751912406e-12,-6.9912962442282e-12,7.6355314456379e-15,-5.7204928899277e-13,-0.0013916828346885,0.0013916828385451,-0.0013916828393111,0.0013916828344247,-0.0013916828355158,0.0013916828394599,-0.0013916828403907,0.0013916828344562,-0.0013401501013325,0.0013401501142136,-0.0013401501157545,0.001340150100132,-6.8654335010133e-13,-8.8463885724309e-14,2.9865378809648e-13,2.1592005084948e-13,-0.001367109085611,0.0013671090854043,-0.0013916828369083,0.0013916828378236,-0.0013916828373374,0.0013916828379784,-0.0013916828368598,0.0013916828383847,-0.0013916828368982,0.0013916828377365,-0.0013401501072816,0.0013401501070273,-0.001340150105703,0.0013401501051811,-0.00134015010891,0.0013401501044969,-0.001340150107417,0.0013401501040119,-6.9252966722345e-12,6.7992436407151e-12,-0.0013671090856179,0.0013671090854767,-6.7674903166397e-14,1.262693778513e-14,-0.0013916828399783,0.0013916828350915,-0.0013916828397528,0.0013916828343399,-0.0013916828353922,0.001391682840583,-0.0013916828350419,0.0013916828391537,-0.0013401500980554,0.0013401501119193,-0.001340150111008,0.0013401500965304,0.0037585184118734,0.0036739982406922,0.72798879652601,0.59471585585634,1368840,32768,0.0056800783781735,0.0056800783783115,0.005680078378476,16.935864496404,16.918542617924,5.0686915971231e-05,5.0686915971231e-05,5.0686915971231e-05,310431.66340423,0.017186444413999
21081600,0.99983208362232,0.016912335678364,0.0056374452261159,0.005637445226175,0.0056374452260727,-0.0013662240280214,0.0013662240274976,6.3852426411027e-12,-6.9130227530766e-12,4.8793744678711e-14,-6.4672836053958e-13,-0.0013908634358001,0.0013908634401105,-0.0013908634402783,0.0013908634354684,-0.0013908634366301,0.0013908634401536,-0.0013908634410454,0.0013908634358477,-0.0013392055970976,0.001339205609712,-0.0013392056106688,0.0013392055959677,-9.050228521731e-13,-1.8702105134114e-13,5.0207760305034e-14,3.0077875259204e-14,-0.0013662240280753,0.0013662240274705,-0.0013908634382692,0.0013908634381129,-0.0013908634382275,0.0013908634382875,-0.0013908634379445,0.0013908634385114,-0.0013908634380574,0.0013908634383935,-0.0013392056038481,0.0013392056024318,-0.0013392056021754,0.0013392056012493,-0.001339205604193,0.0013392056000823,-0.0013392056036405,0.0013392056006737,-6.8274885425586e-12,6.955263227365e-12,-0.0013662240277013,0.0013662240278083,4.130217942324e-14,5.7443774543883e-14,-0.0013908634407399,0.0013908634360792,-0.001390863440518,0.0013908634359663,-0.0013908634360627,0.0013908634409191,-0.0013908634359007,0.0013908634406378,-0.0013392055941512,0.0013392056082689,-0.0013392056075919,0.0013392055940235,0.0037541628062752,0.0036733650085306,0.7281611858499,0.60389552379455,1368840,32768,0.005676411428985,0.0056764114290404,0.0056764114289655,16.541420217284,16.524098149287,4.7531361738268e-05,4.7531361738268e-05,4.7531361738268e-05,313621.84574742,0.017175254887939
21168000,0.99983487184851,0.016912380186414,0.0056374600621328,0.0056374600621919,0.0056374600620896,-0.0013654924753197,0.0013654924747984,6.3825003131142e-12,-6.9129809308249e-12,7.5790743468341e-14,-6.070143973033e-13,-0.0013901196817985,0.0013901196860675,-0.0013901196862725,0.0013901196814584,-0.0013901196826539,0.0013901196862003,-0.0013901196870647,0.0013901196818645,-0.0013384859473444,0.0013384859604725,-0.0013384859610771,0.0013384859465272,-8.5433134194041e-13,-1.4963895804431e-13,7.1879921764789e-14,5.5645476539476e-14,-0.0013654924753685,0.0013654924747833,-0.0013901196842439,0.0013901196840757,-0.0013901196841859,0.0013901196842496,-0.0013901196839819,0.0013901196844541,-0.0013901196840377,0.0013901196843706,-0.0013384859541695,0.0013384859531145,-0.001338485952541,0.001338485951629,-0.0013384859547222,0.0013384859511494,-0.0013384859539655,0.0013384859514099,-6.8457607490612e-12,6.9360054921462e-12,-0.0013654924750188,0.0013654924750883,2.3258554173018e-14,3.4478799637515e-14,-0.0013901196866919,0.0013901196820673,-0.0013901196865218,0.0013901196818632,-0.0013901196819917,0.0013901196868771,-0.0013901196818382,0.0013901196865448,-0.0013384859447949,0.0013384859590333,-0.0013384859588028,0.0013384859449638,0.0037504516523438,0.003672744048747,0.72838409816517,0.61307519173275,1368840,32768,0.0056733805725966,0.0056733805726663,0.005673380572574,16.146975680981,16.129653680649,4.4375805447846e-05,4.4375805447846e-05,4.4375805447846e-05,312377.55263189,0.017166006086624
21254400,0.99983754992546,0.016912422952563,0.0056374743175156,0.0056374743175748,0.0056374743174725,-0.0013648067276782,0.0013648067271633,6.3855368085866e-12,-6.9080466697984e-12,7.7714096475933e-14,-5.9206191291497e-13,-0.0013894208439616,0.0013894208482254,-0.0013894208484336,0.0013894208436183,-0.0013894208448164,0.0013894208483681,-0.001389420849228,0.0013894208440322,-0.0013378127503622,0.0013378127635688,-0.0013378127641271,0.00133781274959,-8.4148467557372e-13,-1.4979624735688e-13,7.3504048619417e-14,6.1195306995966e-14,-0.0013648067277292,0.0013648067271455,-0.0013894208464026,0.0013894208462286,-0.0013894208463398,0.0013894208464052,-0.00138942084615,0.0013894208466068,-0.0013894208462006,0.0013894208465276,-0.0013378127572086,0.0013378127561919,-0.0013378127555749,0.0013378127546688,-0.0013378127577869,0.0013378127542994,-0.0013378127570091,0.001337812754502,-6.8481610874972e-12,6.9317324756251e-12,-0.0013648067273824,0.0013648067274471,2.4745302871513e-14,3.203725657792e-14,-0.0013894208488447,0.0013894208442229,-0.0013894208486806,0.0013894208440109,-0.0013894208441437,0.0013894208490288,-0.0013894208439951,0.0013894208486921,-0.0013378127478744,0.0013378127621373,-0.001337812761955,0.0013378127480754,0.0037469454745325,0.0036721351622718,0.72865276244674,0.62225485967096,1368840,32768,0.005670539481767,0.0056705394818358,0.0056705394817424,15.776146381572,15.759837860259,4.1409171052575e-05,4.1409171052575e-05,4.1409171052575e-05,311105.94646511,0.017157336433228
21340800,0.99984013631057,0.016912464272443,0.0056374880908089,0.0056374880908681,0.0056374880907658,-0.0013642768492304,0.001364276848708,6.3705640307006e-12,-6.9476109905474e-12,9.4600404140237e-14,-5.6448787293002e-13,-0.001388876540758,0.0013888765450566,-0.0013888765452385,0.0013888765403744,-0.0013888765415875,0.0013888765451552,-0.0013888765460859,0.0013888765408144,-0.0013372963491099,0.001337296361945,-0.0013372963626742,0.0013372963480164,-8.5182718314662e-13,-1.7069407953069e-13,1.3489967302523e-13,3.8747698637345e-14,-0.0013642768492709,0.0013642768487035,-0.0013888765432109,0.0013888765430729,-0.0013888765431343,0.0013888765432428,-0.0013888765429444,0.0013888765434666,-0.0013888765430057,0.0013888765433758,-0.0013372963556536,0.001337296354659,-0.0013372963542144,0.0013372963531481,-0.0013372963564122,0.0013372963529703,-0.0013372963556332,0.0013372963529123,-6.8757833613027e-12,6.9293874002067e-12,-0.0013642768489388,0.0013642768489902,-4.975056838958e-14,4.1459821666201e-14,-0.0013888765456299,0.001388876541037,-0.0013888765455025,0.0013888765407978,-0.0013888765408825,0.0013888765458592,-0.0013888765407813,0.0013888765454979,-0.0013372963466087,0.0013372963608417,-0.00133729636035,0.0013372963466819,0.0037441058143888,0.0036715381990816,0.72896323611562,0.63143452760916,1368840,32768,0.0056683441681839,0.0056683441682586,0.0056683441681647,15.485962500065,15.473137570449,3.9087700000514e-05,3.9087700000514e-05,3.9087700000514e-05,309798.12719129,0.017150637401859
21427200,0.99984263531281,0.016912504216171,0.0056375014053851,0.0056375014054442,0.0056375014053419,-0.0013637533968616,0.0013637533963102,6.3783982031367e-12,-6.9581488450937e-12,1.1449438462808e-13,-6.2551665560142e-13,-0.0013883398141392,0.0013883398184317,-0.0013883398186494,0.0013883398137735,-0.0013883398150065,0.0013883398184729,-0.0013883398194678,0.0013883398141613,-0.0013367856093248,0.0013367856222964,-0.0013367856229344,0.0013367856081888,-8.4492145293547e-13,-8.1875028185855e-14,1.2757086750345e-13,3.3423949509521e-14,-0.0013637533968787,0.0013637533963352,-0.001388339816596,0.001388339816463,-0.001388339816586,0.0013883398166062,-0.0013883398163189,0.0013883398168335,-0.0013883398164032,0.0013883398167422,-0.0013367856158546,0.0013367856151893,-0.0013367856142447,0.0013367856134837,-0.0013367856163792,0.0013367856131811,-0.0013367856154022,0.0013367856133818,-6.8407352555277e-12,6.9830359671622e-12,-0.0013637533965232,0.0013637533966329,4.3911599707242e-15,9.2521820580714e-14,-0.0013883398190539,0.00138833981439,-0.0013883398188098,0.0013883398142239,-0.001388339814281,0.0013883398192792,-0.0013883398141859,0.0013883398189568,-0.0013367856066355,0.001336785621077,-0.0013367856205115,0.0013367856068683,0.0037413059417849,0.0036709529390154,0.72931330942994,0.64061419554737,1368840,32768,0.0056661754694162,0.0056661754695034,0.0056661754693839,15.199043284825,15.18643728064,3.6792346278601e-05,3.6792346278601e-05,3.6792346278601e-05,308513.90144754,0.017144019648339
21513600,0.99984505052398,0.016912543197275,0.0056375143990864,0.0056375143991455,0.0056375143990433,-0.0013632304193341,0.0013632304188558,6.4477752601858e-12,-6.9064901291144e-12,1.1625080155899e-13,-5.6678297928668e-13,-0.0013878035138228,0.001387803518153,-0.0013878035184278,0.0013878035134818,-0.001387803514719,0.0013878035183185,-0.0013878035190602,0.0013878035139851,-0.0013362753837883,0.0013362753970945,-0.0013362753974364,0.0013362753829695,-8.4153596812441e-13,-1.372481601041e-13,1.4746308333932e-13,8.9865166445557e-14,-0.0013632304193783,0.0013632304188446,-0.0013878035162188,0.0013878035161278,-0.0013878035162008,0.0013878035163006,-0.0013878035160312,0.0013878035164875,-0.0013878035161127,0.0013878035164066,-0.0013362753905199,0.0013362753897209,-0.0013362753891414,0.0013362753882289,-0.001336275391119,0.0013362753877459,-0.0013362753901158,0.0013362753880059,-6.8886262630785e-12,6.9520080915131e-12,-0.001363230419051,0.0013632304191212,1.7119241724799e-14,6.9044449562989e-14,-0.0013878035187961,0.0013878035141577,-0.0013878035186193,0.0013878035139768,-0.0013878035141055,0.0013878035189614,-0.0013878035138482,0.0013878035186844,-0.0013362753811563,0.0013362753955801,-0.0013362753953452,0.0013362753815471,0.003738520153826,0.0036703792550608,0.73640780176104,0.77112383032438,1368840,32768,0.0056640087323187,0.005664008732387,0.0056640087322821,14.912327456033,14.89973699083,3.4498619648262e-05,3.4498619648262e-05,3.4498619648262e-05,307225.41638882,0.017137407928168
21600000,0.99984738533202,0.016912580599084,0.005637526866356,0.0056375268664151,0.0056375268663128,-0.0013630671096633,0.0013630671091024,6.4660752305461e-12,-7.0329810296101e-12,-2.5703332427897e-15,-5.7578411607284e-13,-0.0013874531905146,0.0013874531947342,-0.001387453195015,0.0013874531893104,-0.0013874531912451,0.0013874531953481,-0.001387453195753,0.0013874531908188,-0.001336286684781,0.0013362866941801,-0.001336286696134,0.0013362866806382,-6.6534249777281e-13,-6.8298913515074e-14,1.7078342974228e-13,1.0615469822331e-13,-0.001363067109669,0.0013630671091679,-0.0013874531931813,0.0013874531924928,-0.0013874531924766,0.001387453192876,-0.0013874531930805,0.0013874531929205,-0.0013874531927469,0.0013874531930561,-0.00133628669159,0.0013362866907916,-0.0013362866885446,0.0013362866879859,-0.0013362866891685,0.0013362866881555,-0.0013362866877064,0.0013362866877231,-6.9195664943463e-12,7.067461505667e-12,-0.0013630671092774,0.0013630671094259,1.2666780685604e-13,1.854645106571e-13,-0.0013874531952788,0.0013874531901509,-0.0013874531947257,0.0013874531903606,-0.0013874531901393,0.0013874531953531,-0.001387453190184,0.0013874531952097,-0.0013362866826088,0.0013362866964997,-0.0013362866933919,0.0013362866818924,0.0037372239153593,0.0036698167559555,0.73089908932626,0.66996005977474,1368840,32768,0.0056633324469792,0.0056633324471269,0.0056633324468501,14.625626780654,14.613036701021,3.2205014245232e-05,3.2205014245232e-05,3.2205014245232e-05,295826.90421771,0.017135343148653
21686400,0.99984964296006,0.016912616711911,0.0056375389039651,0.0056375389040243,0.005637538903922,-0.0013622218421926,0.0013622218417031,6.5179755273806e-12,-7.0470346002832e-12,6.2982605336405e-14,-5.6472027759492e-13,-0.0013867486122705,0.0013867486165957,-0.0013867486167507,0.0013867486119278,-0.0013867486130674,0.001386748616737,-0.001386748617541,0.001386748612375,-0.0013353103863884,0.0013353103996888,-0.0013353104003795,0.0013353103851083,-8.4176404939198e-13,-1.9311762980074e-13,1.4377719594065e-13,4.9425519496071e-14,-0.0013622218422616,0.0013622218416759,-0.0013867486147562,0.0013867486146143,-0.001386748614709,0.0013867486147671,-0.0013867486144836,0.001386748614919,-0.0013867486145555,0.0013867486148735,-0.0013353103932783,0.0013353103922432,-0.0013353103915658,0.0013353103905163,-0.0013353103936781,0.0013353103901824,-0.0013353103929199,0.0013353103905431,-6.9628083498079e-12,7.0893854241416e-12,-0.0013622218418931,0.0013622218419988,3.532068568318e-15,9.2963954132661e-14,-0.0013867486171882,0.0013867486124662,-0.0013867486169931,0.0013867486123244,-0.0013867486123799,0.0013867486173847,-0.0013867486122614,0.00138674861704,-0.0013353103836566,0.0013353103985719,-0.0013353103977998,0.0013353103837635,0.0037331382153517,0.0036692652914129,0.72971734076574,0.65084678893061,1368840,32768,0.0056598301263445,0.005659830126431,0.0056598301263366,14.338926484576,14.326336411212,2.991141187661e-05,2.991141187661e-05,2.991141187661e-05,303555.63013007,0.017124657104185
21772800,0.99985182647766,0.016912651574467,0.005637550524817,0.0056375505248762,0.0056375505247739,-0.0013616118360991,0.0013616118356315,6.4746985553447e-12,-7.0049865907033e-12,1.1539141604792e-13,-5.5556661605653e-13,-0.0013861675525061,0.0013861675567378,-0.0013861675570136,0.0013861675522428,-0.0013861675532874,0.0013861675570594,-0.0013861675578727,0.0013861675526272,-0.0013346738347829,0.0013346738483717,-0.0013346738489773,0.001334673833961,-8.7224076540805e-13,-1.7928993458027e-13,1.299422656471e-13,2.3429284251449e-14,-0.0013616118361567,0.0013616118355777,-0.0013861675547705,0.0013861675547596,-0.0013861675546958,0.0013861675547903,-0.0013861675548219,0.0013861675551201,-0.001386167554686,0.001386167555161,-0.001334673842043,0.0013346738409993,-0.00133467384025,0.0013346738392208,-0.0013346738427808,0.0013346738389128,-0.0013346738415751,0.0013346738391772,-6.9783258757581e-12,6.9885873858054e-12,-0.0013616118358315,0.0013616118358559,-4.3962804025338e-14,5.8715265112484e-14,-0.0013861675573349,0.0013861675526161,-0.0013861675573394,0.0013861675522704,-0.0013861675524106,0.001386167557425,-0.001386167552335,0.0013861675571667,-0.0013346738324362,0.0013346738469885,-0.0013346738468114,0.0013346738325689,0.0037300293419337,0.0036687246486515,0.72844756353614,0.63173351808647,1368840,32768,0.0056573027288049,0.0056573027288125,0.0056573027287154,14.052226220118,14.039636121402,2.7617809760943e-05,2.7617809760943e-05,2.7617809760943e-05,304736.36665555,0.017116945265676
21859200,0.99985395552647,0.016912685503493,0.0056375618344924,0.0056375618345515,0.0056375618344492,-0.0013612358004998,0.0013612357999596,6.4326536633167e-12,-6.9883156882233e-12,9.4113360195566e-14,-6.1589553775526e-13,-0.0013858195489756,0.0013858195533108,-0.0013858195535317,0.0013858195486655,-0.0013858195499097,0.0013858195534199,-0.0013858195543442,0.0013858195490853,-0.0013342717489489,0.0013342717622479,-0.0013342717629017,0.0013342717480958,-8.4316627126095e-13,-1.1120266165855e-13,1.2167595935355e-13,-6.2979252497655e-15,-0.0013612358005343,0.0013612357999605,-0.0013858195514445,0.0013858195513165,-0.0013858195514746,0.0013858195514609,-0.0013858195511486,0.0013858195516692,-0.0013858195512452,0.0013858195515697,-0.0013342717560069,0.0013342717551206,-0.0013342717545666,0.0013342717534227,-0.0013342717565035,0.0013342717532517,-0.001334271755783,0.0013342717533529,-6.8979243907918e-12,7.0093015765306e-12,-0.0013612358001809,0.0013612358002676,-2.605335114683e-14,9.6646459281715e-14,-0.0013858195539625,0.0013858195492393,-0.0013858195537349,0.0013858195490182,-0.0013858195491954,0.0013858195541108,-0.0013858195489794,0.0013858195538181,-0.001334271746722,0.0013342717612567,-0.0013342717609795,0.0013342717469777,0.0037279127083949,0.0036681947115098,0.72710386813425,0.61262024724234,1368840,32768,0.0056557447110735,0.0056557447111467,0.0056557447110508,13.887499363495,13.880143331814,2.629999490796e-05,2.629999490796e-05,2.629999490796e-05,305933.47337261,0.017112191354085
21945600,0.99985607272707,0.016912719176335,0.0056375730587731,0.0056375730588322,0.0056375730587299,-0.0013614423125134,0.0013614423120327,6.4997919064071e-12,-6.9438140477178e-12,9.9311789622409e-14,-5.9895787871853e-13,-0.0013860516623685,0.0013860516666969,-0.001386051666912,0.0013860516620741,-0.0013860516631983,0.0013860516668814,-0.0013860516676732,0.0013860516624476,-0.0013344537340265,0.0013344537474109,-0.0013344537476276,0.0013344537333488,-8.8504984468771e-13,-1.6494837270514e-13,1.1546176683993e-13,-2.4715597896626e-14,-0.0013614423125959,0.001361442311986,-0.0013860516647847,0.0013860516646954,-0.001386051664797,0.0013860516648551,-0.0013860516646084,0.0013860516650504,-0.0013860516646906,0.0013860516649567,-0.0013344537409385,0.0013344537399965,-0.0013344537395457,0.0013344537384536,-0.0013344537416026,0.0013344537379858,-0.0013344537410022,0.0013344537383612,-6.8840052277774e-12,7.0461049816236e-12,-0.0013614423122092,0.0013614423123252,-2.7056526382868e-14,1.0790217425088e-13,-0.0013860516673343,0.0013860516626822,-0.0013860516671421,0.0013860516624951,-0.0013860516625665,0.0013860516675219,-0.0013860516623985,0.001386051667227,-0.0013344537316786,0.0013344537461364,-0.0013344537458888,0.0013344537323158,0.0037282509062633,0.0036676754881417,0.72569438793505,0.59350697639821,1368840,32768,0.005656600293233,0.0056566002933069,0.0056566002932087,14.025209344207,14.030949382006,2.7401674753653e-05,2.7401674753653e-05,2.7401674753653e-05,307112.11057189,0.017114802117895
22032000,0.99985817951878,0.016912752615039,0.0056375842050078,0.005637584205067,0.0056375842049647,-0.0013616708857998,0.0013616708853352,6.5031257457371e-12,-6.9728485724977e-12,1.0229716900935e-13,-5.6640987303777e-13,-0.0013863117864766,0.0013863117908536,-0.0013863117909947,0.001386311786178,-0.0013863117873487,0.0013863117910065,-0.0013863117918175,0.0013863117866297,-0.0013346536524976,0.0013346536658586,-0.0013346536661811,0.0013346536517425,-8.1578901938191e-13,-1.2526952604314e-13,1.2608026598148e-13,1.6221563265907e-14,-0.0013616708858806,0.0013616708852903,-0.0013863117889649,0.0013863117888082,-0.0013863117889303,0.0013863117889794,-0.0013863117887407,0.0013863117891845,-0.0013863117888356,0.0013863117890527,-0.0013346536592632,0.0013346536584035,-0.0013346536578425,0.0013346536564994,-0.0013346536598285,0.0013346536566496,-0.0013346536591667,0.0013346536568349,-6.9159384287106e-12,7.046681111082e-12,-0.0013616708855072,0.0013616708856102,-1.4217271554466e-14,9.0162392659618e-14,-0.0013863117914639,0.0013863117867991,-0.0013863117912495,0.0013863117865827,-0.0013863117867081,0.0013863117916426,-0.0013863117865311,0.0013863117913493,-0.0013346536499176,0.0013346536644441,-0.0013346536641349,0.0013346536503658,0.00372869406754,0.0036671667733821,0.72422727444629,0.57439370555408,1368840,32768,0.0056575472669719,0.0056575472670462,0.0056575472669354,14.17519218403,14.181755432198,2.8601537472236e-05,2.8601537472236e-05,2.8601537472236e-05,308467.88297426,0.017117691814337
22118400,0.99986027573263,0.016912785815296,0.0056375952717601,0.0056375952718193,0.005637595271717,-0.0013618994727846,0.0013618994722759,6.4863799043699e-12,-7.0144018324859e-12,5.2198523018011e-14,-5.7346577513186e-13,-0.0013865731735348,0.0013865731778449,-0.0013865731780567,0.0013865731731502,-0.0013865731744858,0.001386573178063,-0.0013865731789032,0.0013865731735476,-0.0013348526510677,0.0013348526644689,-0.0013348526650901,0.0013348526502953,-7.9851625293542e-13,-1.5082398066621e-13,9.6762661614167e-14,-7.1358408284903e-15,-0.0013618994728537,0.0013618994722449,-0.0013865731760447,0.0013865731757988,-0.0013865731759458,0.0013865731759339,-0.0013865731758293,0.0013865731761579,-0.0013865731757838,0.00138657317611,-0.0013348526579896,0.0013348526571427,-0.0013348526565518,0.0013348526554988,-0.0013348526585665,0.0013348526553481,-0.0013348526580605,0.0013348526553737,-6.9570960537264e-12,7.0300814417199e-12,-0.0013618994724862,0.0013618994725583,-1.822832549011e-14,8.0528598730115e-14,-0.0013865731784282,0.0013865731737471,-0.0013865731782933,0.0013865731735814,-0.0013865731736289,0.0013865731786244,-0.0013865731735061,0.0013865731783554,-0.0013348526487697,0.0013348526632947,-0.0013348526630135,0.0013348526489821,0.0037291477143826,0.0036666683570101,0.72270922405863,0.55528043470995,1368840,32768,0.0056584942964965,0.0056584942965753,0.0056584942964634,14.325942934616,14.332561482391,2.9807543476925e-05,2.9807543476925e-05,2.9807543476925e-05,309887.64877372,0.017120581690405
22204800,0.99986236110205,0.01691281879902,0.0056376062663348,0.0056376062663939,0.0056376062662916,-0.0013621267222468,0.0013621267217555,6.4875352808386e-12,-6.987104372287e-12,3.9860841102195e-14,-5.4266589251772e-13,-0.0013868341760307,0.0013868341803679,-0.0013868341805688,0.0013868341756678,-0.0013868341768297,0.0013868341805145,-0.0013868341813147,0.001386834176125,-0.0013350495659229,0.001335049579257,-0.0013350495797241,0.0013350495651947,-8.2821681619183e-13,-2.2405233182565e-13,8.1033877411845e-14,-5.2326342642621e-15,-0.0013621267223312,0.0013621267217018,-0.001386834178487,0.0013868341783276,-0.0013868341784333,0.0013868341784878,-0.0013868341782735,0.0013868341786759,-0.0013868341783513,0.0013868341785723,-0.0013350495727912,0.0013350495718751,-0.0013350495711966,0.0013350495701263,-0.0013350495733167,0.0013350495698886,-0.0013350495726806,0.0013350495699256,-6.9238517751986e-12,7.036927820803e-12,-0.00136212672195,0.0013621267220397,-1.5754518710268e-15,7.9474748571573e-14,-0.0013868341809725,0.0013868341762937,-0.0013868341807859,0.0013868341761022,-0.0013868341761999,0.0013868341811619,-0.0013868341760343,0.0013868341808701,-0.0013350495634112,0.001335049577813,-0.0013350495775586,0.0013350495636892,0.0037296058704585,0.0036661800396128,0.72174630999396,0.54581434588776,1368840,32768,0.00565943578438,0.0056594357844435,0.005659435784354,14.47674518871,14.483367532583,3.1013961509676e-05,3.1013961509676e-05,3.1013961509676e-05,311363.03876941,0.017123454662958
22291200,0.99986443535602,0.016912851842328,0.0056376172807707,0.0056376172808298,0.0056376172807276,-0.0013623851826078,0.0013623851821301,6.5272717139767e-12,-7.010913880217e-12,4.7291378810251e-14,-5.1131208564911e-13,-0.0013871109421634,0.0013871109465081,-0.0013871109467071,0.0013871109418241,-0.001387110942992,0.0013871109466937,-0.0013871109474826,0.0013871109422743,-0.0013352919404757,0.0013352919540977,-0.0013352919546012,0.0013352919398917,-8.0280221023766e-13,-2.2240149990449e-13,9.1408266363737e-14,1.761781472903e-14,-0.0013623851826939,0.0013623851820769,-0.0013871109446363,0.0013871109444656,-0.0013871109445842,0.0013871109446296,-0.0013871109444182,0.0013871109448183,-0.0013871109444768,0.0013871109447233,-0.0013352919475812,0.0013352919465896,-0.0013352919459619,0.0013352919449579,-0.0013352919481186,0.0013352919448077,-0.0013352919474606,0.0013352919447868,-6.96693098857e-12,7.0575511319515e-12,-0.0013623851823245,0.0013623851824052,3.7640320702275e-15,7.2255498526471e-14,-0.0013871109471315,0.0013871109424308,-0.0013871109469472,0.0013871109422371,-0.0013871109423442,0.0013871109473219,-0.0013871109421886,0.0013871109469939,-0.0013352919381068,0.0013352919526332,-0.0013352919525307,0.0013352919383226,0.0037302023934283,0.0036657016923736,0.72692662326668,0.6415819639154,1368840,32768,0.0056605066075117,0.00566050660758,0.0056605066074949,14.627551057385,14.634173582776,3.222040845908e-05,3.222040845908e-05,3.222040845908e-05,311941.25945143,0.017126722206954
22377600,0.99986649822543,0.016912884783549,0.0056376282611775,0.0056376282612367,0.0056376282611344,-0.0013629834234382,0.0013629834229294,6.4893456372982e-12,-7.0364585704324e-12,-1.7393350998007e-14,-5.3648972825412e-13,-0.0013875599590305,0.0013875599634139,-0.0013875599635917,0.0013875599587403,-0.001387559959918,0.0013875599635867,-0.0013875599643142,0.0013875599591561,-0.0013360289407,0.001336028954101,-0.0013360289546322,0.001336028939928,-7.9683474548079e-13,-2.5619670277835e-13,1.0717475529656e-13,1.3447118611522e-14,-0.0013629834235133,0.0013629834228871,-0.0013875599615314,0.0013875599613642,-0.0013875599614979,0.001387559961524,-0.0013875599612732,0.0013875599617141,-0.0013875599613916,0.0013875599616019,-0.0013360289476497,0.0013360289466576,-0.0013360289460105,0.001336028944979,-0.0013360289480513,0.0013360289445231,-0.0013360289476887,0.0013360289448015,-6.9431148337842e-12,7.0694263868177e-12,-0.0013629834231272,0.0013629834232264,1.0999663967816e-15,8.9553058333186e-14,-0.0013875599639941,0.0013875599593236,-0.0013875599638245,0.0013875599591503,-0.0013875599592487,0.0013875599642074,-0.0013875599590482,0.0013875599638816,-0.0013360289381363,0.0013360289526276,-0.0013360289523727,0.0013360289383648,0.0037322067432606,0.0036652330757843,0.72868180957063,0.67319470915952,1368840,32768,0.0056629854544476,0.0056629854545157,0.0056629854544188,14.778357143988,14.784979632968,3.3426857151903e-05,3.3426857151903e-05,3.3426857151903e-05,302755.77601359,0.017134285259082
22464000,0.99986854944362,0.016912917603883,0.005637639201289,0.0056376392013482,0.0056376392012459,-0.0013633735609224,0.001363373560469,6.5353530553325e-12,-7.0102886640228e-12,2.4349197325206e-14,-4.6733831137067e-13,-0.001387902369035,0.001387902373388,-0.0013879023735801,0.0013879023686973,-0.0013879023698563,0.0013879023735818,-0.0013879023743184,0.0013879023692,-0.001336463407876,0.001336463421432,-0.0013364634220184,0.0013364634071913,-7.7441663622099e-13,-2.6105778956961e-13,8.7210041675443e-14,4.3367528092962e-14,-0.0013633735610277,0.0013633735604038,-0.0013879023715167,0.0013879023713778,-0.0013879023714375,0.0013879023715186,-0.0013879023713269,0.0013879023716607,-0.0013879023713836,0.0013879023715755,-0.0013364634149879,0.0013364634138913,-0.0013364634132988,0.0013364634123475,-0.0013364634154022,0.0013364634119428,-0.0013364634148193,0.0013364634120149,-6.9849469087842e-12,7.0470583642631e-12,-0.001363373560661,0.0013633735607246,1.0744554114188e-14,4.9368374182998e-14,-0.0013879023740122,0.0013879023693019,-0.0013879023738227,0.0013879023691126,-0.0013879023692344,0.001387902374179,-0.0013879023690752,0.0013879023738263,-0.0013364634054285,0.0013364634200047,-0.0013364634197572,0.0013364634055138,0.0037333653499118,0.0036647739918014,0.73003239753176,0.69548811134312,1368840,32768,0.0056646019238539,0.0056646019239369,0.0056646019238421,14.929163246646,14.93578568316,3.4633305973163e-05,3.4633305973163e-05,3.4633305973163e-05,299515.8630163,0.017139217496015
22550400,0.99987058874651,0.016912950276411,0.0056376500921316,0.0056376500921908,0.0056376500920885,-0.0013637348037817,0.0013637348033283,6.5327921335669e-12,-6.9959913360904e-12,1.9496110289566e-14,-4.6594182462062e-13,-0.0013882300696567,0.0013882300740061,-0.0013882300742065,0.0013882300693127,-0.0013882300704487,0.0013882300741924,-0.0013882300749445,0.0013882300697893,-0.0013368556451418,0.0013368556587273,-0.0013368556591941,0.0013368556445811,-7.7625316835149e-13,-2.687697304457e-13,6.094999096079e-14,1.6557611823383e-14,-0.0013637348038925,0.0013637348032526,-0.0013882300721396,0.0013882300719691,-0.0013882300720823,0.0013882300721267,-0.0013882300719482,0.001388230072297,-0.0013882300720057,0.0013882300722034,-0.0013368556522437,0.0013368556511802,-0.001336855650679,0.0013368556495336,-0.0013368556527327,0.0013368556494017,-0.001336855652202,0.0013368556493005,-6.9706648745023e-12,7.0446297031629e-12,-0.001363734803513,0.0013637348035861,2.4971384200177e-14,6.4122599922117e-14,-0.0013882300746344,0.0013882300699222,-0.0013882300744638,0.0013882300697248,-0.0013882300698372,0.0013882300748141,-0.0013882300696899,0.001388230074482,-0.0013368556427646,0.0013368556572223,-0.0013368556571208,0.0013368556429686,0.0037344148957038,0.0036643242434691,0.73095541663126,0.70836833440601,1368840,32768,0.0056660986500246,0.0056660986500971,0.005666098650002,15.079969338094,15.086591733353,3.5839754704753e-05,3.5839754704753e-05,3.5839754704753e-05,297091.34964471,0.017143784462279
22636800,0.99987261188491,0.016912982735387,0.0056376609117903,0.0056376609118494,0.0056376609117472,-0.0013640086243682,0.0013640086239441,6.5497249103999e-12,-6.9832989003062e-12,6.0727556579537e-16,-4.3316994342616e-13,-0.0013884844382625,0.0013884844426034,-0.0013884844427866,0.0013884844378994,-0.001388484438992,0.001388484442824,-0.0013884844434871,0.0013884844383843,-0.0013371473008664,0.0013371473144395,-0.0013371473149095,0.001337147300331,-7.7852145199816e-13,-3.2282737313947e-13,4.3460348786765e-14,1.5492409070478e-14,-0.0013640086245053,0.0013640086238453,-0.0013884844407073,0.0013884844405703,-0.0013884844406432,0.0013884844407322,-0.0013884844405272,0.0013884844408548,-0.0013884844405984,0.0013884844407851,-0.001337147307932,0.001337147306805,-0.0013371473063751,0.0013371473051878,-0.0013371473084108,0.001337147304868,-0.0013371473078076,0.0013371473048247,-6.9665550588779e-12,7.0527953654722e-12,-0.0013640086241143,0.0013640086241827,2.1883184424913e-14,4.4831953943993e-14,-0.001388484443217,0.0013884844385283,-0.0013884844430744,0.0013884844383249,-0.0013884844384242,0.0013884844434146,-0.0013884844382719,0.0013884844430601,-0.0013371472983595,0.0013371473127485,-0.0013371473126297,0.0013371472984833,0.0037351095967377,0.0036638836229988,0.73195071406859,0.7212485574689,1368840,32768,0.0056672331462625,0.005667233146342,0.0056672331462311,15.199968978188,15.205269390036,3.6799751825506e-05,3.6799751825506e-05,3.6799751825506e-05,295461.7141454,0.017147246221899
22723200,0.99987460989531,0.016913014839419,0.0056376716131345,0.0056376716131936,0.0056376716130913,-0.0013641490185054,0.001364149018071,6.5376092217023e-12,-6.981045027984e-12,7.6630011946912e-15,-4.3912111456314e-13,-0.0013886059810983,0.001388605985443,-0.0013886059856417,0.0013886059807586,-0.0013886059818885,0.0013886059856676,-0.0013886059863638,0.0013886059812513,-0.0013373049381372,0.0013373049516939,-0.0013373049521579,0.0013373049375949,-7.7051243196234e-13,-3.0186583702942e-13,3.696372372479e-14,1.6587522674333e-14,-0.0013641490186345,0.0013641490179774,-0.001388605983577,0.0013886059834141,-0.0013886059835272,0.0013886059835789,-0.001388605983405,0.0013886059837224,-0.0013886059834414,0.0013886059836262,-0.0013373049452538,0.0013373049440465,-0.0013373049436304,0.0013373049425244,-0.0013373049456685,0.0013373049423549,-0.0013373049450881,0.0013373049423092,-6.9703655307059e-12,7.034544628902e-12,-0.0013641490182521,0.0013641490183129,1.9321674441991e-14,3.4735350623588e-14,-0.0013886059860613,0.0013886059813624,-0.0013886059858824,0.0013886059811483,-0.0013886059812841,0.0013886059862385,-0.0013886059811218,0.0013886059859052,-0.0013373049357924,0.0013373049501818,-0.0013373049500587,0.001337304935939,0.003735253646419,0.0036634519010829,0.7330282873673,0.73412878053179,1368840,32768,0.0056678148365784,0.0056678148366519,0.005667814836555,15.250921058097,15.253228775121,3.7207368464775e-05,3.7207368464775e-05,3.7207368464775e-05,293843.94872524,0.017149021147616
22809600,0.99987658263102,0.01691304658879,0.0056376821962581,0.0056376821963173,0.005637682196215,-0.0013642839708555,0.0013642839704269,6.546398306143e-12,-6.9788531537678e-12,2.6235669106553e-15,-4.3050490719412e-13,-0.001388720829581,0.0013887208339217,-0.0013887208341204,0.0013887208292292,-0.0013887208303548,0.0013887208341576,-0.0013887208348507,0.0013887208297391,-0.0013374577716733,0.0013374577852968,-0.001337457785689,0.0013374577710632,-7.6158864575435e-13,-3.0653787077258e-13,3.185561506812e-14,2.0828128420856e-14,-0.0013642839709919,0.0013642839703245,-0.0013887208320546,0.0013887208318803,-0.001388720832012,0.0013887208320631,-0.0013887208318913,0.0013887208321797,-0.0013887208319479,0.0013887208320953,-0.0013374577788154,0.0013374577776373,-0.0013374577771639,0.0013374577761252,-0.0013374577791994,0.0013374577758945,-0.0013374577786146,0.0013374577758853,-6.9664175924892e-12,7.0452098913209e-12,-0.0013642839706034,0.0013642839706668,2.5497956349054e-14,3.153112498107e-14,-0.0013887208345375,0.001388720829836,-0.0013887208343769,0.0013887208296277,-0.0013887208297612,0.0013887208347291,-0.0013887208296086,0.0013887208343957,-0.0013374577692342,0.0013374577837444,-0.001337457783564,0.0013374577694442,0.0037353834626401,0.0036630288988891,0.73419954221057,0.74700900359468,1368840,32768,0.0056683739815912,0.0056683739816615,0.0056683739815659,15.299068610676,15.301188160207,3.7592548885408e-05,3.7592548885408e-05,3.7592548885408e-05,292192.27687373,0.017150727272333
22896000,0.99987853029187,0.016913077203996,0.0056376924013268,0.005637692401386,0.0056376924012837,-0.0013644185026301,0.0013644185022553,6.5752114847437e-12,-6.9234564343348e-12,1.3248124690649e-14,-3.8911240700071e-13,-0.0013888351192935,0.0013888351236711,-0.0013888351237864,0.0013888351189019,-0.0013888351200638,0.0013888351238411,-0.0013888351245457,0.0013888351194015,-0.0013376100167964,0.0013376100305504,-0.0013376100305986,0.0013376100165592,-7.9532373281766e-13,-3.7082867143863e-13,1.161014531803e-14,-1.6589875543631e-14,-0.0013644185028223,0.0013644185021029,-0.0013888351218352,0.0013888351215302,-0.0013888351217833,0.0013888351216915,-0.0013888351215768,0.001388835121865,-0.0013888351216208,0.0013888351217707,-0.001337610024088,0.0013376100229487,-0.0013376100223667,0.0013376100211335,-0.0013376100243709,0.0013376100210671,-0.0013376100239174,0.001337610021018,-6.9292037293472e-12,7.0558563013745e-12,-0.0013644185023808,0.0013644185024803,4.7763540856613e-14,7.0785455199991e-14,-0.0013888351242129,0.0013888351195313,-0.0013888351240351,0.0013888351193767,-0.0013888351194152,0.0013888351243677,-0.0013888351192612,0.0013888351240914,-0.0013376100143385,0.0013376100286191,-0.0013376100287885,0.0013376100149049,0.0037355203869662,0.0036626142343851,0.71710082171129,0.47808803407847,1368840,32768,0.0056689313819583,0.005668931382041,0.0056689313819082,15.347040477104,15.349147545293,3.7976323816832e-05,3.7976323816832e-05,3.7976323816832e-05,290530.95617298,0.017152428082554
22982400,0.99988045309849,0.016913107634418,0.0056377025448008,0.0056377025448599,0.0056377025447577,-0.001363664366751,0.0013636643663344,6.533194885969e-12,-6.9523537280129e-12,-1.228491882181e-14,-4.00080307233e-13,-0.0013885015359729,0.0013885015403014,-0.001388501540509,0.0013885015356298,-0.0013885015367354,0.00138850154054,-0.0013885015412121,0.0013885015361392,-0.0013364720853264,0.0013364720989337,-0.0013364720992824,0.0013364720847588,-7.5043481002579e-13,-3.4068241591546e-13,3.0665769064158e-14,5.796675856708e-15,-0.0013636643669014,0.0013636643662172,-0.0013885015384494,0.0013885015382689,-0.0013885015383897,0.001388501538443,-0.0013885015382911,0.0013885015385539,-0.0013885015383432,0.0013885015384731,-0.0013364720924647,0.0013364720912746,-0.0013364720908335,0.0013364720897196,-0.0013364720928632,0.0013364720895664,-0.0013364720923513,0.0013364720894827,-6.9410472498887e-12,7.0307684501441e-12,-0.0013636643665012,0.0013636643665719,2.3037619745942e-14,4.2827250480425e-14,-0.001388501540917,0.0013885015362325,-0.0013885015407505,0.0013885015360249,-0.0013885015361528,0.001388501541104,-0.0013885015360025,0.001388501540772,-0.0013364720829305,0.0013364720973986,-0.0013364720972219,0.0013364720831605,0.0037320057077058,0.0036622079868227,0.72195927323476,0.56798774821511,1368840,32768,0.005665806265799,0.0056658062658677,0.0056658062657737,15.395000721041,15.397106930378,3.8360005768323e-05,3.8360005768323e-05,3.8360005768323e-05,314673.52639306,0.017142894239974
23068800,0.99988235127227,0.016913137664204,0.0056377125547293,0.0056377125547884,0.0056377125546861,-0.0013640559238505,0.0013640559234394,6.5289492509644e-12,-6.9516782192375e-12,-1.8793719982402e-14,-3.8723081742316e-13,-0.0013887473555025,0.0013887473598335,-0.001388747360035,0.0013887473551622,-0.0013887473562613,0.001388747360075,-0.0013887473607331,0.0013887473556778,-0.0013369983842185,0.0013369983977799,-0.0013369983981779,0.0013369983836252,-7.4405294616382e-13,-3.5378630971814e-13,2.9615889372556e-14,4.3592785917372e-15,-0.001364055924005,0.0013640559233178,-0.0013887473579757,0.0013887473577975,-0.0013887473579128,0.0013887473579717,-0.0013887473578218,0.0013887473580769,-0.0013887473578757,0.0013887473579979,-0.0013369983913234,0.0013369983901369,-0.0013369983897172,0.0013369983885934,-0.0013369983917317,0.0013369983884552,-0.0013369983912159,0.0013369983883382,-6.9406134396119e-12,7.0261935310812e-12,-0.0013640559236041,0.0013640559236735,2.145699156246e-14,4.1645698340738e-14,-0.0013887473604466,0.0013887473557648,-0.0013887473602811,0.001388747355555,-0.0013887473556782,0.0013887473606324,-0.0013887473555321,0.0013887473602988,-0.0013369983818298,0.0013369983962788,-0.0013369983960662,0.0013369983819973,0.0037332151702309,0.003661809930352,0.72195149058402,0.57343655006176,1368840,32768,0.0056674287750037,0.0056674287750719,0.0056674287749782,15.44296016295,15.445066315464,3.8743681303598e-05,3.8743681303598e-05,3.8743681303598e-05,305655.25457071,0.017147844377957
23155200,0.9998842250341,0.016913167320811,0.0056377224402652,0.0056377224403243,0.005637722440222,-0.0013641654597446,0.0013641654593501,6.5465829475612e-12,-6.9396607040114e-12,-1.2044808509956e-14,-3.7480525583906e-13,-0.0013888503086194,0.0013888503129551,-0.0013888503131595,0.0013888503083127,-0.0013888503093949,0.0013888503132118,-0.001388850313878,0.0013888503088252,-0.0013371145181757,0.0013371145318739,-0.001337114532071,0.0013371145176201,-7.3748505857298e-13,-3.5259293441024e-13,3.3870553513134e-14,1.0071427618917e-14,-0.0013641654599072,0.0013641654592208,-0.001388850311111,0.0013888503109291,-0.0013888503110438,0.0013888503110957,-0.0013888503109606,0.0013888503112131,-0.0013888503110291,0.0013888503111243,-0.0013371145252197,0.0013371145241016,-0.0013371145237238,0.0013371145226557,-0.0013371145257091,0.0013371145224582,-0.0013371145251547,0.0013371145223469,-6.9391623662941e-12,7.0333072255274e-12,-0.0013641654595129,0.0013641654595709,8.6984107401109e-15,2.739307492507e-14,-0.0013888503135826,0.0013888503088838,-0.0013888503134101,0.0013888503086872,-0.0013888503088222,0.0013888503137474,-0.0013888503086736,0.0013888503134275,-0.0013371145157133,0.0013371145302426,-0.0013371145300847,0.001337114516067,0.0037332723003233,0.0036614199081439,0.72217436575228,0.58224788857419,1368840,32768,0.005667882614617,0.005667882614686,0.0056678826145948,15.490919551636,15.49302570055,3.9127356413087e-05,3.9127356413087e-05,3.9127356413087e-05,304807.51245639,0.017149229177126
23241600,0.99988607460425,0.016913196732686,0.0056377322442235,0.0056377322442826,0.0056377322441803,-0.0013642860671319,0.0013642860667035,6.5264596799602e-12,-6.9511506471192e-12,-2.9631388899056e-14,-4.0928820240872e-13,-0.0013889589870929,0.0013889589914467,-0.0013889589916595,0.0013889589867477,-0.0013889589877946,0.0013889589916703,-0.0013889589923587,0.001388958987232,-0.0013372466931274,0.0013372467067875,-0.0013372467070827,0.0013372466924659,-7.356960544023e-13,-3.3374956888565e-13,4.4807248816364e-14,2.7077378687021e-14,-0.0013642860672726,0.0013642860666079,-0.0013889589896036,0.0013889589893697,-0.0013889589894657,0.0013889589895867,-0.0013889589893989,0.0013889589897054,-0.0013889589894519,0.0013889589896747,-0.0013372467002735,0.0013372466990974,-0.0013372466986426,0.0013372466976993,-0.0013372467005665,0.0013372466973589,-0.0013372467003572,0.0013372466975206,-6.9305945103892e-12,7.0336598618134e-12,-0.0013642860668841,0.0013642860669538,1.8908598825873e-14,3.1367924084392e-14,-0.0013889589920303,0.0013889589873365,-0.0013889589918873,0.001388958987194,-0.0013889589872994,0.0013889589922159,-0.0013889589871399,0.0013889589918977,-0.0013372466908131,0.0013372467053976,-0.0013372467051377,0.0013372466910862,0.0037333831289309,0.0036610377917856,0.72556653213969,0.64533473333086,1368840,32768,0.005668382332035,0.0056683823321281,0.00566838233204,15.538878960407,15.540985085636,3.9511031683255e-05,3.9511031683255e-05,3.9511031683255e-05,303640.20184788,0.017150753945826
23328000,0.99988790020232,0.016913225866939,0.0056377419556409,0.0056377419557,0.0056377419555977,-0.0013645752438076,0.0013645752434079,6.5470790500526e-12,-6.9414051213089e-12,-9.767466316491e-15,-3.8983991418763e-13,-0.0013891542283617,0.0013891542327327,-0.0013891542329495,0.0013891542280846,-0.0013891542291031,0.0013891542329538,-0.0013891542336398,0.0013891542285763,-0.0013376234559087,0.0013376234695477,-0.0013376234697425,0.0013376234552893,-7.3802318919229e-13,-3.3640295841465e-13,2.8785591208183e-14,2.5285198142788e-14,-0.0013645752439589,0.0013645752432884,-0.0013891542308562,0.001389154230642,-0.001389154230774,0.0013891542308443,-0.0013891542306775,0.0013891542309715,-0.0013891542307382,0.0013891542308918,-0.0013376234631186,0.0013376234618247,-0.0013376234613684,0.0013376234602767,-0.0013376234633346,0.0013376234601258,-0.0013376234628499,0.0013376234601359,-6.9577924442168e-12,7.0173613597215e-12,-0.0013645752435901,0.0013645752436151,3.5397153935362e-15,2.0432611091874e-15,-0.0013891542333485,0.0013891542285941,-0.0013891542331378,0.001389154228427,-0.0013891542285655,0.0013891542334231,-0.0013891542284367,0.0013891542331854,-0.0013376234534194,0.0013376234679091,-0.0013376234677119,0.0013376234537314,0.003734195336737,0.0036606634141212,0.72813795867709,0.69102081424216,1368840,32768,0.0056695805846395,0.0056695805847055,0.0056695805846184,15.586838377486,15.588944470721,3.9894707019886e-05,3.9894707019886e-05,3.9894707019886e-05,297657.30725947,0.017154409799389
23414400,0.99988970859978,0.016913254528697,0.0056377515095604,0.0056377515096196,0.0056377515095173,-0.0013649162091884,0.0013649162088113,6.5289885438817e-12,-6.897415406341e-12,-4.5669781290119e-15,-4.1082086146939e-13,-0.0013894268950637,0.0013894268995198,-0.0013894268996995,0.0013894268948954,-0.0013894268959073,0.0013894268996926,-0.0013894269003861,0.001389426895286,-0.0013380274240444,0.0013380274378781,-0.0013380274383633,0.0013380274238421,-7.6658911064064e-13,-3.3854359890191e-13,5.2733683139825e-15,1.2332887944621e-14,-0.0013649162093649,0.0013649162086805,-0.0013894268975376,0.0013894268973417,-0.0013894268975946,0.0013894268976741,-0.0013894268974078,0.0013894268977239,-0.0013894268976561,0.0013894268977131,-0.0013380274313781,0.0013380274300778,-0.0013380274297159,0.0013380274288959,-0.0013380274313353,0.0013380274284661,-0.0013380274311494,0.0013380274284159,-6.8934477628439e-12,7.0192456845096e-12,-0.0013649162089506,0.0013649162090576,5.018652565962e-14,3.7565793567263e-14,-0.0013894269000869,0.0013894268954751,-0.0013894268998972,0.0013894268952738,-0.0013894268953898,0.0013894269003576,-0.0013894268951846,0.0013894268999549,-0.0013380274215544,0.0013380274360585,-0.0013380274363767,0.0013380274218909,0.0037352375211847,0.0036602965758788,0.72309570807799,0.60514741048132,1368840,32768,0.0056709933527816,0.0056709933528764,0.0056709933527994,15.691788880505,15.69634068896,4.0734311044039e-05,4.0734311044039e-05,4.0734311044039e-05,293294.46151839,0.017158720417208
23500800,0.99989151300663,0.0169132829083,0.0056377609694282,0.0056377609694873,0.005637760969385,-0.001365086152735,0.0013650861521216,6.3740612179816e-12,-7.0392385443297e-12,-1.126591465757e-13,-5.039631925057e-13,-0.0013897178435596,0.0013897178475537,-0.001389717847876,0.0013897178429751,-0.0013897178442987,0.0013897178476927,-0.0013897178485287,0.0013897178432731,-0.0013380846182446,0.0013380846318475,-0.0013380846325576,0.0013380846178239,-8.2440146216004e-13,-4.0887615617292e-13,-6.9079036741669e-14,5.0121792343061e-14,-0.0013650861528007,0.0013650861520732,-0.0013897178456813,0.0013897178453663,-0.0013897178457259,0.0013897178457155,-0.0013897178456444,0.0013897178459954,-0.0013897178457712,0.0013897178458049,-0.0013380846256231,0.0013380846242953,-0.0013380846236085,0.0013380846230116,-0.0013380846255177,0.0013380846232518,-0.0013380846255381,0.0013380846222227,-6.9387232032396e-12,6.9616922662564e-12,-0.0013650861523796,0.0013650861524375,8.7413741334911e-14,-3.5273334188559e-14,-0.0013897178483702,0.0013897178435261,-0.0013897178482928,0.0013897178434131,-0.001389717843592,0.0013897178484347,-0.0013897178433728,0.001389717847998,-0.0013380846162731,0.0013380846302362,-0.001338084630538,0.0013380846162392,0.0037356027326369,0.003659937188407,0.71753899214363,0.51927400672053,1368840,32768,0.0056716972389671,0.0056716972390031,0.0056716972388855,15.912659562821,15.922241098742,4.2501276502569e-05,4.2501276502569e-05,4.2501276502569e-05,300132.94034612,0.017160869022595
23587200,0.99989331350831,0.016913311460107,0.0056377704866968,0.005637770486756,0.0056377704866537,-0.0013652432771473,0.0013652432767361,6.5203044562334e-12,-6.9346977968013e-12,-2.7144464872878e-14,-3.9791260874882e-13,-0.0013900170386353,0.0013900170429619,-0.0013900170431461,0.0013900170382871,-0.0013900170393972,0.0013900170431894,-0.0013900170438262,0.001390017038809,-0.0013381124553935,0.0013381124689248,-0.0013381124694035,0.0013381124548314,-7.5172679996815e-13,-3.5892597623427e-13,-5.2768593838033e-14,7.4475960104659e-14,-0.001365243277304,0.0013652432766131,-0.0013900170411259,0.0013900170408922,-0.0013900170410174,0.0013900170411368,-0.0013900170409626,0.0013900170411816,-0.001390017040993,0.0013900170411571,-0.0013381124625694,0.0013381124612175,-0.0013381124608476,0.001338112459825,-0.0013381124628256,0.0013381124595498,-0.0013381124623718,0.0013381124595041,-6.9640418415373e-12,6.9771647347596e-12,-0.001365243276928,0.0013652432769427,7.6046941524019e-14,-5.5700739557112e-14,-0.0013900170435737,0.0013900170389023,-0.0013900170434508,0.0013900170386431,-0.0013900170388129,0.001390017043744,-0.0013900170387155,0.0013900170433593,-0.0013381124530679,0.0013381124673459,-0.0013381124672843,0.0013381124530345,0.0037359221297463,0.0036595852212113,0.72351646181281,0.62948455144776,1368840,32768,0.005672348016866,0.0056723480169358,0.0056723480168395,16.138243801418,16.148141508523,4.430595041134e-05,4.430595041134e-05,4.430595041134e-05,307892.72573623,0.017162855593745
23673600,0.9998951096693,0.016913340169026,0.0056377800563368,0.0056377800563959,0.0056377800562936,-0.0013660300936595,0.001366030093315,6.6038462570299e-12,-6.9539464440624e-12,9.696444956733e-14,-3.805072581174e-13,-0.0013906354908207,0.0013906354953827,-0.0013906354954978,0.0013906354905741,-0.0013906354916859,0.0013906354955722,-0.001390635496427,0.001390635491141,-0.0013390561270608,0.0013390561404613,-0.0013390561406954,0.0013390561265149,-6.7907393122812e-13,-1.7931111040395e-13,8.0063965865507e-14,1.8733068894075e-13,-0.0013660300937393,0.0013660300933023,-0.0013906354933148,0.0013906354933504,-0.0013906354933989,0.0013906354936149,-0.0013906354930675,0.0013906354935794,-0.0013906354933923,0.0013906354936237,-0.0013390561341337,0.0013390561326911,-0.0013390561323304,0.0013390561312073,-0.0013390561343934,0.0013390561312478,-0.0013390561338646,0.0013390561309425,-6.8805468628398e-12,7.1642097853676e-12,-0.001366030093385,0.0013660300935791,1.7928943459555e-13,6.7044834179278e-14,-0.0013906354959124,0.0013906354911671,-0.0013906354957384,0.001390635491102,-0.0013906354911441,0.0013906354962219,-0.0013906354909701,0.0013906354957502,-0.0013390561241193,0.0013390561387643,-0.0013390561384067,0.0013390561246472,0.0037388403028661,0.0036592405228544,0.72932085266968,0.73528205559981,1368840,32768,0.0056756081553699,0.0056756081555089,0.0056756081553486,16.36412336087,16.374041918305,4.6112986886961e-05,4.6112986886961e-05,4.6112986886961e-05,297493.15329693,0.017172802921816
23760000,0.99989690101983,0.016913368953519,0.0056377896511678,0.005637789651227,0.0056377896511247,-0.0013667776800631,0.0013667776795807,6.4903913700576e-12,-6.9721200065196e-12,1.9038241924189e-15,-4.6722219727082e-13,-0.0013912285411387,0.0013912285454375,-0.0013912285456364,0.0013912285407978,-0.0013912285419665,0.0013912285456329,-0.001391228546455,0.0013912285413112,-0.0013399468088118,0.00133994682261,-0.001339946822672,0.001339946807968,-7.8775849334229e-13,-2.967655222523e-13,-2.0230705495246e-14,6.252970740742e-14,-0.0013667776801615,0.0013667776795138,-0.0013912285435998,0.0013912285433934,-0.0013912285435154,0.0013912285435985,-0.0013912285434309,0.0013912285437329,-0.0013912285434204,0.0013912285436596,-0.0013399468159703,0.0013399468146528,-0.0013399468141593,0.0013399468131779,-0.0013399468161892,0.0013399468130359,-0.0013399468154328,0.0013399468128718,-6.9306799195447e-12,7.0178037579712e-12,-0.001366777679794,0.0013667776798337,5.0427812406122e-14,-3.7277302380471e-14,-0.0013912285460045,0.0013912285413811,-0.0013912285458571,0.0013912285411267,-0.0013912285413045,0.0013912285462502,-0.0013912285411776,0.0013912285458548,-0.0013399468060852,0.0013399468209404,-0.0013399468206621,0.0013399468066409,0.0037416034587601,0.0036589029289922,0.73308703191926,0.7891656146954,1368840,32768,0.0056787057191872,0.0056787057192528,0.0056787057191541,16.590022804093,16.599942328086,4.7920182432743e-05,4.7920182432743e-05,4.7920182432743e-05,288243.30692522,0.017182254326008
23846400,0.99989868708628,0.016913397818947,0.0056377992729771,0.0056377992730362,0.0056377992729339,-0.0013673691560672,0.001367369155483,6.4642142285749e-12,-7.0812108503398e-12,-7.2757247904254e-14,-6.8688536906465e-13,-0.0013917443990586,0.0013917444034966,-0.0013917444038931,0.0013917443989863,-0.0013917444000719,0.0013917444038298,-0.001391744404559,0.0013917443992469,-0.0013406067238145,0.0013406067369372,-0.0013406067372861,0.0013406067228078,-8.2912228853027e-13,-1.9423694854749e-13,2.7424515141064e-14,9.8057063247556e-14,-0.0013673691560759,0.0013673691555313,-0.0013917444011943,0.0013917444014226,-0.0013917444011133,0.0013917444015052,-0.0013917444012035,0.0013917444016799,-0.0013917444014489,0.0013917444018377,-0.0013406067300296,0.0013406067287838,-0.0013406067293682,0.001340606727699,-0.0013406067306121,0.0013406067270971,-0.0013406067308721,0.0013406067268275,-7.0492295920512e-12,6.9818728850465e-12,-0.0013673691558493,0.0013673691557268,-1.1461352804716e-13,-1.8858326832237e-13,-0.0013917444042228,0.0013917443991818,-0.0013917444041517,0.001391744399173,-0.0013917443990738,0.0013917444040833,-0.0013917443993188,0.0013917444035483,-0.0013406067205554,0.001340606734374,-0.0013406067346101,0.0013406067206134,0.0037437341018477,0.0036585723001297,0.7372189376546,0.83677736959158,1368840,32768,0.0056811563520035,0.0056811563521214,0.0056811563520571,16.815923769895,16.825842737867,4.9727390159162e-05,4.9727390159162e-05,4.9727390159162e-05,283368.16331392,0.017189732189365
23932800,0.99990046739355,0.016913426778083,0.0056378089260222,0.0056378089260814,0.0056378089259791,-0.0013679415790966,0.0013679415786518,6.5506612935587e-12,-6.9753336142285e-12,3.4095664283213e-14,-5.0635564882956e-13,-0.001392247776799,0.0013922477811261,-0.0013922477813235,0.0013922477764691,-0.0013922477775769,0.0013922477813364,-0.0013922477820577,0.0013922477769086,-0.0013412392727314,0.0013412392862206,-0.0013412392861619,0.0013412392716596,-7.9890738804533e-13,-2.3653312701651e-13,-5.2841091623275e-14,5.1778329972267e-14,-0.0013679415792151,0.0013679415785711,-0.0013922477793079,0.0013922477790954,-0.0013922477792055,0.0013922477793112,-0.0013922477791211,0.001392247779441,-0.0013922477791495,0.0013922477794367,-0.0013412392793787,0.0013412392782559,-0.0013412392779592,0.0013412392767335,-0.0013412392799043,0.0013412392763553,-0.0013412392793398,0.0013412392766528,-6.9579655565754e-12,7.0545996632933e-12,-0.0013679415788465,0.0013679415788851,6.577472592139e-14,-4.349699472608e-14,-0.0013922477817693,0.0013922477770775,-0.0013922477816483,0.0013922477768205,-0.0013922477769688,0.0013922477819279,-0.0013922477768398,0.0013922477815604,-0.0013412392699355,0.0013412392847116,-0.0013412392842179,0.0013412392705881,0.0037457948241118,0.0036582485012673,0.74194598169179,0.88438912448778,1368840,32768,0.0056835280089308,0.0056835280090092,0.0056835280088964,17.041824986693,17.051743147649,5.153459989354e-05,5.153459989354e-05,5.153459989354e-05,278914.20892392,0.017196969212441
24019200,0.99990224146547,0.016913455638289,0.005637818546091,0.0056378185461501,0.0056378185460479,-0.0013685117670042,0.0013685117665526,6.5580052456766e-12,-7.0239937747528e-12,1.1911165533834e-14,-4.7478443683783e-13,-0.001392750180931,0.0013927501852922,-0.0013927501854902,0.0013927501805992,-0.0013927501817235,0.0013927501854813,-0.0013927501862133,0.0013927501810539,-0.0013418672263868,0.0013418672400761,-0.0013418672403446,0.0013418672256297,-7.8695490024445e-13,-2.7832714435561e-13,-2.8115229334337e-14,7.146802258332e-14,-0.0013685117671232,0.0013685117664655,-0.0013927501834181,0.0013927501832241,-0.001392750183341,0.0013927501834365,-0.0013927501832423,0.0013927501835497,-0.0013927501832505,0.0013927501834987,-0.001341867233586,0.001341867232211,-0.001341867231887,0.0013418672308766,-0.0013418672338463,0.0013418672306429,-0.001341867233402,0.0013418672306989,-7.0086353027671e-12,7.0597929164077e-12,-0.0013685117667565,0.0013685117667861,6.0725909571029e-14,-4.3436761272053e-14,-0.0013927501858941,0.0013927501811576,-0.0013927501857539,0.0013927501809298,-0.0013927501810989,0.0013927501860701,-0.0013927501809776,0.0013927501857011,-0.0013418672239997,0.0013418672386771,-0.0013418672384407,0.0013418672242965,0.0037478543086498,0.0036579313463151,0.74196747345412,0.84208196311467,1368840,32768,0.0056858903864025,0.0056858903864688,0.0056858903863733,17.26772507634,17.27764355743,5.3341800610715e-05,5.3341800610715e-05,5.3341800610715e-05,274467.83205172,0.017204178017667
24105600,0.99990400882533,0.016913484003368,0.0056378280011173,0.0056378280011765,0.0056378280010742,-0.0013688555752433,0.0013688555748329,6.670129114487e-12,-7.0682750102268e-12,6.6964660157951e-14,-4.3334229110223e-13,-0.001393135683166,0.0013931356876691,-0.0013931356878437,0.0013931356827395,-0.0013931356839667,0.0013931356879144,-0.0013931356884313,0.0013931356833485,-0.0013421670950429,0.001342167108879,-0.0013421671086233,0.0013421670942408,-7.8133568955454e-13,-2.5955071796255e-13,5.4778561846655e-14,2.1374117623614e-13,-0.0013688555753552,0.0013688555747555,-0.001393135685758,0.0013931356853568,-0.001393135685569,0.0013931356856405,-0.0013931356854104,0.0013931356856831,-0.0013931356855424,0.001393135685722,-0.0013421671024033,0.0013421671010142,-0.0013421671009836,0.0013421671001478,-0.0013421671027911,0.0013421670991388,-0.0013421671018448,0.0013421670997997,-6.9919165782185e-12,7.2323774675976e-12,-0.0013688555749675,0.0013688555750992,1.338364996221e-13,-3.0164490260234e-14,-0.0013931356880048,0.001393135683418,-0.001393135688046,0.0013931356830748,-0.0013931356832576,0.0013931356884972,-0.0013931356832751,0.001393135687968,-0.0013421670931047,0.0013421671078187,-0.0013421671076735,0.0013421670938476,0.0037489918992846,0.0036576205952992,0.73198303328507,0.66681476060189,1368840,32768,0.0056873146543954,0.0056873146544668,0.0056873146543758,17.493623923587,17.503543967211,5.5148991388697e-05,5.5148991388697e-05,5.5148991388697e-05,276282.59603732,0.017208524842735
24192000,0.99990576353972,0.016913512206109,0.0056378374020309,0.00563783740209,0.0056378374019878,-0.0013687208105588,0.0013687208101227,6.6299348718053e-12,-7.0672679233455e-12,3.1471626798698e-14,-4.6876544424333e-13,-0.0013932346791632,0.0013932346836049,-0.0013932346837838,0.001393234678802,-0.0013932346798945,0.0013932346837894,-0.0013932346844423,0.0013932346792192,-0.0013418170967458,0.0013418171102914,-0.0013418171107929,0.0013418170960237,-8.0109588001193e-13,-2.7876960142709e-13,-1.2325564638931e-14,1.1394216620386e-13,-0.001368720810673,0.0013687208100392,-0.0013932346816088,0.0013932346814728,-0.0013932346815289,0.0013932346817062,-0.0013932346814782,0.0013932346817857,-0.0013932346814153,0.0013932346817192,-0.0013418171038061,0.0013418171026628,-0.0013418171021754,0.0013418171013318,-0.0013418171042911,0.001341817100711,-0.0013418171036884,0.0013418171008678,-7.0756446674417e-12,7.1079664153286e-12,-0.0013687208103217,0.0013687208103459,7.5059324636214e-14,-5.5648152928303e-14,-0.0013932346841449,0.0013932346794733,-0.0013932346840367,0.0013932346791941,-0.0013932346793188,0.0013932346843438,-0.0013932346791819,0.0013932346840239,-0.0013418170943437,0.001341817108816,-0.0013418171086466,0.0013418170943417,0.0037481550656964,0.0036573161980753,0.73305373407503,0.68906096147582,1368840,32768,0.0056867559132331,0.0056867559132965,0.0056867559132043,17.669976241704,17.677770122453,5.6559809933632e-05,5.6559809933632e-05,5.6559809933632e-05,289336.03826007,0.017206821221283
24278400,0.99990749533651,0.016913540081619,0.0056378466938675,0.0056378466939267,0.0056378466938244,-0.0013689478591682,0.0013689478586948,6.6247107372814e-12,-7.0939975185394e-12,3.1408452258049e-15,-5.0184678657221e-13,-0.0013934349893929,0.0013934349937743,-0.0013934349940066,0.0013934349890451,-0.0013934349901986,0.00139343499404,-0.0013934349947109,0.0013934349895069,-0.0013420693893752,0.0013420694031201,-0.0013420694034679,0.0013420693887617,-7.7895440935984e-13,-2.5151855157502e-13,-2.5553542886217e-14,1.1034007036306e-13,-0.001368947859264,0.0013689478586295,-0.0013934349919898,0.0013934349916985,-0.0013934349918655,0.0013934349919651,-0.0013934349916015,0.0013934349920529,-0.0013934349917183,0.0013934349920258,-0.0013420693967066,0.0013420693954185,-0.0013420693948745,0.0013420693940117,-0.0013420693969646,0.0013420693937006,-0.001342069396458,0.0013420693937426,-7.1051258844578e-12,7.1001118023405e-12,-0.0013689478589321,0.0013689478589261,6.5463764832803e-14,-7.5078441699259e-14,-0.0013934349944883,0.0013934349896223,-0.0013934349943795,0.0013934349894214,-0.0013934349895915,0.0013934349946034,-0.0013934349894564,0.0013934349942595,-0.0013420693870167,0.0013420694015825,-0.0013420694015378,0.0013420693872639,0.0037487946347414,0.0036570179718146,0.7342669172761,0.71130716234974,1368840,32768,0.0056876966388127,0.0056876966388761,0.005687696638803,17.754570760257,17.758379257143,5.7236566082058e-05,5.7236566082058e-05,5.7236566082058e-05,287244.80213503,0.017209691777969
24364800,0.99990920393973,0.016913567636327,0.0056378558787705,0.0056378558788296,0.0056378558787273,-0.0013691679201289,0.0013691679196699,6.6343080323259e-12,-7.0982983871508e-12,2.8491717832872e-14,-4.8449014033525e-13,-0.0013936248313527,0.0013936248357698,-0.0013936248359583,0.0013936248310168,-0.0013936248321559,0.0013936248359509,-0.0013936248367087,0.0013936248314709,-0.0013423169823798,0.0013423169961599,-0.0013423169965921,0.001342316981838,-7.8565717518318e-13,-2.5080469103002e-13,-3.0370689843331e-14,1.0418222906912e-13,-0.0013691679202376,0.0013691679195952,-0.0013936248338954,0.0013936248336735,-0.0013936248338038,0.0013936248339068,-0.0013936248337048,0.0013936248340027,-0.0013936248336964,0.0013936248339717,-0.0013423169897144,0.0013423169883912,-0.0013423169879316,0.0013423169870266,-0.0013423169899237,0.001342316986762,-0.0013423169894354,0.0013423169867611,-7.0963597993145e-12,7.1228536370048e-12,-0.0013691679198889,0.001369167919898,7.1464905031501e-14,-6.7354177670223e-14,-0.0013936248363698,0.0013936248316246,-0.0013936248362873,0.0013936248313568,-0.0013936248315431,0.0013936248365671,-0.0013936248314387,0.001393624836184,-0.0013423169800565,0.0013423169945576,-0.0013423169946104,0.0013423169801663,0.0037494108494327,0.003656725792988,0.73564456152385,0.73347617344895,1368840,32768,0.0056886084122211,0.0056886084122917,0.0056886084121966,17.835430602659,17.838988391834,5.7883444821267e-05,5.7883444821267e-05,5.7883444821267e-05,285073.64027931,0.017212473984836
24451200,0.99991088946946,0.016913594753626,0.0056378649178702,0.0056378649179293,0.005637864917827,-0.0013693874525608,0.0013693874521286,6.6519700809978e-12,-7.1037425737759e-12,4.9814184093223e-14,-4.7925865309477e-13,-0.0013938148885891,0.001393814893098,-0.0013938148932604,0.0013938148882625,-0.0013938148893951,0.001393814893222,-0.0013938148939342,0.0013938148888619,-0.0013425633020222,0.0013425633158651,-0.0013425633162802,0.001342563301257,-7.6857349119565e-13,-2.1732700786791e-13,-2.9406307539843e-14,1.0712478623484e-13,-0.0013693874526714,0.0013693874520427,-0.0013938148912738,0.0013938148909227,-0.0013938148910277,0.0013938148912044,-0.0013938148910104,0.0013938148912428,-0.00139381489109,0.0013938148912148,-0.0013425633091822,0.0013425633079538,-0.0013425633076025,0.0013425633066039,-0.0013425633097684,0.0013425633063411,-0.0013425633089541,0.0013425633062853,-7.1048700099217e-12,7.1370323509137e-12,-0.0013693874523204,0.0013693874523406,6.6119715382199e-14,-7.4756363303239e-14,-0.0013938148936441,0.0013938148888367,-0.001393814893565,0.0013938148887005,-0.0013938148888595,0.0013938148938427,-0.0013938148887808,0.0013938148934313,-0.0013425632997951,0.0013425633143947,-0.0013425633142084,0.001342563299801,0.0037500313653719,0.0036564395082729,0.73385828519243,0.70088906137732,1368840,32768,0.0056895179915851,0.0056895179916363,0.0056895179915264,17.916056499067,17.919597526525,5.8528451992538e-05,5.8528451992538e-05,5.8528451992538e-05,282895.79414167,0.017215249519499
24537600,0.99991255207189,0.016913621640711,0.0056378738802317,0.0056378738802908,0.0056378738801886,-0.0013694544080295,0.0013694544075588,6.6292710097329e-12,-7.1200904861231e-12,4.0990983047723e-14,-5.1362960308584e-13,-0.0013939247950403,0.0013939247993921,-0.0013939247995826,0.0013939247946735,-0.0013939247957541,0.0013939247994773,-0.0013939248003089,0.0013939247950778,-0.0013425899480608,0.0013425899618202,-0.0013425899622337,0.0013425899472842,-8.0983214253688e-13,-2.3323858060382e-13,-1.6181858596504e-14,1.126703815266e-13,-0.0013694544081277,0.0013694544074937,-0.0013939247975186,0.0013939247972864,-0.0013939247973086,0.0013939247975373,-0.0013939247972137,0.0013939247976473,-0.0013939247972621,0.001393924797626,-0.0013425899553945,0.0013425899540672,-0.0013425899537319,0.0013425899528487,-0.0013425899558297,0.0013425899524202,-0.0013425899550845,0.0013425899525017,-7.0980503359051e-12,7.1379018537627e-12,-0.0013694544077789,0.0013694544077912,6.5379532111937e-14,-6.7273680129368e-14,-0.0013939247999746,0.0013939247952016,-0.0013939247998537,0.0013939247949361,-0.001393924795095,0.0013939248001108,-0.0013939247950613,0.0013939247997959,-0.0013425899459098,0.0013425899605777,-0.0013425899604434,0.0013425899460531,0.0037500306243015,0.0036561590516423,0.73763289239021,0.76497482251868,1368840,32768,0.0056897953120415,0.0056897953121101,0.005689795312004,17.996666948038,18.000206661215,5.9173335584305e-05,5.9173335584305e-05,5.9173335584305e-05,285010.94382675,0.017216096074384
24624000,0.99991419189656,0.016913648320219,0.005637882773401,0.0056378827734602,0.0056378827733579,-0.0013697886599112,0.0013697886593814,6.623149432037e-12,-7.1510367760293e-12,1.1521589199829e-14,-5.5574896342712e-13,-0.0013941743418537,0.0013941743463592,-0.0013941743464402,0.0013941743415502,-0.0013941743426786,0.0013941743463402,-0.0013941743472642,0.0013941743418308,-0.0013430021858651,0.0013430021996171,-0.0013430021999486,0.0013430021847128,-8.8411487325044e-13,-2.9462370533039e-13,-6.3068896817906e-14,1.3663582586931e-14,-0.0013697886600461,0.0013697886592995,-0.001394174344361,0.001394174344055,-0.0013941743444071,0.0013941743444101,-0.0013941743442182,0.0013941743444672,-0.0013941743442408,0.0013941743445578,-0.0013430021931461,0.0013430021917007,-0.0013430021916098,0.0013430021901618,-0.0013430021935079,0.0013430021900472,-0.0013430021929322,0.001343002190229,-7.0946829093659e-12,7.1658075894969e-12,-0.0013697886596149,0.0013697886596692,9.3502555325823e-14,1.2075072291301e-14,-0.0013941743469267,0.001394174342217,-0.0013941743466864,0.0013941743418449,-0.0013941743420982,0.0013941743471149,-0.0013941743419112,0.0013941743467594,-0.0013430021834005,0.0013430021983612,-0.0013430021979238,0.0013430021837293,0.0037511343085017,0.0036558843116798,0.74212139439589,0.82906058366004,1368840,32768,0.0056911802719129,0.0056911802720229,0.0056911802718954,18.077276468097,18.080815795906,5.9818211744771e-05,5.9818211744771e-05,5.9818211744771e-05,279608.45897486,0.017220321978092
24710400,0.9999158090948,0.016913674627414,0.0056378915424661,0.0056378915425253,0.005637891542423,-0.001370118473339,0.0013701184728467,6.6532487478177e-12,-7.1228729305331e-12,5.3147552849331e-14,-5.1370807127693e-13,-0.0013944215230884,0.0013944215274254,-0.0013944215277273,0.0013944215227229,-0.0013944215241494,0.0013944215277989,-0.0013944215286104,0.0013944215233142,-0.0013434067977539,0.0013434068114942,-0.0013434068115273,0.0013434067968208,-7.9262707990443e-13,-2.0473033386413e-13,8.9006104454017e-16,1.174128248835e-13,-0.0013701184734325,0.0013701184728125,-0.0013944215257072,0.0013944215253719,-0.001394421525551,0.0013944215256922,-0.0013944215256553,0.0013944215257956,-0.0013944215254557,0.0013944215257623,-0.0013434068050606,0.0013434068036064,-0.0013434068034321,0.001343406801901,-0.0013434068054368,0.0013434068015413,-0.0013434068047429,0.0013434068014016,-7.1652172251792e-12,7.0981018931536e-12,-0.0013701184731188,0.0013701184730358,3.7694671983057e-14,-8.2186959833028e-14,-0.0013944215283653,0.0013944215232905,-0.0013944215280597,0.001394421523074,-0.001394421523353,0.0013944215282899,-0.001394421523262,0.0013944215278713,-0.0013434067950135,0.0013434068099005,-0.0013434068096621,0.0013434067954681,0.0037522270256074,0.0036556151303801,0.74194852572553,0.80338046085543,1368840,32768,0.0056925468231024,0.0056925468232253,0.0056925468230382,18.157885545577,18.161424930596,6.0463084364611e-05,6.0463084364611e-05,6.0463084364611e-05,274265.64790993,0.01722449178743
24796800,0.99991740381965,0.016913699726151,0.0056378999087118,0.0056378999087709,0.0056378999086686,-0.0013702163775201,0.0013702163770088,6.641646219914e-12,-7.1414805973757e-12,-2.4403195675594e-14,-5.024480623213e-13,-0.001394542675655,0.001394542680067,-0.00139454268019,0.0013945426753176,-0.0013945426765308,0.0013945426802404,-0.0013945426810386,0.0013945426756367,-0.0013434797751504,0.0013434797894325,-0.00134347978966,0.0013434797747057,-7.4172037036359e-13,-2.4212825020698e-13,1.4536320631265e-14,1.7869768796712e-13,-0.0013702163775734,0.0013702163769973,-0.001394542678186,0.0013945426780561,-0.0013945426781909,0.0013945426782223,-0.001394542677945,0.0013945426781708,-0.0013945426780146,0.0013945426782658,-0.0013434797829314,0.0013434797816736,-0.0013434797810902,0.0013434797800091,-0.0013434797829116,0.0013434797799554,-0.0013434797823075,0.0013434797799825,-7.1197383792326e-12,7.1499910432698e-12,-0.0013702163772362,0.0013702163772767,1.1471531905516e-13,-5.3757769501748e-14,-0.0013945426805933,0.0013945426759892,-0.0013945426806511,0.0013945426756866,-0.0013945426757843,0.0013945426808297,-0.0013945426757593,0.001394542680466,-0.0013434797729627,0.0013434797878231,-0.0013434797880413,0.0013434797733752,0.003752373684691,0.0036553511708301,0.71782207429515,0.43927619685029,1368840,32768,0.0056929523568518,0.0056929523569384,0.0056929523568187,18.238494138236,18.242034065287,6.1107953105885e-05,6.1107953105885e-05,6.1107953105885e-05,275274.67197403,0.017225729628554
24883200,0.99991897622588,0.016913724554343,0.0056379081847756,0.0056379081848348,0.0056379081847325,-0.0013692664894934,0.0013692664890603,6.6548527576398e-12,-7.0961259829281e-12,-1.2487265581432e-15,-4.2654096946617e-13,-0.0013941430641512,0.0013941430685655,-0.0013941430687726,0.0013941430638057,-0.0013941430649263,0.0013941430687892,-0.0013941430694887,0.0013941430643006,-0.001342029881686,0.0013420298955278,-0.0013420298959152,0.0013420298810946,-7.6105213273269e-13,-3.1371323980528e-13,-4.7126972068058e-14,8.7715290946307e-14,-0.0013692664896301,0.0013692664889573,-0.0013941430666973,0.0013941430664618,-0.0013941430665832,0.0013941430666904,-0.0013941430665253,0.0013941430667613,-0.0013941430665238,0.0013941430667335,-0.0013420298890266,0.0013420298876837,-0.001342029887277,0.0013420298862879,-0.0013420298893122,0.0013420298860542,-0.0013420298887633,0.001342029885994,-7.1049157732295e-12,7.1324031099809e-12,-0.0013692664892654,0.0013692664892764,7.0700310742273e-14,-6.8561170209195e-14,-0.0013941430691826,0.0013941430644097,-0.0013941430690712,0.0013941430641483,-0.0013941430643313,0.0013941430693675,-0.0013941430642355,0.0013941430689806,-0.0013420298793442,0.0013420298939574,-0.0013420298938996,0.0013420298794501,0.0037482049625646,0.0036550925706752,0.72017113870878,0.4910714493357,1368840,32768,0.0056890161367304,0.0056890161368001,0.0056890161367059,18.31910321037,18.322643199978,6.1752825682954e-05,6.1752825682954e-05,6.1752825682954e-05,307090.29638101,0.017213720514493
24969600,0.99992053344335,0.016913749202132,0.0056379164007052,0.0056379164007644,0.0056379164006621,-0.0013697290541378,0.001369729053714,6.7008304706993e-12,-7.0802530560704e-12,-5.553048005254e-14,-4.6213499974004e-13,-0.0013945260412857,0.0013945260457697,-0.0013945260460177,0.0013945260409784,-0.0013945260421905,0.0013945260459804,-0.0013945260467534,0.0013945260415679,-0.001342566104555,0.00134256611833,-0.0013425661185759,0.0013425661034859,-7.5973746701247e-13,-3.3223414459258e-13,-4.9431931064908e-14,9.0987808620197e-14,-0.0013697290543128,0.001369729053594,-0.0013945260438946,0.0013945260436671,-0.0013945260439242,0.0013945260438082,-0.0013945260437631,0.0013945260439276,-0.0013945260438187,0.0013945260438363,-0.0013425661117764,0.0013425661105466,-0.0013425661101486,0.0013425661096181,-0.0013425661115782,0.0013425661091379,-0.0013425661112964,0.001342566108907,-7.0906584440753e-12,7.1769267792251e-12,-0.0013697290539017,0.0013697290539544,7.700164765252e-14,-6.8214563150744e-14,-0.0013945260464007,0.0013945260415224,-0.0013945260462789,0.0013945260413146,-0.0013945260414422,0.0013945260465808,-0.0013945260413115,0.0013945260462221,-0.0013425661021556,0.0013425661172581,-0.0013425661166885,0.0013425661024327,0.0037498687500346,0.0036548392515627,0.72224652597087,0.53635853196323,1368840,32768,0.005690932707028,0.0056909327071419,0.0056909327070369,18.471763697885,18.478395690411,6.2974109583075e-05,6.2974109583075e-05,6.2974109583075e-05,301922.59488341,0.017219568680182
25056000,0.9999220870357,0.016913773868623,0.0056379246228688,0.005637924622928,0.0056379246228257,-0.001370401847362,0.0013704018469224,6.6597487257184e-12,-7.1398771757709e-12,3.1014052541984e-14,-4.3478283532989e-13,-0.0013951299874425,0.0013951299918004,-0.0013951299930052,0.001395129987863,-0.0013951299881623,0.0013951299926301,-0.0013951299928576,0.0013951299880337,-0.0013433025360852,0.0013433025505551,-0.001343302549922,0.001343302535346,-7.3204834230799e-13,-2.4087852367939e-13,7.8316989822661e-14,2.5170419296262e-13,-0.0013704018473927,0.0013704018468928,-0.0013951299906659,0.0013951299901427,-0.0013951299901883,0.0013951299899335,-0.0013951299901244,0.0013951299900462,-0.001395129989378,0.0013951299897939,-0.0013433025435114,0.0013433025419257,-0.0013433025419388,0.0013433025410481,-0.0013433025434638,0.0013433025404013,-0.0013433025431154,0.0013433025395204,-7.0780800636303e-12,7.2087461306951e-12,-0.0013704018469182,0.0013704018471714,1.9648867387648e-13,2.0584429983323e-14,-0.0013951299922414,0.0013951299879145,-0.0013951299924465,0.0013951299879681,-0.0013951299876156,0.0013951299920706,-0.0013951299870115,0.0013951299923063,-0.0013433025332534,0.0013433025489216,-0.0013433025476064,0.0013433025340782,0.003752422414368,0.0036545911726269,0.72443193926737,0.5816456145908,1368840,32768,0.0056937202320691,0.0056937202320714,0.0056937202316658,18.746238985663,18.758168153745,6.5169911885306e-05,6.5169911885306e-05,6.5169911885306e-05,297466.06837993,0.017228074822889
25142400,0.99992363690697,0.016913798555749,0.005637932851911,0.0056379328519701,0.0056379328518679,-0.0013710810598179,0.0013710810591704,6.5641107062178e-12,-7.1634421029374e-12,-7.5109234876196e-14,-5.7368123913782e-13,-0.0013957421400553,0.0013957421445827,-0.0013957421450895,0.0013957421399217,-0.0013957421412524,0.0013957421445501,-0.0013957421453617,0.0013957421399641,-0.0013440440670593,0.0013440440810344,-0.0013440440807973,0.0013440440643553,-7.181271499438e-13,-1.9619453580337e-13,4.1842074694516e-14,2.0975653325836e-13,-0.0013710810597534,0.0013710810592061,-0.0013957421423889,0.0013957421424866,-0.0013957421427235,0.0013957421424878,-0.0013957421427998,0.0013957421425486,-0.0013957421424456,0.0013957421425094,-0.0013440440728457,0.001344044071007,-0.0013440440727095,0.0013440440706017,-0.0013440440732126,0.0013440440717035,-0.0013440440734365,0.0013440440700781,-7.0925120933299e-12,7.1240015431135e-12,-0.0013710810594705,0.001371081059419,5.2290726083624e-14,-1.1928285599063e-13,-0.0013957421454,0.0013957421406538,-0.0013957421448442,0.0013957421399343,-0.0013957421404444,0.0013957421449708,-0.0013957421402874,0.0013957421448532,-0.0013440440617505,0.0013440440777749,-0.0013440440759691,0.0013440440626735,0.0037550095040757,0.0036543482296078,0.72672656256887,0.62693269721833,1368840,32768,0.0056965343322715,0.005696534332212,0.005696534332067,19.025678261822,19.037940617079,6.7405426094578e-05,6.7405426094578e-05,6.7405426094578e-05,293133.97103277,0.017236662180184
25228800,0.99992518249573,0.016913823258752,0.0056379410862452,0.0056379410863043,0.0056379410862021,-0.001371757570213,0.0013717575699889,6.8181854149981e-12,-6.9079516138788e-12,1.3617536934771e-13,-3.6486085375137e-13,-0.0013963520037162,0.0013963520082622,-0.0013963520085118,0.0013963520038354,-0.00139635200491,0.0013963520086181,-0.0013963520088964,0.0013963520041828,-0.0013447823983811,0.001344782412659,-0.0013447824121165,0.0013447823977953,-8.617485271152e-13,-3.3684612134692e-13,-1.1552850009539e-13,1.6548906206981e-14,-0.001371757570519,0.0013717575696951,-0.0013963520065658,0.0013963520061343,-0.0013963520065218,0.0013963520063585,-0.0013963520065636,0.0013963520062785,-0.0013963520061187,0.0013963520063855,-0.0013447824055693,0.0013447824040018,-0.0013447824041068,0.0013447824027867,-0.0013447824059721,0.0013447824026992,-0.0013447824052494,0.0013447824030191,-6.9215533748249e-12,7.2936427430443e-12,-0.0013717575699539,0.0013717575702467,2.2481563203676e-13,8.7149131771493e-14,-0.0013963520087734,0.0013963520042931,-0.0013963520086902,0.0013963520039031,-0.0013963520041861,0.0013963520092696,-0.0013963520037829,0.0013963520088849,-0.0013447823950721,0.0013447824104955,-0.0013447824100385,0.0013447823958964,0.0037575908969564,0.0036541103179981,0.72915719782247,0.67221977984587,1368840,32768,0.0056993372248388,0.0056993372248643,0.0056993372248365,19.305428482831,19.317713080412,6.9643427862643e-05,6.9643427862643e-05,6.9643427862643e-05,288891.55544695,0.01724521542629
25315200,0.99992672320852,0.016913847974967,0.0056379493249836,0.0056379493250427,0.0056379493249404,-0.00137243084919,0.0013724308486866,6.6776716487737e-12,-7.0901624592273e-12,-3.2601945209423e-14,-4.493226852651e-13,-0.0013969603282288,0.001396960332315,-0.0013969603324798,0.0013969603275451,-0.0013969603290589,0.0013969603330278,-0.0013969603335245,0.0013969603282368,-0.0013455158992408,0.0013455159136832,-0.0013455159135973,0.0013455158979406,-7.6311442267233e-13,-3.2449238109814e-13,-3.2789410070736e-14,9.0611996571585e-14,-0.001372430849311,0.0013724308486363,-0.0013969603305265,0.0013969603303631,-0.0013969603304544,0.0013969603305728,-0.0013969603304935,0.0013969603306237,-0.0013969603302601,0.0013969603307264,-0.0013455159067528,0.001345515905487,-0.0013455159047616,0.0013455159036822,-0.0013455159069842,0.0013455159038885,-0.0013455159066659,0.0013455159035302,-7.1162019578561e-12,7.1385515986193e-12,-0.0013724308489676,0.001372430848944,7.1467610831193e-14,-5.8133547589437e-14,-0.0013969603331323,0.001396960328158,-0.001396960333108,0.001396960327939,-0.0013969603282768,0.0013969603330703,-0.0013969603281236,0.0013969603329265,-0.0013455158962893,0.0013455159119802,-0.0013455159112958,0.0013455158968054,0.0037601642759142,0.0036538773359395,0.73180540508432,0.71750686247341,1368840,32768,0.0057021267149207,0.0057021267150672,0.0057021267149933,19.585199680119,19.597485543747,7.188159744095e-05,7.188159744095e-05,7.188159744095e-05,284747.80723246,0.017253727862297
25401600,0.99992825844745,0.016913872895267,0.0056379576317504,0.0056379576318095,0.0056379576317072,-0.0013731012086717,0.0013731012082153,6.6941409103549e-12,-7.1133959259314e-12,1.0958547576835e-14,-3.8444719657851e-13,-0.0013975674092782,0.0013975674134149,-0.0013975674136518,0.0013975674086504,-0.0013975674101753,0.0013975674138872,-0.0013975674145154,0.0013975674092741,-0.0013462446724907,0.0013462446868346,-0.0013462446863218,0.0013462446712564,-7.7494170841569e-13,-3.5611206219741e-13,-4.1513525907927e-14,-2.8523922731387e-14,-0.0013731012088518,0.0013731012081095,-0.001397567411484,0.0013975674116394,-0.0013975674117401,0.0013975674117543,-0.001397567411733,0.0013975674117966,-0.0013975674116758,0.0013975674116244,-0.0013462446800261,0.0013462446784151,-0.0013462446778087,0.0013462446773089,-0.001346244680199,0.0013462446768807,-0.0013462446796478,0.0013462446768024,-7.1006836084016e-12,7.1943693051914e-12,-0.0013731012084274,0.0013731012084444,4.15751122618e-14,2.6215316787126e-14,-0.0013975674140299,0.0013975674093899,-0.0013975674140123,0.0013975674091448,-0.0013975674094067,0.0013975674141912,-0.0013975674091979,0.0013975674140495,-0.001346244670017,0.0013462446858188,-0.0013462446853546,0.0013462446709509,0.0037627309921148,0.0036536492342318,0.74041587273398,0.86167391963168,1368840,32768,0.0057049040959034,0.0057049040960572,0.0057049040958721,19.86497405172,19.877258007081,7.4119792413756e-05,7.4119792413756e-05,7.4119792413756e-05,280682.20808459,0.017262203438787
25488000,0.99992978710825,0.016913897949854,0.0056379659832794,0.0056379659833385,0.0056379659832363,-0.0013740132994674,0.001374013299084,6.6915599303786e-12,-6.9821492295455e-12,-9.0915457889286e-15,-3.6486814764619e-13,-0.0013982901302272,0.0013982901342361,-0.0013982901345848,0.0013982901297976,-0.0013982901307406,0.0013982901346374,-0.0013982901352769,0.0013982901301226,-0.0013473304631343,0.0013473304774898,-0.001347330475837,0.0013473304619896,-7.2793973252908e-13,-3.4937379745854e-13,-1.3748194707971e-13,-4.0849340315987e-15,-0.0013740132996911,0.0013740132989094,-0.0013982901325227,0.001398290132253,-0.0013982901326534,0.0013982901325041,-0.0013982901324749,0.0013982901326382,-0.0013982901325574,0.0013982901325143,-0.0013473304700173,0.0013473304684762,-0.0013473304676258,0.0013473304668488,-0.0013473304694946,0.0013473304666987,-0.0013473304686977,0.0013473304667186,-7.0326545101733e-12,7.1276910186379e-12,-0.0013740132992845,0.0013740132992472,5.5407454399125e-14,-8.2457686856621e-14,-0.001398290135022,0.0013982901302719,-0.0013982901350528,0.0013982901300924,-0.0013982901303763,0.0013982901353371,-0.001398290130231,0.001398290134741,-0.0013473304586397,0.0013473304740545,-0.0013473304734696,0.0013473304605909,0.0037662943849134,0.0036534258980923,0.74755609950441,0.95250232212385,1368840,32768,0.0057086831628404,0.0057086831629421,0.0057086831627995,20.139387323224,20.157030470414,7.6315098585792e-05,7.6315098585792e-05,7.6315098585792e-05,269464.37410605,0.017273735276925
25574400,0.99993130906113,0.016913922927451,0.0056379743091449,0.0056379743092041,0.0056379743091018,-0.0013747826832223,0.0013747826829036,6.7283424537565e-12,-7.0302992291843e-12,7.1002889733986e-14,-3.6101214779728e-13,-0.0013989445177681,0.0013989445223722,-0.0013989445226516,0.0013989445176598,-0.0013989445184076,0.0013989445227995,-0.0013989445233791,0.001398944518201,-0.0013482018043555,0.0013482018181341,-0.0013482018183198,0.0013482018035673,-7.302378387941e-13,-2.7609880066528e-13,-9.243282329952e-14,1.9539023684474e-13,-0.0013747826834115,0.0013747826827651,-0.0013989445204842,0.0013989445203988,-0.0013989445203432,0.0013989445205508,-0.0013989445203823,0.0013989445204645,-0.0013989445203379,0.0013989445205764,-0.0013482018115901,0.0013482018099732,-0.001348201809571,0.0013482018089309,-0.0013482018115288,0.0013482018086609,-0.0013482018110929,0.0013482018082536,-7.136777035184e-12,7.1078141846851e-12,-0.0013747826831061,0.0013747826830014,8.2989817659213e-14,-2.0813481809476e-13,-0.0013989445231228,0.0013989445180361,-0.0013989445230723,0.0013989445177694,-0.0013989445182585,0.0013989445230772,-0.0013989445181647,0.001398944522753,-0.0013482018016737,0.0013482018163708,-0.0013482018162152,0.0013482018018209,0.0037692808370904,0.0036532071797272,0.74842910408026,0.89921598704721,1368840,32768,0.0057118708251765,0.0057118708252816,0.0057118708251385,20.418662728528,20.436802933748,7.8549301828223e-05,7.8549301828223e-05,7.8549301828223e-05,262403.98450985,0.017283462951757
25660800,0.99993282374621,0.016913947806336,0.0056379826021067,0.0056379826021659,0.0056379826020636,-0.0013752175672861,0.0013752175668908,6.6963245495286e-12,-7.1212957434209e-12,5.9108782502562e-14,-4.1168248220629e-13,-0.001399424208727,0.0013994242131987,-0.0013994242133032,0.0013994242083072,-0.001399424209463,0.0013994242134182,-0.0013994242140644,0.0013994242088794,-0.0013485870847866,0.0013485870986491,-0.0013485870994962,0.0013485870843588,-7.6514197837895e-13,-2.7198822035833e-13,-1.2169813514668e-13,1.8735683520082e-13,-0.0013752175674399,0.0013752175667734,-0.0013994242113744,0.0013994242110065,-0.0013994242112432,0.0013994242113588,-0.001399424211086,0.0013994242113247,-0.0013994242110958,0.0013994242113562,-0.0013485870922542,0.0013485870905069,-0.0013485870901421,0.0013485870892878,-0.0013485870923305,0.0013485870889468,-0.0013485870915813,0.0013485870890876,-7.1426754432269e-12,7.1614608987559e-12,-0.0013752175670752,0.0013752175670878,1.7925596502978e-13,-1.3370279782424e-13,-0.0013994242137407,0.0013994242089161,-0.0013994242136299,0.0013994242086699,-0.0013994242088778,0.0013994242138633,-0.001399424208707,0.0013994242134329,-0.001348587082163,0.0013485870966468,-0.0013485870967457,0.0013485870817546,0.0037709034244553,0.0036529929786034,0.74897581885324,0.86523706048209,1368840,32768,0.0057136723309629,0.0057136723310385,0.0057136723309343,20.698371899746,20.716575397082,8.0786975197965e-05,8.0786975197965e-05,8.0786975197965e-05,264363.0690897,0.017288961551501
25747200,0.99993431888924,0.016913972322188,0.0056379907740575,0.0056379907741166,0.0056379907740143,-0.0013754426781365,0.0013754426776993,6.6838564598319e-12,-7.1420145222412e-12,6.1643999171081e-15,-4.4040566355634e-13,-0.0013996834149655,0.0013996834194054,-0.0013996834195983,0.0013996834146242,-0.001399683415752,0.0013996834196314,-0.0013996834203319,0.0013996834151222,-0.0013487767931245,0.0013487768069217,-0.0013487768074303,0.0013487767924291,-7.6636932323735e-13,-2.9789101728096e-13,-1.0937904089832e-13,1.4400927708602e-13,-0.0013754426782674,0.0013754426776026,-0.0013996834175506,0.0013996834172706,-0.0013996834173877,0.0013996834175383,-0.001399683417355,0.0013996834175662,-0.0013996834173205,0.0013996834175825,-0.0013487768005681,0.0013487767989946,-0.0013487767986728,0.0013487767978658,-0.0013487768007167,0.0013487767974931,-0.0013487768001489,0.0013487767974766,-7.1669726421407e-12,7.1454185653088e-12,-0.0013754426779287,0.0013754426778969,1.0945277393995e-13,-1.4780466113965e-13,-0.0013996834200303,0.0013996834152295,-0.0013996834199398,0.0013996834149169,-0.0013996834151529,0.0013996834202076,-0.0013996834150841,0.001399683419775,-0.0013487767908419,0.0013487768054335,-0.0013487768053588,0.0013487767907457,0.0037716437098612,0.0036527831196143,0.74771681394541,0.81827565817244,1368840,32768,0.0057146048220632,0.0057146048221339,0.0057146048220421,20.850692038958,20.860888516826,8.2005536311661e-05,8.2005536311661e-05,8.2005536311661e-05,265655.17226043,0.017291807849711
25833600,0.99993577656851,0.016913996214027,0.0056379987380037,0.0056379987380629,0.0056379987379606,-0.0013752430957041,0.0013752430952986,6.6998992050312e-12,-7.1163068370051e-12,1.1634350460932e-14,-4.3741040211835e-13,-0.0013995402251651,0.0013995402296692,-0.0013995402297932,0.0013995402248747,-0.001399540225928,0.0013995402298709,-0.0013995402305564,0.0013995402253955,-0.0013485235286349,0.0013485235424852,-0.0013485235428053,0.0013485235279166,-7.4209965289441e-13,-2.7125406631565e-13,-8.5262954098808e-14,1.5661877422748e-13,-0.0013752430958344,0.0013752430952034,-0.0013995402277731,0.0013995402275001,-0.0013995402276519,0.0013995402277572,-0.0013995402275934,0.0013995402278182,-0.0013995402275492,0.0013995402278266,-0.0013485235359612,0.0013485235345057,-0.0013485235341263,0.0013485235332556,-0.0013485235360978,0.0013485235329275,-0.0013485235355688,0.001348523532977,-7.1593238169835e-12,7.1434608604095e-12,-0.0013752430955126,0.0013752430954735,9.6951508786192e-14,-1.4888583399291e-13,-0.0013995402303149,0.0013995402254772,-0.0013995402301904,0.0013995402251559,-0.0013995402253754,0.0013995402304072,-0.0013995402253581,0.0013995402300328,-0.0013485235262423,0.0013485235408481,-0.0013485235407369,0.0013485235262623,0.0037706068381018,0.003652577424383,0.74742151590498,0.79960567941862,1368840,32768,0.0057137778287093,0.005713777828782,0.0057137778286751,20.803716621385,20.801103794807,8.1629732971075e-05,8.1629732971075e-05,8.1629732971075e-05,268266.04795418,0.017289284477844
25920000,0.99993719680047,0.016914019471617,0.0056380064905337,0.0056380064905929,0.0056380064904906,-0.0013750863214914,0.0013750863210537,6.6799474616021e-12,-7.1182053084198e-12,3.5446564190619e-15,-4.5386472297955e-13,-0.0013994061257923,0.001399406130222,-0.0013994061304287,0.0013994061254205,-0.0013994061265663,0.0013994061303998,-0.0013994061311804,0.001399406125899,-0.0013483443594534,0.0013483443733308,-0.0013483443736268,0.0013483443586717,-7.9936081536991e-13,-3.1982646481515e-13,-1.1892030824268e-13,1.2538652246898e-13,-0.0013750863216372,0.001375086320934,-0.001399406128411,0.0013994061281624,-0.0013994061282411,0.0013994061283176,-0.0013994061281652,0.0013994061283334,-0.0013994061281807,0.0013994061283784,-0.0013483443668214,0.0013483443653258,-0.00134834436497,0.0013483443638651,-0.0013483443671251,0.0013483443638258,-0.0013483443664315,0.0013483443635173,-7.1328628018199e-12,7.152064421106e-12,-0.0013750863212752,0.0013750863212676,1.1712021617544e-13,-1.3133407606942e-13,-0.0013994061309219,0.0013994061260943,-0.0013994061307915,0.0013994061256411,-0.0013994061258788,0.0013994061311201,-0.0013994061259085,0.0013994061306511,-0.0013483443569538,0.0013483443717,-0.0013483443714675,0.0013483443570458,0.0037697445470905,0.0036523758021574,0.74679293043569,0.7809357006648,1368840,32768,0.0057131282719605,0.0057131282720146,0.0057131282719557,20.745088428242,20.741319072787,8.1160707425931e-05,8.1160707425931e-05,8.1160707425931e-05,269069.56729014,0.017287302307406
26006400,0.99993858056841,0.01691404197192,0.0056380139906348,0.0056380139906939,0.0056380139905917,-0.0013749250993246,0.0013749250989029,6.707895490162e-12,-7.1037280448079e-12,1.1695407419214e-14,-4.5603683309367e-13,-0.0013992684302721,0.0013992684349083,-0.0013992684350157,0.0013992684300656,-0.0013992684310765,0.0013992684349701,-0.0013992684355887,0.0013992684305838,-0.0013481602160951,0.0013481602302014,-0.0013481602301985,0.0013481602157267,-7.7027146873536e-13,-2.8072701221777e-13,-7.7937324950574e-14,1.7432661561803e-13,-0.0013749250994483,0.0013749250988208,-0.001399268432873,0.0013992684327209,-0.0013992684327545,0.0013992684329526,-0.0013992684326772,0.0013992684330186,-0.0013992684327082,0.0013992684329397,-0.0013481602233133,0.0013481602219771,-0.0013481602215905,0.0013481602207931,-0.0013481602238092,0.0013481602204868,-0.0013481602232334,0.0013481602204921,-7.1404433937675e-12,7.1577714526425e-12,-0.0013749250991055,0.0013749250990999,1.1817077231696e-13,-1.3822645374731e-13,-0.0013992684353224,0.001399268430551,-0.0013992684352545,0.0013992684304308,-0.0013992684304395,0.0013992684355252,-0.0013992684304971,0.0013992684353032,-0.0013481602136107,0.0013481602281772,-0.0013481602284182,0.0013481602139605,0.0037688669515476,0.003652178135379,0.74152872642786,0.69652168285282,1368840,32768,0.0057124602945306,0.0057124602946168,0.0057124602944848,20.685415144207,20.681534350768,8.0683321153651e-05,8.0683321153651e-05,8.0683321153651e-05,269975.26796378,0.01728526389554
26092800,0.99993992890878,0.016914063570963,0.0056380211903158,0.0056380211903749,0.0056380211902726,-0.0013745827530586,0.0013745827526076,6.6780358141193e-12,-7.1425617996399e-12,1.2913487854751e-14,-4.5720032696149e-13,-0.0013990394808926,0.0013990394853209,-0.0013990394855422,0.0013990394805624,-0.0013990394816833,0.0013990394855358,-0.0013990394862579,0.0013990394810541,-0.0013477135448808,0.0013477135586298,-0.0013477135589503,0.0013477135440389,-7.7655236509359e-13,-2.8438542986739e-13,-7.5999560618532e-14,1.4683372021299e-13,-0.0013745827531817,0.0013745827525199,-0.0013990394834965,0.0013990394832247,-0.0013990394833426,0.0013990394834946,-0.0013990394833236,0.0013990394835263,-0.001399039483266,0.0013990394835385,-0.0013477135519688,0.001347713550703,-0.0013477135501527,0.0013477135495042,-0.0013477135523155,0.001347713549159,-0.0013477135517403,0.0013477135491984,-7.1536471080501e-12,7.1534069977383e-12,-0.0013745827528378,0.0013745827528189,1.005127529338e-13,-1.2636093387785e-13,-0.0013990394859698,0.0013990394811766,-0.0013990394858849,0.0013990394808939,-0.0013990394810684,0.0013990394861491,-0.0013990394810146,0.0013990394857118,-0.0013477135423851,0.0013477135571147,-0.0013477135568713,0.0013477135425271,0.0037672469904874,0.0036519843023534,0.73054856092315,0.53839686589601,1368840,32768,0.0057110417999523,0.0057110418000258,0.0057110417999328,20.625641147333,20.621749628748,8.0205129178661e-05,8.0205129178661e-05,8.0205129178661e-05,276112.52738082,0.017280935492771
26179200,0.99994124283333,0.016914084982991,0.0056380283276584,0.0056380283277176,0.0056380283276153,-0.0013739945069352,0.0013739945064767,6.6342366227427e-12,-7.0986886693456e-12,2.3189585691722e-14,-4.7949917515875e-13,-0.0013986892188003,0.0013986892232129,-0.0013986892234196,0.0013986892184593,-0.0013986892196029,0.0013986892234103,-0.0013986892241588,0.0013986892189258,-0.0013469085603709,0.0013469085741612,-0.001346908574565,0.0013469085597265,-7.9184475086287e-13,-2.6719407269861e-13,-8.9125894912148e-14,1.5829863467361e-13,-0.001373994507045,0.0013739945064002,-0.0013986892213557,0.0013986892210922,-0.0013986892212077,0.0013986892213552,-0.0013986892211582,0.0013986892214173,-0.0013986892211203,0.0013986892214254,-0.0013469085676874,0.0013469085662923,-0.0013469085658263,0.0013469085650333,-0.0013469085679667,0.0013469085646867,-0.0013469085673789,0.0013469085647246,-7.110049204642e-12,7.1093422556506e-12,-0.0013739945067122,0.0013739945066875,1.0580479714784e-13,-1.4556196494659e-13,-0.0013986892238311,0.0013986892190598,-0.0013986892237523,0.0013986892187613,-0.0013986892189835,0.0013986892240116,-0.0013986892189177,0.0013986892235883,-0.0013469085580103,0.0013469085725527,-0.0013469085725661,0.0013469085580805,0.0037646151076426,0.0036517944090784,0.74324488546644,0.78002189925125,1368840,32768,0.0057086043986041,0.0057086043986731,0.0057086043985789,20.565855964012,20.561964906728,7.9726847712095e-05,7.9726847712095e-05,7.9726847712095e-05,289577.77207973,0.017273498133071
26265600,0.99994252332298,0.016914106090545,0.0056380353635095,0.0056380353635686,0.0056380353634664,-0.0013745559495703,0.0013745559491491,6.6672562022525e-12,-7.0904457446907e-12,4.699462317005e-14,-4.6998911274345e-13,-0.0013989224984288,0.0013989225028435,-0.0013989225030073,0.0013989224980822,-0.0013989224992426,0.0013989225030884,-0.0013989225038515,0.0013989224985797,-0.0013477756555835,0.0013477756693794,-0.0013477756699068,0.0013477756548046,-7.5482849933101e-13,-2.1596004962755e-13,-7.1898597664841e-14,1.7859219118997e-13,-0.00137455594968,0.0013745559490729,-0.0013989225009667,0.0013989225007342,-0.0013989225008464,0.0013989225009603,-0.0013989225007766,0.001398922501069,-0.0013989225007718,0.0013989225011086,-0.0013477756627678,0.0013477756615545,-0.0013477756609943,0.0013477756603518,-0.0013477756630575,0.0013477756601547,-0.001347775662628,0.0013477756602112,-7.1056689855135e-12,7.1385186290383e-12,-0.0013745559493598,0.0013745559493482,9.6476170366278e-14,-1.580862588086e-13,-0.0013989225034093,0.0013989224987343,-0.0013989225033858,0.0013989224983628,-0.0013989224986131,0.0013989225036657,-0.0013989224985288,0.0013989225032473,-0.0013477756533482,0.0013477756680921,-0.0013477756678739,0.0013477756533158,0.0037667174596138,0.0036516083460138,0.75194069633796,0.92560067273982,1368840,32768,0.0057109310071175,0.0057109310071869,0.0057109310070941,20.506068757427,20.502180184709,7.9248550059414e-05,7.9248550059414e-05,7.9248550059414e-05,270179.60700549,0.017280596490894
26352000,0.99994377132837,0.01691412668962,0.0056380422298679,0.005638042229927,0.0056380422298247,-0.001374801291145,0.0013748012906751,6.6184725160901e-12,-7.1129894089384e-12,3.3952374542969e-14,-4.9223966829837e-13,-0.0013989917043455,0.0013989917087561,-0.0013989917090004,0.0013989917040503,-0.0013989917051791,0.001398991708977,-0.0013989917097768,0.0013989917045149,-0.0013481832741858,0.0013481832879226,-0.0013481832883181,0.0013481832734222,-7.6621073984667e-13,-2.1817298202398e-13,-5.8081166836692e-14,1.9996786170732e-13,-0.0013748012912265,0.0013748012906261,-0.0013989917069685,0.0013989917066942,-0.0013989917068168,0.0013989917069149,-0.0013989917067131,0.0013989917070234,-0.001398991706674,0.0013989917070131,-0.0013481832812875,0.0013481832798966,-0.0013481832793993,0.0013481832787848,-0.0013481832817464,0.0013481832782915,-0.0013481832811006,0.001348183278419,-7.1184824176014e-12,7.0994862332159e-12,-0.0013748012909223,0.0013748012908841,1.1477584661785e-13,-1.4697662761197e-13,-0.0013989917094207,0.0013989917046118,-0.0013989917093817,0.001398991704301,-0.0013989917045612,0.0013989917095543,-0.0013989917045062,0.0013989917091438,-0.0013481832716107,0.001348183286234,-0.0013481832861725,0.0013481832717265,0.0037675258855904,0.0036514259846333,0.75272439661105,0.8874016471762,1368840,32768,0.0057119477426554,0.0057119477427226,0.0057119477426272,20.446283330569,20.442395462689,7.8770266644547e-05,7.8770266644547e-05,7.8770266644547e-05,259723.87759498,0.017283698334976
26438400,0.99994498777035,0.016914146894061,0.0056380489646816,0.0056380489647407,0.0056380489646384,-0.0013746113262753,0.0013746113258146,6.6307172596686e-12,-7.1005589651506e-12,2.8259254346236e-14,-4.8507894587706e-13,-0.0013988331759648,0.0013988331803777,-0.0013988331805648,0.0013988331756343,-0.0013988331767933,0.0013988331805607,-0.0013988331813286,0.0013988331760862,-0.0013479581768696,0.0013479581906622,-0.0013479581911181,0.0013479581761986,-7.8023784074013e-13,-2.4500604464528e-13,-7.1602136133302e-14,1.5883864758835e-13,-0.0013746113263732,0.0013746113257509,-0.0013988331785132,0.0013988331782695,-0.0013988331783746,0.0013988331785168,-0.0013988331783145,0.0013988331786087,-0.0013988331782642,0.0013988331785942,-0.0013479581841973,0.0013479581828267,-0.0013479581822996,0.0013479581815789,-0.0013479581845771,0.0013479581812969,-0.0013479581839953,0.0013479581813123,-7.1049863593085e-12,7.1128175612471e-12,-0.001374611326046,0.0013746113260333,1.0105203057689e-13,-1.3344427631013e-13,-0.0013988331809867,0.0013988331762267,-0.0013988331808909,0.0013988331759451,-0.0013988331761582,0.0013988331811834,-0.0013988331760691,0.0013988331807628,-0.0013479581745389,0.0013479581891373,-0.0013479581891101,0.0013479581745975,0.0037665567363813,0.0036512472773851,0.75734692404056,0.931364395653,1368840,32768,0.0057111605943801,0.005711160594451,0.0057111605943583,20.386496975832,20.38261074067,7.8291975806656e-05,7.8291975806656e-05,7.8291975806656e-05,260998.12215506,0.017281296552114
26524800,0.99994618074909,0.016914166756253,0.0056380555854125,0.0056380555854716,0.0056380555853693,-0.0013747999377015,0.0013747999372446,6.6245774472357e-12,-7.0965206179311e-12,3.0298956740611e-14,-4.8100648205274e-13,-0.0013989619441402,0.0013989619485623,-0.0013989619487578,0.0013989619438103,-0.0013989619449527,0.0013989619487461,-0.0013989619495015,0.0013989619442693,-0.0013481974473054,0.0013481974610267,-0.0013481974614915,0.0013481974466009,-7.8127077977279e-13,-2.4805218688184e-13,-7.5771302885767e-14,1.4770925228962e-13,-0.0013747999378064,0.0013747999371729,-0.0013989619467011,0.0013989619464443,-0.0013989619465538,0.0013989619467006,-0.0013989619464971,0.0013989619467752,-0.0013989619464612,0.0013989619467782,-0.0013481974545545,0.0013481974531809,-0.0013481974527157,0.0013481974519252,-0.0013481974548957,0.00134819745164,-0.0013481974542308,0.0013481974516195,-7.1026211374467e-12,7.1050380930222e-12,-0.0013747999374755,0.0013747999374579,9.7776277707715e-14,-1.2970503760013e-13,-0.0013989619491681,0.0013989619444053,-0.0013989619490802,0.0013989619441107,-0.0013989619443235,0.0013989619493511,-0.0013989619442537,0.001398961948931,-0.0013481974449423,0.0013481974594843,-0.0013481974594222,0.001348197444963,0.0037671598281217,0.0036510721713765,0.75917772897346,0.91692149253238,1368840,32768,0.0057119420584206,0.0057119420584894,0.0057119420583945,20.42554570218,20.427870385526,7.8604365617437e-05,7.8604365617437e-05,7.8604365617437e-05,257170.2665789,0.017283681234339
26611200,0.99994736085893,0.016914186397621,0.0056380621325351,0.0056380621325942,0.005638062132492,-0.0013751281101713,0.0013751281096992,6.6127694550206e-12,-7.0952158342619e-12,4.1117567415951e-14,-5.1581788917638e-13,-0.0013992936486908,0.0013992936530748,-0.0013992936532705,0.0013992936483228,-0.001399293649523,0.0013992936532636,-0.0013992936540054,0.001399293648839,-0.001348516568002,0.0013485165821658,-0.0013485165821969,0.0013485165677646,-8.2508941173189e-13,-2.4610118766e-13,-6.5732286041429e-14,1.1717721443418e-13,-0.0013751281102801,0.0013751281096276,-0.0013992936512253,0.0013992936509374,-0.0013992936510407,0.0013992936511537,-0.0013992936510173,0.0013992936512688,-0.001399293651013,0.0013992936512655,-0.0013485165752455,0.0013485165741208,-0.0013485165734697,0.0013485165730738,-0.0013485165759757,0.0013485165724065,-0.0013485165755511,0.0013485165723589,-7.0925045641482e-12,7.1020817127493e-12,-0.0013751281099306,0.001375128109927,8.6408919090365e-14,-1.006858652924e-13,-0.0013992936536547,0.0013992936489475,-0.0013992936536026,0.0013992936486545,-0.0013992936488156,0.0013992936538357,-0.0013992936487836,0.0013992936534616,-0.0013485165654942,0.0013485165800869,-0.0013485165804758,0.0013485165660075,0.0037683657205955,0.0036509006356777,0.75888689839406,0.87726751581882,1368840,32768,0.0057133015876934,0.0057133015877707,0.005713301587667,20.606409118392,20.617856096652,8.0051272947131e-05,8.0051272947131e-05,8.0051272947131e-05,256963.43077622,0.017287830540752
26697600,0.99994852852339,0.016914205800963,0.0056380686003158,0.0056380686003749,0.0056380686002726,-0.0013754089232342,0.00137540892277,6.6215865974276e-12,-7.0980847466186e-12,4.110480310001e-14,-4.9390226456602e-13,-0.0013996129524497,0.0013996129568453,-0.0013996129570383,0.0013996129521246,-0.0013996129532227,0.0013996129571956,-0.0013996129580606,0.0013996129528546,-0.0013487579764786,0.001348757990193,-0.0013487579905576,0.0013487579757173,-7.9285545528067e-13,-2.3574203353681e-13,-3.4182543982039e-14,1.8253827652213e-13,-0.0013754089233043,0.0013754089227087,-0.0013996129549992,0.0013996129547253,-0.001399612954942,0.0013996129550903,-0.001399612954768,0.0013996129551262,-0.0013996129547327,0.0013996129549781,-0.001348757983597,0.0013487579822479,-0.0013487579821181,0.0013487579810479,-0.001348757983522,0.0013487579807078,-0.0013487579837589,0.001348757980859,-7.1023063823564e-12,7.103443112336e-12,-0.0013754089230433,0.0013754089229437,3.1772705836235e-14,-1.8760609229207e-13,-0.0013996129577173,0.001399612952731,-0.0013996129574493,0.0013996129523296,-0.001399612952693,0.0013996129576593,-0.0013996129525175,0.0013996129571021,-0.001348757973973,0.0013487579887704,-0.0013487579884308,0.0013487579739804,0.0037693816150971,0.0036507325927974,0.75768460947559,0.83761353910525,1368840,32768,0.0057144648629794,0.0057144648629978,0.0057144648629439,20.795563125875,20.807841807777,8.1564505006996e-05,8.1564505006996e-05,8.1564505006996e-05,258692.75252309,0.017291381097987
26784000,0.99994968360407,0.01691422494521,0.0056380749817313,0.0056380749817904,0.0056380749816882,-0.0013756838415144,0.001375683841122,6.6588592823021e-12,-7.0584709567927e-12,4.5428023969757e-16,-4.5020559946915e-13,-0.001399932627512,0.001399932631963,-0.0013999326321899,0.0013999326273195,-0.0013999326283172,0.0013999326322014,-0.0013999326328365,0.0013999326278625,-0.0013489892501259,0.0013489892635148,-0.0013489892640047,0.0013489892490339,-7.6348614661053e-13,-2.9125863166049e-13,-8.463264982476e-14,7.8883325462672e-14,-0.0013756838416847,0.0013756838409967,-0.0013999326300533,0.0013999326300789,-0.0013999326301696,0.0013999326302478,-0.0013999326300417,0.0013999326301862,-0.0013999326301296,0.001399932630362,-0.0013489892566377,0.0013489892556459,-0.0013489892553748,0.0013489892541415,-0.0013489892570657,0.0013489892540572,-0.0013489892567916,0.0013489892541217,-7.1137742673145e-12,7.0902459860873e-12,-0.0013756838413448,0.0013756838412728,3.2133694808269e-14,-1.3528613180742e-13,-0.0013999326327188,0.0013999326279488,-0.0013999326325322,0.0013999326276253,-0.001399932627863,0.001399932632801,-0.0013999326278602,0.0013999326324812,-0.0013489892473803,0.001348989262166,-0.0013489892618292,0.0013489892472705,0.00377037466244,0.0036505679650063,0.75573592981197,0.7979595623917,1368840,32768,0.0057156037322121,0.0057156037323053,0.0057156037321735,20.985460334847,20.997827518903,8.3083682678774e-05,8.3083682678774e-05,8.3083682678774e-05,260784.68112138,0.017294857129778
26870400,0.99995082591858,0.016914243814046,0.0056380812713433,0.0056380812714024,0.0056380812713001,-0.0013759523810459,0.0013759523805736,6.6297444070357e-12,-7.1034185836735e-12,7.3813039179967e-15,-4.7106949150333e-13,-0.0014002506431787,0.0014002506475363,-0.0014002506478601,0.001400250642764,-0.0014002506439589,0.0014002506476717,-0.0014002506484516,0.0014002506432719,-0.0013492108135018,0.0013492108274471,-0.001349210827887,0.0013492108132917,-7.7339807910192e-13,-2.7190610521983e-13,-8.7694056300893e-14,5.4975908759018e-14,-0.0013759523811934,0.0013759523804878,-0.0014002506456295,0.0014002506454976,-0.0014002506456187,0.0014002506456841,-0.0014002506455799,0.0014002506456275,-0.0014002506456666,0.0014002506457165,-0.0013492108206785,0.0013492108195273,-0.0013492108187844,0.0013492108181367,-0.0013492108211294,0.0013492108179455,-0.0013492108203626,0.0013492108180545,-7.0904746261614e-12,7.1294772287763e-12,-0.001375952380793,0.0013759523808632,9.0610320152211e-14,-5.7254192100203e-14,-0.0014002506480807,0.0014002506435648,-0.0014002506480637,0.0014002506431932,-0.0014002506432321,0.0014002506484862,-0.0014002506432461,0.0014002506480097,-0.0013492108111269,0.0013492108255331,-0.0013492108259179,0.0013492108114622,0.003771343046538,0.003650406677297,0.75321649097149,0.75830558567814,1368840,32768,0.0057167161862895,0.0057167161864173,0.0057167161863658,21.175429067463,21.187813230028,8.4603432539703e-05,8.4603432539703e-05,8.4603432539703e-05,263175.48428462,0.017298252513295
26956800,0.99995195528596,0.016914262396004,0.0056380874653294,0.0056380874653886,0.0056380874652863,-0.0013762152646387,0.0013762152642066,6.6773386001246e-12,-7.0285402240972e-12,1.909976945633e-14,-4.578159552133e-13,-0.0014005668303059,0.0014005668345982,-0.0014005668348434,0.0014005668298955,-0.0014005668311721,0.0014005668347588,-0.0014005668354872,0.0014005668303871,-0.0013494240100466,0.0013494240243195,-0.0013494240243756,0.0013494240099238,-7.9017615477852e-13,-2.9054447700684e-13,-7.129082211432e-14,1.0387629723866e-13,-0.0013762152647596,0.0013762152641147,-0.0014005668327269,0.0014005668324921,-0.0014005668326238,0.0014005668326992,-0.0014005668325341,0.0014005668328389,-0.00140056683261,0.0014005668329181,-0.0013494240177475,0.0013494240161967,-0.0013494240160045,0.0013494240149124,-0.0013494240183004,0.0013494240147368,-0.0013494240176346,0.0013494240145231,-7.0889860834e-12,7.1032552651334e-12,-0.0013762152643966,0.0013762152644012,8.9442620530515e-14,-8.9958869465347e-14,-0.0014005668350783,0.001400566830677,-0.0014005668350075,0.0014005668300282,-0.0014005668302979,0.0014005668354663,-0.0014005668302503,0.0014005668350042,-0.0013494240078848,0.0013494240224529,-0.0013494240228152,0.0013494240081949,0.003772290130468,0.0036502486574332,0.75029973719985,0.71865160896458,1368840,32768,0.0057178052163546,0.0057178052164147,0.0057178052162564,21.365405012206,21.377798941154,8.6123240097645e-05,8.6123240097645e-05,8.6123240097645e-05,265813.92001428,0.017301576389198
27043200,0.99995307153114,0.01691428068335,0.0056380935611112,0.0056380935611703,0.005638093561068,-0.0013764732411927,0.0013764732406707,6.5398410358749e-12,-7.0803629938883e-12,-8.5234219682507e-14,-5.6120562025941e-13,-0.0014008816131379,0.001400881617335,-0.0014008816176626,0.0014008816124825,-0.0014008816137542,0.0014008816173763,-0.0014008816181962,0.0014008816132035,-0.0013496297512419,0.0013496297657541,-0.0013496297672916,0.0013496297504261,-7.6035938918965e-13,-2.6153724551079e-13,-3.2888289402981e-14,3.3995137942459e-15,-0.0013764732412787,0.0013764732406255,-0.0014008816156144,0.0014008816154034,-0.001400881615303,0.0014008816154202,-0.0014008816152219,0.0014008816156387,-0.0014008816152102,0.0014008816155169,-0.001349629758971,0.0013496297576946,-0.0013496297567578,0.001349629755728,-0.0013496297589837,0.0013496297550775,-0.001349629759163,0.0013496297558038,-6.9906045594763e-12,7.1159894349368e-12,-0.0013764732409038,0.0013764732409616,5.8349629223586e-14,1.8350527639271e-14,-0.0014008816182311,0.0014008816132339,-0.0014008816179387,0.0014008816129934,-0.0014008816131513,0.0014008816182107,-0.0014008816128145,0.0014008816176612,-0.0013496297484855,0.0013496297644139,-0.0013496297636905,0.0013496297482843,0.0037732193765814,0.0036500938356214,0.7471181985767,0.67899763225101,1368840,32768,0.0057188739211794,0.0057188739212638,0.0057188739211834,21.555381913347,21.567784652279,8.7643055306777e-05,8.7643055306777e-05,8.7643055306777e-05,268659.46065527,0.017304838227657
27129600,0.99995417448548,0.016914298670744,0.0056380995569095,0.0056380995569686,0.0056380995568663,-0.0013767268111935,0.0013767268108595,6.7585331196877e-12,-7.0360364656804e-12,1.3020519879114e-13,-3.0873592127071e-13,-0.0014011942410183,0.0014011942456958,-0.0014011942459303,0.0014011942406145,-0.0014011942419594,0.0014011942457758,-0.0014011942466593,0.0014011942411462,-0.001349829484529,0.0013498294979766,-0.0013498294977928,0.0013498294840002,-8.8150301186454e-13,-4.2018110493214e-13,-1.0924242742471e-13,-3.7323977425169e-14,-0.0013767268115053,0.001376726810589,-0.001401194243636,0.0014011942433926,-0.0014011942437362,0.0014011942436754,-0.0014011942436711,0.00140119424351,-0.0014011942439778,0.0014011942434618,-0.0013498294924764,0.0013498294901616,-0.0013498294897439,0.0013498294889766,-0.0013498294924012,0.0013498294888173,-0.0013498294921241,0.0013498294882137,-7.1507239032344e-12,7.1296813695987e-12,-0.0013767268110343,0.0013767268109668,4.053993800331e-16,-7.6238347441406e-14,-0.0014011942463076,0.0014011942411788,-0.0014011942460235,0.0014011942411888,-0.0014011942415738,0.0014011942464122,-0.0014011942413295,0.0014011942459925,-0.0013498294825655,0.0013498294966963,-0.0013498294970158,0.0013498294831572,0.0037741330607898,0.0036499421441085,0.74375506931807,0.63934365553745,1368840,32768,0.0057199243719001,0.0057199243719856,0.0057199243717926,21.745359125665,21.757770363405,8.9162873005319e-05,8.9162873005319e-05,8.9162873005319e-05,271670.29547472,0.017308044356446
27216000,0.99995526398698,0.016914316354385,0.0056381054514564,0.0056381054515155,0.0056381054514132,-0.0013769761981584,0.0013769761977682,6.7917401640588e-12,-7.0724144720043e-12,4.4689340653672e-14,-4.7096772990619e-13,-0.0014015050144789,0.0014015050188038,-0.0014015050190489,0.0014015050141645,-0.0014015050150823,0.0014015050192158,-0.0014015050196879,0.001401505014812,-0.0013500233027695,0.0013500233161755,-0.0013500233159621,0.001350023301907,-8.3561811949886e-13,-2.9798507323115e-13,-1.0819169481799e-14,-6.7044393016285e-14,-0.0013769761983182,0.0013769761976226,-0.0014015050168041,0.0014015050167738,-0.0014015050167646,0.0014015050169894,-0.0014015050165469,0.0014015050169471,-0.00140150501701,0.0014015050170088,-0.0013500233094754,0.0013500233082568,-0.0013500233081488,0.0013500233064935,-0.0013500233105581,0.0013500233055643,-0.0013500233096401,0.0013500233065113,-7.0072451687642e-12,7.3423751072452e-12,-0.0013769761978359,0.0013769761980892,1.1989433731029e-13,1.7138249967639e-13,-0.0014015050194874,0.0014015050149232,-0.0014015050193297,0.0014015050147044,-0.0014015050146041,0.0014015050199199,-0.0014015050145925,0.0014015050196068,-0.0013500232997244,0.0013500233142437,-0.001350023313452,0.0013500233004332,0.0037750322351601,0.0036497935169111,0.74026139340478,0.59968967882389,1368840,32768,0.00572095749208,0.0057209574921094,0.0057209574920771,21.935336552691,21.947756074531,9.0682692421525e-05,9.0682692421525e-05,9.0682692421525e-05,274834.03645782,0.017311197600106
27302400,0.99995633785116,0.016914333769492,0.0056381112564921,0.0056381112565512,0.0056381112564489,-0.0013771611207925,0.0013771611203423,6.7202218783051e-12,-7.1553898195174e-12,2.5692626872591e-14,-4.9234248868669e-13,-0.0014017539484994,0.0014017539527727,-0.0014017539530639,0.0014017539480808,-0.0014017539493975,0.0014017539531331,-0.0014017539538006,0.001401753948583,-0.0013501507426136,0.0013501507565326,-0.0013501507568024,0.0013501507416269,-7.83223896577e-13,-2.4347297383248e-13,3.8862606891683e-14,7.5142998550621e-15,-0.0013771611209232,0.001377161120257,-0.001401753950857,0.0014017539507662,-0.0014017539508987,0.0014017539508985,-0.001401753950947,0.0014017539509812,-0.0014017539508813,0.0014017539508777,-0.0013501507498677,0.001350150748619,-0.0013501507479523,0.0013501507470821,-0.001350150750389,0.0013501507467857,-0.0013501507495819,0.0013501507471252,-7.0718941937808e-12,7.2898173304962e-12,-0.0013771611205055,0.0013771611206455,5.0352697053786e-14,7.6040353489985e-14,-0.0014017539534807,0.0014017539485675,-0.0014017539533621,0.0014017539484882,-0.001401753948564,0.0014017539535589,-0.0014017539483777,0.0014017539532291,-0.0013501507399508,0.0013501507552242,-0.0013501507547163,0.0013501507405526,0.0037756641322146,0.0036496478975146,0.73966765753604,0.60576459798308,1368840,32768,0.0057217235400818,0.0057217235401758,0.0057217235401154,22.09408356963,22.104535214245,9.1952668557039e-05,9.1952668557039e-05,9.1952668557039e-05,278157.4877125,0.01731353577382
27388800,0.99995739341136,0.016914350992424,0.0056381169974693,0.0056381169975285,0.0056381169974262,-0.0013773990349006,0.0013773990344121,6.6184134590707e-12,-7.1644489545317e-12,2.0134561373559e-14,-4.8829343591189e-13,-0.0014019921849057,0.0014019921893605,-0.0014019921895803,0.0014019921845852,-0.0014019921858275,0.0014019921895851,-0.0014019921904208,0.0014019921851363,-0.0013503902639205,0.0013503902777426,-0.001350390278254,0.0013503902632579,-7.2608578916578e-13,-1.9576072552656e-13,1.4665084344681e-13,5.1155172538711e-14,-0.0013773990349424,0.0013773990343833,-0.0014019921864041,0.0014019921862368,-0.0014019921864522,0.0014019921864365,-0.0014019921863067,0.0014019921866653,-0.0014019921862755,0.0014019921864986,-0.0013503902718643,0.0013503902708131,-0.0013503902701544,0.0013503902692612,-0.0013503902732465,0.0013503902700424,-0.0013503902725506,0.0013503902700655,-7.1058832142631e-12,7.1635204828959e-12,-0.0013773990346072,0.0013773990346693,-1.6481731788525e-14,7.3812421551777e-14,-0.0014019921889589,0.001401992184052,-0.0014019921887825,0.0014019921838991,-0.0014019921840263,0.0014019921890953,-0.0014019921838726,0.0014019921888008,-0.0013503902633718,0.0013503902781404,-0.001350390277919,0.0013503902635426,0.0037765112429745,0.0036495052408709,0.7442144222707,0.6936596777507,1368840,32768,0.0057227092255689,0.0057227092255952,0.0057227092254932,22.211641207397,22.219426561152,9.2893129659172e-05,9.2893129659172e-05,9.2893129659172e-05,277695.64512638,0.017316543927868
27475200,0.99995843063835,0.016914367939318,0.0056381226464338,0.005638122646493,0.0056381226463907,-0.0013778640546547,0.0013778640541951,6.6576269670073e-12,-7.1231313932254e-12,3.8032014618648e-14,-4.8954727996075e-13,-0.0014023400526129,0.0014023400570414,-0.0014023400572702,0.0014023400522997,-0.0014023400534316,0.001402340057239,-0.0014023400579924,0.0014023400527544,-0.0013509651377482,0.0013509651516432,-0.0013509651521291,0.0013509651372653,-7.9335996927987e-13,-2.4405460312293e-13,9.5943421935494e-14,-1.2788579905898e-14,-0.0013778640547554,0.0013778640541268,-0.0014023400549691,0.0014023400548485,-0.0014023400549572,0.0014023400549848,-0.0014023400548201,0.0014023400551764,-0.0014023400548277,0.0014023400550413,-0.0013509651451287,0.0013509651440868,-0.001350965143537,0.0013509651424576,-0.001350965145881,0.0013509651425319,-0.001350965145271,0.0013509651425197,-7.0761118296408e-12,7.1911200221018e-12,-0.0013778640543651,0.0013778640544669,4.9101147052485e-15,1.0851265560109e-13,-0.0014023400575416,0.0014023400527416,-0.0014023400573127,0.0014023400525413,-0.0014023400526546,0.001402340057692,-0.0014023400524878,0.001402340057412,-0.0013509651357733,0.0013509651504816,-0.0013509651504113,0.001350965135995,0.0037782958885925,0.0036493654642624,0.74522273414727,0.71481564294861,1368840,32768,0.0057246359598925,0.0057246359599594,0.0057246359598557,22.32677217086,22.334317908059,9.3814177366877e-05,9.3814177366877e-05,9.3814177366877e-05,270550.15359996,0.017322423499425
27561600,0.99995944965421,0.016914384617069,0.0056381282056844,0.0056381282057435,0.0056381282056412,-0.0013781427785628,0.0013781427781022,6.6480193193379e-12,-7.131858714847e-12,2.7103348481897e-14,-4.9222631576511e-13,-0.001402591762971,0.0014025917673996,-0.0014025917675804,0.0014025917626425,-0.0014025917637646,0.0014025917675853,-0.0014025917683456,0.0014025917630961,-0.0013512695133172,0.0013512695271525,-0.0013512695276306,0.0013512695125791,-7.8232451228786e-13,-2.4100957849928e-13,8.7009900730788e-14,-2.6682537807962e-14,-0.001378142778669,0.0013781427780273,-0.0014025917654298,0.0014025917652885,-0.0014025917654328,0.0014025917654368,-0.001402591765227,0.0014025917656262,-0.0014025917653247,0.0014025917655029,-0.0013512695205208,0.0013512695193868,-0.0013512695188958,0.0013512695177319,-0.0013512695209527,0.0013512695177025,-0.001351269520586,0.0013512695178196,-7.0726506412601e-12,7.1936994727132e-12,-0.0013781427782773,0.0013781427783768,-2.3121646590744e-15,1.0588647112334e-13,-0.0014025917679873,0.0014025917632033,-0.0014025917677786,0.0014025917630237,-0.0014025917631236,0.0014025917681503,-0.0014025917629474,0.0014025917678501,-0.0013512695108616,0.0013512695257846,-0.001351269525471,0.0013512695111034,0.0037793180467599,0.0036492285101984,0.74641612853729,0.73597160814651,1368840,32768,0.0057257907298327,0.0057257907298974,0.0057257907298103,22.441684475085,22.449209254966,9.4733475800681e-05,9.4733475800681e-05,9.4733475800681e-05,268636.27305838,0.017325947647368
27648000,0.99996045059699,0.016914401030345,0.0056381336767764,0.0056381336768355,0.0056381336767333,-0.0013784216723533,0.0013784216718987,6.6481502565143e-12,-7.1081815558151e-12,2.4535603395335e-14,-4.7543500519871e-13,-0.0014028433710384,0.0014028433754634,-0.0014028433756633,0.0014028433706976,-0.0014028433718346,0.0014028433756606,-0.0014028433764035,0.0014028433711636,-0.0013515740408786,0.0013515740546447,-0.0013515740550966,0.0013515740402106,-7.8526556949941e-13,-2.6336630728127e-13,8.0464806561275e-14,-1.5728931256653e-15,-0.0013784216724634,0.0013784216718215,-0.0014028433735337,0.0014028433733889,-0.0014028433735016,0.0014028433735386,-0.0014028433733438,0.0014028433737171,-0.0014028433734265,0.0014028433736116,-0.0013515740480449,0.0013515740469802,-0.0013515740464204,0.0013515740454054,-0.001351574048531,0.0013515740451557,-0.0013515740479206,0.0013515740451844,-7.0676282652785e-12,7.1751340398744e-12,-0.0013784216720764,0.0013784216721638,-1.3499587596865e-17,7.6699950986793e-14,-0.0014028433760731,0.0014028433713017,-0.0014028433758907,0.0014028433711131,-0.0014028433712191,0.0014028433762529,-0.0014028433710422,0.0014028433759467,-0.0013515740384372,0.001351574053202,-0.0013515740529702,0.0013515740386847,0.0037803442087736,0.0036490943216505,0.74782121133835,0.75712757334442,1368840,32768,0.0057269461982038,0.0057269461982719,0.0057269461981795,22.556575746986,22.564100601873,9.5652605975886e-05,9.5652605975886e-05,9.5652605975886e-05,266697.90577558,0.01732947395333
27734400,0.99996143360898,0.016914417185547,0.0056381390618438,0.0056381390619029,0.0056381390618006,-0.0013787007456485,0.0013787007451909,6.6423814327479e-12,-7.1165382417005e-12,1.3711051725017e-14,-4.7431268654359e-13,-0.0014030947474113,0.0014030947518372,-0.0014030947520374,0.001403094747076,-0.0014030947482186,0.0014030947520286,-0.0014030947527648,0.0014030947475454,-0.0013518787297324,0.0013518787434377,-0.0013518787439979,0.001351878729047,-7.9291177708948e-13,-2.8305841158335e-13,6.0576296494547e-14,-1.6086273281276e-15,-0.0013787007457601,0.0013787007451147,-0.0014030947499243,0.0014030947497581,-0.0014030947498672,0.0014030947499421,-0.001403094749735,0.0014030947500847,-0.0014030947497961,0.0014030947499896,-0.0013518787368896,0.0013518787357724,-0.0013518787352154,0.0013518787341159,-0.0013518787374242,0.001351878734094,-0.0013518787367849,0.0013518787339807,-7.0712616836918e-12,7.1741252765738e-12,-0.0013787007453755,0.0013787007454541,1.4960042980956e-14,7.2023770311491e-14,-0.001403094752458,0.0014030947476952,-0.0014030947522734,0.0014030947474844,-0.0014030947476036,0.0014030947526241,-0.0014030947474551,0.0014030947522902,-0.0013518787272346,0.0013518787419419,-0.0013518787417023,0.0013518787273343,0.0037813743844583,0.0036489628433319,0.74946700252588,0.77828353854232,1368840,32768,0.0057281024044274,0.0057281024045005,0.0057281024044071,22.671465063591,22.67899194878,9.6571720508725e-05,9.6571720508725e-05,9.6571720508725e-05,264730.30175074,0.017333002538583
27820800,0.99996239883541,0.016914433089348,0.0056381443631106,0.0056381443631697,0.0056381443630674,-0.0013789799933412,0.0013789799929678,6.6960747336309e-12,-7.0453093588705e-12,5.5980054553642e-14,-4.4361762425668e-13,-0.0014033463203227,0.001403346324826,-0.0014033463249467,0.001403346319997,-0.0014033463210391,0.0014033463249189,-0.0014033463256391,0.0014033463204915,-0.0013521831511538,0.0013521831651657,-0.0013521831654244,0.0013521831508927,-8.542942548381e-13,-3.3315299887516e-13,4.341552662664e-14,-5.8236456210355e-16,-0.0013789799935269,0.0013789799928158,-0.0014033463229212,0.001403346322724,-0.0014033463228438,0.0014033463228539,-0.0014033463227756,0.0014033463229505,-0.0014033463226606,0.0014033463228305,-0.0013521831584407,0.0013521831573806,-0.0013521831566948,0.0013521831556923,-0.001352183159264,0.0013521831552815,-0.0013521831586195,0.0013521831554487,-7.0853990753336e-12,7.142325424508e-12,-0.0013789799931251,0.001378979993168,1.4287210594347e-14,5.3675154378525e-14,-0.0014033463253192,0.0014033463205833,-0.0014033463251382,0.0014033463203361,-0.0014033463204916,0.0014033463255397,-0.0014033463203677,0.0014033463251783,-0.0013521831486852,0.0013521831633969,-0.0013521831633825,0.0013521831489899,0.0037824085489274,0.0036488340211959,0.75137668507833,0.79943950374023,1368840,32768,0.0057292593274697,0.0057292593275395,0.0057292593274367,22.786354310219,22.793883295686,9.7490834481752e-05,9.7490834481752e-05,9.7490834481752e-05,262735.73979303,0.017336533340703
27907200,0.99996334642428,0.016914448748375,0.0056381495827862,0.0056381495828453,0.005638149582743,-0.0013792593881582,0.0013792593878032,6.7066760568266e-12,-7.0244421139975e-12,8.7742672462762e-14,-4.3180922028943e-13,-0.001403597897201,0.0014035979018857,-0.0014035979019133,0.00140359789694,-0.0014035978981708,0.0014035979021033,-0.0014035979028275,0.001403597897695,-0.0013524873531693,0.0013524873669092,-0.0013524873677583,0.0013524873528001,-7.8607825055491e-13,-2.4490887114327e-13,6.0009431458943e-14,3.6202011700451e-14,-0.0013792593883006,0.001379259387676,-0.0014035978998945,0.0014035978996362,-0.0014035978998652,0.0014035979000299,-0.001403597899846,0.0014035979000078,-0.0014035978998266,0.0014035978999539,-0.0013524873604616,0.0013524873594544,-0.0013524873589523,0.0013524873574143,-0.0013524873607335,0.0013524873572586,-0.0013524873601124,0.0013524873575038,-7.0411958962986e-12,7.1760076308338e-12,-0.00137925938792,0.0013792593880335,2.9637035785371e-14,4.8169499043104e-14,-0.0014035979023631,0.0014035978974691,-0.0014035979021923,0.0014035978974635,-0.0014035978975331,0.0014035979027513,-0.0014035978974039,0.0014035979024819,-0.0013524873512124,0.0013524873656061,-0.0013524873654215,0.0013524873506766,0.0037834465461885,0.0036487078023194,0.75355984653901,0.82059546893813,1368840,32768,0.0057304168536958,0.0057304168537273,0.0057304168536795,22.901243677641,22.908774642593,9.8409949421123e-05,9.8409949421123e-05,9.8409949421123e-05,260710.11488609,0.017340066013402
27993600,0.99996427652632,0.016914464168858,0.0056381547229475,0.0056381547230066,0.0056381547229043,-0.0013795388603686,0.0013795388599426,6.634650315987e-12,-7.0682414230175e-12,2.7378693011487e-14,-4.9023325900456e-13,-0.0014038485407959,0.0014038485451922,-0.0014038485452204,0.0014038485404148,-0.00140384854164,0.001403848545609,-0.0014038485460023,0.0014038485411248,-0.0013527919445702,0.0013527919579962,-0.0013527919584102,0.0013527919438052,-8.1210801418703e-13,-2.7310336276209e-13,5.0577131373942e-14,5.7008023149907e-14,-0.0013795388605198,0.0013795388598674,-0.0014038485433585,0.0014038485432048,-0.0014038485432213,0.0014038485436063,-0.0014038485432335,0.0014038485435667,-0.0014038485432142,0.0014038485434817,-0.0013527919510656,0.0013527919503034,-0.0013527919499099,0.0013527919487223,-0.0013527919516986,0.0013527919482291,-0.0013527919507779,0.0013527919489716,-7.02711497352e-12,7.1623816059231e-12,-0.0013795388600663,0.0013795388601859,3.6392652935316e-14,2.4991001247949e-14,-0.0014038485459104,0.0014038485410101,-0.0014038485457248,0.0014038485408276,-0.0014038485411509,0.0014038485461559,-0.00140384854091,0.0014038485457403,-0.0013527919417579,0.0013527919564085,-0.0013527919559581,0.0013527919416974,0.0037844879846627,0.0036485841347761,0.75600933242006,0.84175143413605,1368840,32768,0.0057315746936793,0.0057315746938367,0.005731574693557,23.016133183361,23.0236659895,9.9329065466889e-05,9.9329065466889e-05,9.9329065466889e-05,258643.42613965,0.017343599671916
28080000,0.99996518851599,0.016914479343398,0.0056381597811273,0.0056381597811864,0.0056381597810841,-0.0013797907713818,0.0013797907708995,6.6237227086415e-12,-7.0865350406307e-12,-4.9220849278017e-15,-5.2561617808067e-13,-0.0014040716666992,0.0014040716710388,-0.0014040716711842,0.0014040716663253,-0.0014040716674821,0.0014040716710135,-0.0014040716719543,0.0014040716668375,-0.0013530685318889,0.0013530685459569,-0.0013530685461788,0.0013530685314207,-7.6746396626734e-13,-2.2526135371439e-13,6.5500410772118e-14,7.6486957493598e-14,-0.0013797907714825,0.0013797907708703,-0.0014040716694166,0.0014040716690422,-0.0014040716691223,0.0014040716691859,-0.0014040716691558,0.0014040716691908,-0.0014040716688927,0.0014040716692195,-0.0013530685390597,0.001353068538323,-0.0013530685374841,0.0013530685367191,-0.0013530685398776,0.001353068536428,-0.001353068539044,0.0013530685365632,-7.1293451445761e-12,7.0674938576198e-12,-0.0013797907712074,0.0013797907711154,-4.751298968725e-14,-6.2842139039318e-14,-0.0014040716718675,0.0014040716668756,-0.0014040716716511,0.001404071666574,-0.0014040716669531,0.0014040716718353,-0.0014040716667289,0.0014040716715029,-0.0013530685294674,0.0013530685443427,-0.0013530685445136,0.0013530685298027,0.0037854168928408,0.0036484629632579,0.75870343908292,0.86290739933396,1368840,32768,0.0057326183449639,0.0057326183451119,0.0057326183450498,23.116781696791,23.123413297331,0.00010013425357432,0.00010013425357432,0.00010013425357432,256557.76896503,0.017346784854377
28166400,0.99996608167531,0.016914494262056,0.0056381647540133,0.0056381647540725,0.0056381647539702,-0.0013800090714454,0.0013800090709558,6.6051674519624e-12,-7.0904489210643e-12,9.594236314431e-15,-5.2676984871918e-13,-0.0014042611470269,0.0014042611514965,-0.0014042611516585,0.0014042611466319,-0.0014042611478129,0.0014042611516564,-0.0014042611523604,0.0014042611472107,-0.001353311153624,0.0013533111676545,-0.0013533111679775,0.0013533111532627,-8.3683893514496e-13,-2.7898630068943e-13,3.198631695762e-14,2.7817620779015e-14,-0.0013800090715754,0.0013800090708655,-0.0014042611496133,0.0014042611493631,-0.0014042611495448,0.0014042611494917,-0.001404261149432,0.0014042611496065,-0.0014042611493981,0.0014042611495795,-0.0013533111613389,0.0013533111601673,-0.0013533111594986,0.0013533111584719,-0.0013533111615685,0.0013533111583536,-0.0013533111608641,0.001353311158319,-7.100548318417e-12,7.0817353343172e-12,-0.0013800090712033,0.0013800090711712,-1.8494023255578e-14,-1.8294235241318e-14,-0.0014042611520461,0.0014042611472076,-0.0014042611519299,0.0014042611470396,-0.0014042611473053,0.0014042611521922,-0.0014042611471052,0.0014042611519216,-0.0013533111518336,0.0013533111664012,-0.0013533111663366,0.0013533111518303,0.0037862076593437,0.0036483442327126,0.76161261348791,0.88406336453186,1368840,32768,0.0057335227460892,0.0057335227461717,0.0057335227460343,23.200147709452,23.205654901352,0.00010080118167561,0.00010080118167561,0.00010080118167561,254456.81687887,0.017349545062834
28252800,0.99996695622165,0.016914508929596,0.0056381696431933,0.0056381696432524,0.0056381696431501,-0.0013802249664643,0.0013802249659914,6.5986090640814e-12,-7.083098910308e-12,3.5718144129332e-14,-5.0388431256248e-13,-0.0014044478592555,0.0014044478635251,-0.0014044478636227,0.001404447858742,-0.0014044478599038,0.0014044478638404,-0.0014044478643356,0.0014044478594703,-0.0013535512721151,0.0013535512855156,-0.0013535512861046,0.0013535512712125,-7.5498487690672e-13,-1.9371637621533e-13,8.1503980697571e-14,9.1747167775237e-14,-0.0013802249664782,0.0013802249659461,-0.0014044478614013,0.0014044478613954,-0.0014044478615384,0.0014044478615886,-0.0014044478612803,0.0014044478617084,-0.0014044478613578,0.0014044478617569,-0.0013535512791214,0.0013535512780859,-0.0013535512774358,0.0013535512763807,-0.001353551279494,0.0013535512758106,-0.0013535512789899,0.0013535512762554,-7.1518490453326e-12,7.0168821978889e-12,-0.001380224966296,0.0013802249661711,-5.2135024957833e-14,-6.7125714061395e-14,-0.0014044478641515,0.0014044478593381,-0.0014044478640238,0.0014044478592838,-0.0014044478595138,0.0014044478641221,-0.0014044478590986,0.0014044478640849,-0.0013535512698733,0.0013535512842194,-0.0013535512840753,0.0013535512698263,0.0037869909957276,0.0036482278940076,0.76470629264684,0.90521932972977,1368840,32768,0.0057344171804547,0.0057344171803895,0.0057344171804783,23.282491207812,23.287896505372,0.00010145992966249,0.00010145992966249,0.00010145992966249,252339.59795721,0.017352274865956
28339200,0.99996781242373,0.01691452335091,0.005638174450298,0.0056381744503571,0.0056381744502549,-0.0013804400852384,0.0013804400847758,6.6151871458676e-12,-7.0641684297976e-12,2.5280815923721e-14,-5.0473228665746e-13,-0.0014046330244275,0.0014046330287163,-0.0014046330289243,0.0014046330239495,-0.0014046330251833,0.0014046330289663,-0.0014046330295685,0.0014046330243668,-0.0013537909215558,0.0013537909352258,-0.0013537909355187,0.0013537909207865,-7.8479376038344e-13,-2.3304999812959e-13,2.0934007539263e-14,3.8614996808942e-14,-0.00138044008534,0.001380440084706,-0.0014046330268027,0.0014046330265898,-0.0014046330266157,0.0014046330268821,-0.0014046330265694,0.0014046330269021,-0.0014046330266638,0.0014046330268645,-0.0013537909288733,0.0013537909274672,-0.0013537909270384,0.0013537909260022,-0.0013537909292619,0.0013537909258365,-0.0013537909286909,0.0013537909258583,-7.0338498854201e-12,7.132185204873e-12,-0.0013804400849653,0.0013804400850359,4.6930948644675e-14,2.4615395075401e-14,-0.0014046330293429,0.0014046330247047,-0.0014046330292146,0.0014046330243564,-0.0014046330245446,0.0014046330294713,-0.0014046330243017,0.0014046330292477,-0.0013537909191197,0.0013537909338655,-0.0013537909335987,0.0013537909194937,0.0037877737178346,0.003648113899112,0.76795495046837,0.92637529492768,1368840,32768,0.0057353083950873,0.005735308395153,0.0057353083950606,23.364742325098,23.370138109393,0.00010211793860078,0.00010211793860078,0.00010211793860078,250213.12235683,0.017354994856781
28425600,0.99996865055357,0.016914537530307,0.0056381791767637,0.0056381791768228,0.0056381791767205,-0.0013806544231877,0.001380654422714,6.5985673594731e-12,-7.075867542986e-12,3.9786078680254e-14,-4.9677529444399e-13,-0.0014048185818206,0.0014048185861611,-0.0014048185864005,0.0014048185814354,-0.0014048185826306,0.0014048185864175,-0.0014048185871485,0.0014048185818049,-0.0013540285999583,0.001354028613605,-0.0013540286143008,0.0013540285996007,-8.1435226915599e-13,-2.5585288975219e-13,-1.1380181755024e-14,2.9218813267664e-14,-0.0013806544233064,0.0013806544226362,-0.0014048185843397,0.0014048185841308,-0.0014048185842331,0.0014048185843073,-0.0014048185840753,0.0014048185844401,-0.0014048185841898,0.0014048185844436,-0.0013540286071694,0.0013540286059028,-0.0013540286053649,0.0013540286045683,-0.0013540286075737,0.0013540286043421,-0.0013540286070887,0.001354028604187,-7.0313817843483e-12,7.1295319623983e-12,-0.0013806544229136,0.0013806544229739,5.1712626097123e-14,6.1576648287427e-15,-0.0014048185868153,0.0014048185821155,-0.0014048185866667,0.0014048185818713,-0.0014048185819222,0.0014048185869803,-0.0014048185818538,0.0014048185866166,-0.0013540285974948,0.0013540286119755,-0.0013540286118899,0.0013540285975976,0.0037885557718279,0.0036480022008229,0.77133095048314,0.94753126012558,1368840,32768,0.0057361963727603,0.005736196372845,0.0057361963727311,23.446984542557,23.452379713412,0.00010277587634045,0.00010277587634045,0.00010277587634045,248108.79616658,0.017357704982922
28512000,0.99996947088217,0.016914551471522,0.0056381838238353,0.0056381838238944,0.0056381838237922,-0.0013808678790879,0.001380867878728,6.6774980658412e-12,-7.0068360047933e-12,7.2488138478304e-14,-4.3440755267687e-13,-0.0014050037490238,0.0014050037535167,-0.0014050037536228,0.0014050037487979,-0.0014050037498788,0.001405003753681,-0.0014050037544104,0.001405003749219,-0.0013542647783415,0.0013542647921543,-0.0013542647923296,0.0013542647780256,-7.875124126246e-13,-2.592486095447e-13,1.4665375512257e-14,4.9250083679044e-14,-0.0013808678792463,0.0013808678785974,-0.0014050037516192,0.0014050037514378,-0.0014050037515509,0.0014050037515505,-0.0014050037514349,0.0014050037517221,-0.0014050037514418,0.0014050037516489,-0.0013542647855522,0.0013542647845021,-0.0013542647838087,0.0013542647829314,-0.0013542647859757,0.0013542647825699,-0.0013542647852874,0.001354264782631,-7.0456714654554e-12,7.1253453550022e-12,-0.001380867878873,0.0013808678789288,5.4305193954778e-14,1.4786165939839e-14,-0.0014050037540758,0.0014050037493215,-0.0014050037539847,0.0014050037491298,-0.0014050037492853,0.0014050037542549,-0.0014050037491288,0.0014050037538782,-0.0013542647759643,0.0013542647903892,-0.0013542647904227,0.0013542647762792,0.00378933659806,0.0036478927527434,0.77480850230186,0.96868722532348,1368840,32768,0.0057370806944734,0.0057370806945308,0.005737080694444,23.529225918861,23.534621317433,0.00010343380735089,0.00010343380735089,0.00010343380735089,246024.38714515,0.017360403962572
28598400,0.99997027367909,0.016914565147711,0.0056381883825651,0.0056381883826242,0.0056381883825219,-0.0013810803559243,0.0013810803555717,6.6815266486531e-12,-7.0138272618034e-12,6.2554441945914e-14,-4.3352899128102e-13,-0.0014051884863415,0.0014051884907728,-0.0014051884909975,0.0014051884860907,-0.0014051884872132,0.0014051884910831,-0.0014051884916531,0.0014051884866151,-0.001354499338766,0.0013544993528219,-0.0013544993530104,0.0013544993384055,-8.126656736215e-13,-2.944130647065e-13,-2.3355874729353e-14,8.2807470288624e-15,-0.001381080356125,0.001381080355409,-0.0014051884889268,0.0014051884887621,-0.0014051884889019,0.0014051884888712,-0.0014051884888624,0.001405188489003,-0.0014051884888289,0.0014051884889323,-0.0013544993460239,0.0013544993447604,-0.0013544993444179,0.0013544993431016,-0.001354499346682,0.0013544993429799,-0.0013544993456704,0.0013544993428867,-7.0549360647812e-12,7.1269207774623e-12,-0.0013810803557138,0.0013810803557791,4.893068167185e-14,1.2350593286088e-14,-0.0014051884914032,0.0014051884866192,-0.0014051884912619,0.0014051884864727,-0.001405188486568,0.0014051884916291,-0.0014051884864903,0.0014051884912584,-0.0013544993361744,0.0013544993509204,-0.0013544993508425,0.0013544993365939,0.0037901156901909,0.003647785501493,0.77665745797695,0.9587823118705,1368840,32768,0.0057379609583197,0.0057379609583985,0.0057379609583133,23.611466481492,23.616862921453,0.00010409173185193,0.00010409173185193,0.00010409173185193,243965.57586327,0.017363090567366
28684800,0.99997105921232,0.01691457851703,0.0056381928390048,0.005638192839064,0.0056381928389617,-0.001381225269673,0.0013812252692347,6.6136576043588e-12,-7.0465699085968e-12,4.2505995588659e-14,-4.7950217506711e-13,-0.0014053377587217,0.001405337763115,-0.0014053377633676,0.0014053377584155,-0.0014053377595815,0.0014053377633348,-0.0014053377640603,0.0014053377589098,-0.0013546361224398,0.0013546361360805,-0.001354636136622,0.0013546361218715,-8.0184076902079e-13,-2.5816070160307e-13,2.9916703712296e-14,7.4558634049615e-14,-0.0013812252697842,0.0013812252691565,-0.0014053377612446,0.0014053377610807,-0.001405337761154,0.0014053377612249,-0.0014053377610952,0.0014053377614222,-0.001405337761074,0.0014053377613336,-0.0013546361296927,0.0013546361284627,-0.0013546361279067,0.0013546361269596,-0.0013546361301842,0.0013546361264889,-0.0013546361293092,0.0013546361266181,-7.0497076950925e-12,7.0971096293489e-12,-0.0013812252694335,0.001381225269467,4.0300562963112e-14,-9.2047776238914e-15,-0.0014053377638028,0.0014053377590419,-0.0014053377636217,0.0014053377587774,-0.0014053377589547,0.0014053377639022,-0.0014053377587672,0.0014053377636135,-0.0013546361200385,0.0013546361345239,-0.0013546361344667,0.001354636120127,0.0037906198143726,0.00364768039034,0.77589792886413,0.91361234623909,1368840,32768,0.0057385612575509,0.0057385612576193,0.0057385612575362,23.693705997154,23.699104525474,0.00010474964797723,0.00010474964797723,0.00010474964797723,243736.98897252,0.01736492291849
28771200,0.99997182774835,0.01691459156795,0.0056381971893112,0.0056381971893703,0.005638197189268,-0.0013812891324286,0.0013812891319502,6.584048803005e-12,-7.0723340038743e-12,4.3601491533775e-14,-4.8713376545667e-13,-0.0014054466570385,0.0014054466614798,-0.0014054466617108,0.001405446656691,-0.0014054466578849,0.0014054466616242,-0.0014054466624456,0.0014054466571491,-0.0013546547951537,0.0013546548089358,-0.0013546548092854,0.0013546547945909,-7.9831031805012e-13,-2.4561243788509e-13,1.9439788480747e-14,6.0579237581169e-14,-0.0013812891325199,0.0013812891318993,-0.0014054466595262,0.0014054466593754,-0.0014054466595514,0.0014054466596283,-0.0014054466593533,0.0014054466597504,-0.0014054466595074,0.0014054466596482,-0.0013546548026275,0.0013546548013469,-0.0013546548006882,0.0013546547999185,-0.0013546548031573,0.0013546547996227,-0.0013546548021425,0.0013546547995106,-7.0481623893594e-12,7.0947858179868e-12,-0.0013812891321843,0.0013812891322104,3.0319897277362e-14,-1.5294856282051e-14,-0.001405446662082,0.0014054466574002,-0.0014054466620042,0.001405446656994,-0.0014054466572581,0.0014054466622345,-0.0014054466571793,0.0014054466618098,-0.0013546547928501,0.001354654807541,-0.0013546548074826,0.001354654793239,0.0037907919288822,0.003647577371157,0.77417282107074,0.86844238060769,1368840,32768,0.0057388257197012,0.0057388257197849,0.0057388257197341,23.77594521118,23.781346129495,0.00010540756168944,0.00010540756168944,0.00010540756168944,245816.73693211,0.01736573047114
28857600,0.99997258068769,0.016914604396936,0.0056382014656399,0.005638201465699,0.0056382014655967,-0.0013813941734398,0.0013813941729945,6.5905085468407e-12,-7.0688816975752e-12,3.7095925568467e-14,-4.7888678210223e-13,-0.0014056023564045,0.0014056023608324,-0.0014056023609656,0.001405602356048,-0.0014056023572542,0.0014056023610796,-0.0014056023617408,0.0014056023566411,-0.0013547105562505,0.0013547105697399,-0.0013547105704059,0.0013547105553864,-7.8508972193025e-13,-2.4724079990445e-13,4.2212592787207e-14,6.3568116861194e-14,-0.0013813941735453,0.0013813941729172,-0.001405602359003,0.0014056023587597,-0.0014056023589002,0.0014056023590066,-0.0014056023587348,0.0014056023591147,-0.0014056023587893,0.0014056023589958,-0.0013547105633577,0.0013547105622323,-0.0013547105617492,0.0013547105608723,-0.001354710563929,0.001354710560372,-0.0013547105631182,0.0013547105604828,-7.0546510146658e-12,7.0913513934944e-12,-0.0013813941731822,0.0013813941732131,5.8547917283669e-15,-2.0469109976858e-14,-0.0014056023613854,0.0014056023567139,-0.0014056023613091,0.0014056023564206,-0.0014056023565833,0.0014056023616311,-0.0014056023564502,0.0014056023612649,-0.0013547105539713,0.0013547105685862,-0.0013547105682458,0.0013547105539912,0.0037911372359019,0.0036474764266183,0.77679398464986,0.90021254758509,1368840,32768,0.0057392607943601,0.0057392607944186,0.0057392607942794,23.883523083001,23.890533391068,0.00010626818466401,0.00010626818466401,0.00010626818466401,248243.08336158,0.017367058688431
28944000,0.99997331945665,0.016914616840899,0.0056382056136276,0.0056382056136867,0.0056382056135845,-0.0013817275783373,0.0013817275778881,6.605806432442e-12,-7.0596865078937e-12,3.7653496770344e-14,-4.5975813117527e-13,-0.0014059031143045,0.001405903118669,-0.0014059031189449,0.0014059031139739,-0.0014059031151614,0.0014059031188705,-0.0014059031196356,0.0014059031144637,-0.0013550723110132,0.0013550723247151,-0.0013550723250219,0.0013550723103568,-7.6022568739179e-13,-2.4072211669281e-13,5.2001646679507e-14,6.802718652203e-14,-0.0013817275784342,0.001381727577822,-0.001405903116836,0.0014059031166159,-0.001405903116801,0.0014059031168523,-0.0014059031166743,0.0014059031169661,-0.0014059031166908,0.0014059031169499,-0.0013550723180274,0.0013550723171705,-0.0013550723165799,0.0013550723156685,-0.0013550723186891,0.0013550723154484,-0.0013550723181655,0.0013550723153587,-7.015902963098e-12,7.1360024117894e-12,-0.0013817275780663,0.0013817275781493,3.9723286480865e-14,1.8675694176245e-14,-0.0014059031193492,0.0014059031146321,-0.0014059031191904,0.0014059031144103,-0.0014059031145615,0.0014059031195622,-0.001405903114353,0.0014059031191522,-0.0013550723086473,0.0013550723233392,-0.0013550723231904,0.001355072309022,0.0037924271727676,0.0036473774717133,0.76796934661636,0.76205462782228,1368840,32768,0.0057406420940898,0.0057406420941537,0.0057406420940697,24.019409854791,24.0282795395,0.00010735527883833,0.00010735527883833,0.00010735527883833,245905.66718575,0.017371274339573
29030400,0.99997404422612,0.016914628905702,0.0056382096352286,0.0056382096352877,0.0056382096351855,-0.0013816606956749,0.0013816606951174,6.516789328324e-12,-7.116842408879e-12,7.1791453879187e-14,-5.0118563029949e-13,-0.0014059989332029,0.0014059989374365,-0.0014059989374305,0.0014059989325156,-0.0014059989338659,0.0014059989376637,-0.0014059989384111,0.0014059989329819,-0.0013548546295902,0.0013548546431115,-0.0013548546443599,0.0013548546289467,-8.7708197045374e-13,-2.8177809775489e-13,1.3712992842188e-14,1.2592115319521e-14,-0.0013816606957896,0.0013816606951113,-0.0014059989354401,0.0014059989353448,-0.0014059989353131,0.0014059989356513,-0.0014059989353343,0.0014059989356003,-0.0014059989353459,0.0014059989356663,-0.0013548546372118,0.0013548546359251,-0.0013548546356969,0.0013548546340939,-0.0013548546380573,0.0013548546344363,-0.0013548546365656,0.0013548546338982,-7.0377018265695e-12,7.0829329742007e-12,-0.0013816606953611,0.001381660695413,1.4395030829925e-14,9.7615841432462e-15,-0.0014059989377676,0.0014059989333795,-0.0014059989376737,0.0014059989331301,-0.0014059989333968,0.0014059989381398,-0.0014059989332239,0.0014059989378896,-0.0013548546276225,0.0013548546419719,-0.0013548546420374,0.0013548546273132,0.0037920722076455,0.0036472804653949,0.75893550845962,0.64315694384159,1368840,32768,0.0057403647528364,0.0057403647530611,0.0057403647527987,24.156979629823,24.166025687933,0.00010845583703858,0.00010845583703858,0.00010845583703858,254905.74188774,0.017370428777672
29116800,0.99997475509946,0.016914640645411,0.0056382135484651,0.0056382135485242,0.0056382135484219,-0.0013816039404282,0.0013816039398832,6.510943918662e-12,-7.1257164907231e-12,3.484881774548e-14,-5.2407081352579e-13,-0.0014061078191095,0.0014061078232617,-0.0014061078235514,0.0014061078186852,-0.0014061078199247,0.0014061078236189,-0.0014061078244749,0.0014061078190871,-0.001354646613637,0.0013546466266975,-0.0013546466280963,0.0013546466123989,-7.5410905072143e-13,-1.7270054764623e-13,2.6947088549648e-14,7.404038517588e-14,-0.0013816039404306,0.0013816039399256,-0.0014061078213721,0.001406107821377,-0.0014061078212543,0.0014061078213954,-0.0014061078211167,0.0014061078216829,-0.0014061078213796,0.0014061078216778,-0.0013546466208408,0.0013546466190902,-0.0013546466193968,0.0013546466178198,-0.0013546466215973,0.0013546466177275,-0.0013546466209634,0.0013546466179864,-6.9957279323725e-12,7.127586345365e-12,-0.0013816039400972,0.0013816039401917,2.8007938494351e-14,-2.4302022295783e-14,-0.0014061078242024,0.0014061078191126,-0.0014061078236781,0.0014061078191901,-0.0014061078191432,0.001406107824286,-0.0014061078189064,0.0014061078238536,-0.0013546466115435,0.0013546466261037,-0.0013546466253896,0.0013546466111896,0.0037917568637541,0.0036471853803088,0.75302567554944,0.57925683324607,1368840,32768,0.0057401294189971,0.0057401294190899,0.0057401294189507,24.29470374844,24.303771836364,0.00010955762998752,0.00010955762998752,0.00010955762998752,263978.48844883,0.017369711261203
29203200,0.99997545217723,0.016914652160271,0.0056382173867515,0.0056382173868106,0.0056382173867084,-0.0013816759214319,0.001381675920895,6.5317108724811e-12,-7.0944125058618e-12,4.1529260721356e-14,-5.4524916654165e-13,-0.0014062826717788,0.0014062826759642,-0.0014062826761711,0.0014062826712589,-0.0014062826724842,0.0014062826760957,-0.0014062826770114,0.0014062826720559,-0.0013546260323212,0.001354626045839,-0.0013546260468117,0.0013546260316428,-7.9041755916848e-13,-1.8149557308188e-13,-6.8694077913661e-15,5.0827064915115e-14,-0.0013816759214721,0.0013816759208876,-0.0014062826740571,0.0014062826739997,-0.0014062826741509,0.0014062826741513,-0.001406282673879,0.0014062826743831,-0.0014062826739939,0.0014062826743313,-0.0013546260396898,0.0013546260384612,-0.0013546260375337,0.0013546260366768,-0.0013546260402577,0.0013546260368854,-0.0013546260395683,0.0013546260364833,-7.0538216282382e-12,7.0584300168669e-12,-0.0013816759211431,0.001381675921182,4.8750745992291e-14,-1.3951985541125e-14,-0.0014062826767032,0.0014062826718846,-0.0014062826764613,0.0014062826714179,-0.0014062826718293,0.0014062826767997,-0.0014062826716004,0.0014062826765689,-0.0013546260301832,0.0013546260443901,-0.0013546260444244,0.0013546260299434,0.0037919721435792,0.0036470922024434,0.75331736005134,0.60854115325235,1368840,32768,0.0057404275281529,0.0057404275282208,0.0057404275281493,24.432444043043,24.441517984795,0.00011065955234434,0.00011065955234434,0.00011065955234434,269490.24583848,0.017370621470558
29289600,0.99997613556277,0.016914663328072,0.0056382211093519,0.005638221109411,0.0056382211093087,-0.0013820130420928,0.0013820130414848,6.5495442100378e-12,-7.1299940659284e-12,-5.6229046947095e-14,-5.977686209319e-13,-0.001406590910581,0.0014065909148724,-0.0014065909153736,0.0014065909101972,-0.0014065909113809,0.0014065909151945,-0.0014065909160217,0.0014065909105362,-0.0013549927003291,0.0013549927144728,-0.0013549927148691,0.0013549927002521,-7.5718630965446e-13,-1.9336285760331e-13,8.5538563326194e-14,1.2432946652602e-13,-0.001382013042081,0.0013820130415207,-0.0014065909133702,0.0014065909128294,-0.0014065909129535,0.00140659091327,-0.0014065909127012,0.0014065909133629,-0.0014065909129143,0.0014065909131994,-0.0013549927075688,0.0013549927061667,-0.0013549927061141,0.0013549927052528,-0.0013549927080056,0.001354992704499,-0.0013549927075669,0.0013549927045019,-7.02966789553e-12,7.1365028376782e-12,-0.0013820130417197,0.0013820130418568,1.1831712078729e-13,7.452945847032e-14,-0.001406590915766,0.0014065909110228,-0.0014065909154553,0.0014065909106924,-0.0014065909107412,0.0014065909159863,-0.0014065909105947,0.0014065909155785,-0.0013549926980747,0.0013549927122831,-0.0013549927128872,0.0013549926983566,0.0037932824193647,0.0036470008596565,0.74531805203281,0.51172604602813,1368840,32768,0.0057418242543414,0.0057418242543912,0.0057418242543393,24.570185073992,24.579264133229,0.00011176148059193,0.00011176148059193,0.00011176148059193,267375.67174921,0.017374884109292
29376000,0.99997680536278,0.016914674199024,0.0056382247330027,0.0056382247330618,0.0056382247329595,-0.0013819831288008,0.0013819831284009,6.7034103918845e-12,-7.03759353576e-12,4.7539841808112e-14,-4.4577779355911e-13,-0.0014067099713507,0.0014067099759701,-0.0014067099760676,0.0014067099712006,-0.0014067099722097,0.0014067099759893,-0.0014067099768549,0.0014067099714721,-0.0013548280715823,0.0013548280853417,-0.0013548280854858,0.0013548280705413,-7.2956183003394e-13,-2.1550412237934e-13,1.1783063564908e-13,1.8320884427204e-13,-0.0013819831288787,0.0013819831283672,-0.0014067099740655,0.00140670997383,-0.0014067099738368,0.0014067099739637,-0.0014067099738895,0.0014067099742594,-0.0014067099740049,0.0014067099740461,-0.0013548280787025,0.0013548280774156,-0.0013548280763691,0.001354828076223,-0.0013548280788186,0.0013548280759337,-0.0013548280782201,0.0013548280757921,-7.0002910282672e-12,7.2271654209397e-12,-0.0013819831285383,0.0013819831286881,1.0652030470134e-13,3.534483200435e-14,-0.0014067099764134,0.0014067099719505,-0.0014067099763094,0.0014067099715689,-0.0014067099716683,0.001406709976805,-0.0014067099714805,0.0014067099765046,-0.0013548280690499,0.0013548280839273,-0.0013548280834781,0.0013548280696363,0.0037930818966418,0.0036469113264318,0.7402039817855,0.4603940011284,1368840,32768,0.0057417001518588,0.0057417001519505,0.00574170015191,24.707926844608,24.71701028166,0.00011286341475686,0.00011286341475686,0.00011286341475686,275785.60014516,0.017374505956452
29462400,0.99997746168723,0.016914684694208,0.0056382282313972,0.0056382282314563,0.005638228231354,-0.00138207590509,0.0013820759046191,6.6551226905701e-12,-7.134409225166e-12,1.8752191839294e-14,-4.5608653745759e-13,-0.0014068945694479,0.0014068945738092,-0.0014068945742253,0.0014068945689526,-0.0014068945703573,0.001406894573994,-0.0014068945749199,0.0014068945693509,-0.0013548396709932,0.0013548396849318,-0.0013548396847204,0.0013548396693076,-8.7945386858211e-13,-3.8203568201333e-13,-6.7942218529508e-14,-1.2294477353333e-14,-0.0013820759052516,0.0013820759044857,-0.001406894571962,0.0014068945715503,-0.0014068945718311,0.0014068945718944,-0.0014068945717696,0.0014068945720502,-0.0014068945716763,0.001406894572021,-0.0013548396780552,0.0013548396768653,-0.0013548396761528,0.0013548396754835,-0.0013548396790935,0.0013548396753719,-0.0013548396777186,0.0013548396752577,-7.0646687674538e-12,7.211315346325e-12,-0.0013820759047735,0.0013820759048563,1.656355281836e-14,-4.5334262128234e-14,-0.0014068945744203,0.0014068945697223,-0.0014068945743653,0.0014068945695065,-0.0014068945696311,0.0014068945745985,-0.0014068945692874,0.0014068945743354,-0.0013548396681135,0.0013548396837456,-0.0013548396828051,0.0013548396687677,0.0037933885241361,0.0036468235434813,0.72939125230984,0.32867198137887,1368840,32768,0.0057420844259316,0.0057420844259902,0.0057420844257676,24.845669269403,24.854756430092,0.00011396535415522,0.00011396535415522,0.00011396535415522,280748.69563058,0.017375679099197
29548800,0.99997810464926,0.016914694932502,0.0056382316441619,0.0056382316442211,0.0056382316441188,-0.0013818798356016,0.0013818798351088,6.6418982122158e-12,-7.1321258243341e-12,-4.3858483682841e-14,-4.9146816245558e-13,-0.0014069334581289,0.0014069334623963,-0.0014069334626505,0.0014069334575251,-0.0014069334589297,0.0014069334624853,-0.0014069334634499,0.0014069334581204,-0.0013544304519482,0.0013544304658169,-0.0013544304657386,0.0013544304504757,-7.6897389072842e-13,-2.992377996671e-13,-1.0850256767398e-14,6.838649907469e-14,-0.001381879835716,0.0013818798350432,-0.0014069334604462,0.0014069334602762,-0.0014069334604672,0.0014069334606398,-0.0014069334602313,0.0014069334605756,-0.0014069334603611,0.0014069334605664,-0.0013544304594097,0.0013544304578669,-0.0013544304571487,0.0013544304565079,-0.0013544304597612,0.0013544304562785,-0.0013544304591195,0.0013544304560486,-7.0879914667261e-12,7.1738498732224e-12,-0.0013818798353352,0.0013818798353426,4.2737488516709e-14,-4.0786636349198e-14,-0.0014069334629996,0.0014069334582442,-0.0014069334628962,0.0014069334580896,-0.0014069334581794,0.0014069334631903,-0.0014069334577848,0.0014069334627274,-0.0013544304490127,0.0013544304646846,-0.00135443046404,0.0013544304498943,0.0037925034802555,0.0036467375052092,0.72638010487281,0.31012996753391,1368840,32768,0.0057412718766493,0.0057412718767502,0.005741271876582,24.983411251039,24.992502578524,0.00011506729000831,0.00011506729000831,0.00011506729000831,294269.40688786,0.017373200040302
29635200,0.99997873384536,0.016914705006934,0.0056382350023061,0.0056382350023652,0.005638235002263,-0.001382036060772,0.001382036060355,6.6853867072016e-12,-7.1089605320179e-12,-3.0482480545849e-14,-3.9814618984837e-13,-0.0014071401021393,0.0014071401065754,-0.0014071401067833,0.0014071401018041,-0.0014071401028833,0.0014071401068098,-0.0014071401074761,0.0014071401023207,-0.0013545447506606,0.0013545447646174,-0.001354544764925,0.0013545447500649,-7.529262339145e-13,-3.6325372637742e-13,-4.837937498448e-14,5.0572749154875e-14,-0.0013820360609318,0.0013820360602259,-0.0014071401046856,0.0014071401044536,-0.0014071401045748,0.0014071401046746,-0.0014071401045352,0.0014071401047278,-0.0014071401045388,0.0014071401046965,-0.0013545447580425,0.0013545447566592,-0.0013545447563376,0.0013545447553154,-0.0013545447583315,0.0013545447550108,-0.0013545447578515,0.0013545447550274,-7.1077202757892e-12,7.1728295808623e-12,-0.0013820360605413,0.0013820360605713,6.0463299946514e-14,-4.3069096033386e-14,-0.0014071401071959,0.0014071401024049,-0.0014071401070729,0.0014071401021473,-0.001407140102314,0.0014071401073616,-0.0014071401022108,0.0014071401069864,-0.0013545447483077,0.0013545447630651,-0.0013545447629342,0.0013545447484868,0.0037930731291296,0.003646653199139,0.73052670606328,0.39400691979345,1368840,32768,0.0057419190780029,0.0057419190780666,0.0057419190779733,25.107145629828,25.115347663448,0.00011605716503862,0.00011605716503862,0.00011605716503862,296691.51558384,0.017375175431882
29721600,0.99997934891026,0.016914714913857,0.0056382383046137,0.0056382383046728,0.0056382383045705,-0.0013825321348004,0.0013825321343898,6.670574100893e-12,-7.0876260661241e-12,-1.9794689403473e-14,-3.8955962863251e-13,-0.0014074957452743,0.0014074957496904,-0.0014074957499023,0.0014074957449316,-0.0014074957460278,0.0014074957499431,-0.0014074957505953,0.0014074957454545,-0.0013551745875307,0.0013551746014051,-0.0013551746017215,0.001355174586932,-7.4889329829438e-13,-3.5712203134355e-13,-3.6456209817226e-14,6.0761555540892e-14,-0.0013825321349596,0.0013825321342634,-0.0014074957478072,0.0014074957475902,-0.0014074957477126,0.0014074957478014,-0.0014074957476634,0.0014074957478626,-0.0014074957476755,0.0014074957478201,-0.0013551745948796,0.0013551745935403,-0.0013551745931451,0.0013551745921239,-0.0013551745951821,0.0013551745919372,-0.0013551745946943,0.0013551745918301,-7.0953047727214e-12,7.1492285959738e-12,-0.0013825321345736,0.0013825321346036,6.1201571510471e-14,-4.0686668814902e-14,-0.0014074957503051,0.0014074957455279,-0.0014074957501761,0.001407495745282,-0.0014074957454492,0.0014074957504846,-0.0014074957453354,0.0014074957501152,-0.001355174585189,0.0013551745998758,-0.0013551745997324,0.0013551745853552,0.0037950468653038,0.0036465705880335,0.73490036937742,0.47788387205298,1368840,32768,0.0057439744411415,0.0057439744412093,0.0057439744411146,25.216454100581,25.223709057216,0.00011693163280464,0.00011693163280464,0.00011693163280464,288112.35014787,0.017381447899725
29808000,0.99997995001222,0.016914724656816,0.0056382415522666,0.0056382415523258,0.0056382415522235,-0.0013830105734025,0.0013830105730118,6.7003118394843e-12,-7.091059725934e-12,-6.9498465104891e-15,-3.6336048782181e-13,-0.0014078427044126,0.0014078427087712,-0.0014078427090242,0.0014078427040733,-0.0014078427051902,0.0014078427091349,-0.0014078427099733,0.0014078427046339,-0.0013557783995006,0.0013557784133197,-0.001355778413847,0.0013557783987156,-7.3576584638785e-13,-3.5779148148054e-13,-3.1656650558114e-14,7.570398141298e-14,-0.0013830105735689,0.001383010572883,-0.001407842707143,0.0014078427068311,-0.0014078427069232,0.0014078427069107,-0.0014078427068424,0.0014078427070091,-0.0014078427070045,0.0014078427069196,-0.0013557784073501,0.0013557784057531,-0.0013557784054731,0.0013557784041478,-0.0013557784070715,0.0013557784038034,-0.0013557784066266,0.0013557784038529,-7.1084476653327e-12,7.1689174650806e-12,-0.0013830105732072,0.0013830105732164,2.5324638114395e-14,-8.7050870067438e-14,-0.0014078427093843,0.0014078427047929,-0.0014078427093556,0.0014078427045509,-0.0014078427047582,0.001407842709677,-0.0014078427047507,0.0014078427093158,-0.0013557783975009,0.0013557784121154,-0.0013557784117794,0.0013557783976073,0.0037969496774773,0.0036464896378764,0.7394272648569,0.56176082431256,1368840,32768,0.0057459567269156,0.0057459567269934,0.0057459567269349,25.324899952007,25.332070450983,0.00011779919961606,0.00011779919961606,0.00011779919961606,280060.83153206,0.017387497408441
29894400,0.99998053734998,0.016914734237799,0.0056382447459277,0.0056382447459869,0.0056382447458846,-0.0013834731959194,0.0013834731955053,6.7145903444623e-12,-7.1333786684135e-12,-1.6082273403469e-14,-3.7110707469831e-13,-0.0014081796145294,0.0014081796190011,-0.0014081796192732,0.0014081796143054,-0.0014081796152189,0.0014081796191311,-0.001408179619949,0.0014081796147176,-0.0013563604505731,0.001356360464317,-0.0013563604648735,0.0013563604499468,-7.897848432034e-13,-4.1339531223345e-13,-7.791476681618e-14,3.9401619836972e-14,-0.0013834731961227,0.0013834731953745,-0.0014081796171595,0.0014081796169138,-0.0014081796171087,0.001408179617137,-0.0014081796169586,0.0014081796173091,-0.0014081796168456,0.0014081796170588,-0.001356360457996,0.0013563604566661,-0.0013563604564009,0.0013563604553789,-0.0013563604582236,0.0013563604550517,-0.0013563604579929,0.0013563604546134,-7.2117182163706e-12,7.1233450631686e-12,-0.0013834731957649,0.0013834731956988,1.4251711678814e-14,-1.073027219755e-13,-0.0014081796195935,0.001408179614796,-0.0014081796195254,0.0014081796145539,-0.001408179614673,0.0014081796198555,-0.001408179614686,0.0014081796194051,-0.0013563604485004,0.0013563604629826,-0.0013563604628797,0.0013563604484646,0.0037987889117037,0.0036464103148973,0.74408179384933,0.64563777657205,1368840,32768,0.0057478734723164,0.0057478734724664,0.0057478734723972,25.43326757656,25.440431844749,0.00011866614061248,0.00011866614061248,0.00011866614061248,272486.74722774,0.017393346949771
29980800,0.99998111112511,0.01691474369446,0.0056382478981481,0.0056382478982072,0.005638247898105,-0.0013839210261251,0.0013839210258036,6.7546184157498e-12,-7.0833487262057e-12,-3.9891604868266e-14,-3.5424041349265e-13,-0.0014085088887012,0.001408508893216,-0.0014085088933528,0.0014085088884171,-0.0014085088894969,0.0014085088936,-0.001408508893996,0.0014085088889994,-0.0013569207698893,0.0013569207841422,-0.0013569207844609,0.001356920769385,-7.2144857788822e-13,-3.85628572253e-13,-4.4556432949205e-14,1.137181730467e-13,-0.001383921026352,0.0013839210256341,-0.0014085088913798,0.0014085088909771,-0.001408508891127,0.0014085088912554,-0.0014085088913022,0.0014085088911894,-0.0014085088912109,0.0014085088912338,-0.0013569207775225,0.0013569207764418,-0.0013569207760756,0.0013569207753329,-0.001356920777813,0.0013569207746806,-0.0013569207775828,0.0013569207746421,-7.1183720680313e-12,7.2057355461959e-12,-0.0013839210259409,0.0013839210259665,6.650885055321e-14,-9.6333998238951e-14,-0.0014085088935398,0.0014085088889257,-0.0014085088935644,0.0014085088888128,-0.0014085088888152,0.0014085088938302,-0.0014085088887341,0.0014085088935243,-0.0013569207682701,0.0013569207832775,-0.0013569207829054,0.0013569207682283,0.0038005687706683,0.00364633259545,0.75169591731077,0.7742313686759,1368840,32768,0.0057497289217381,0.0057497289218571,0.0057497289216941,25.541628758616,25.548793238517,0.00011953303006893,0.00011953303006893,0.00011953303006893,265383.42280118,0.017399009472623
30067200,0.99998167153932,0.016914752883685,0.0056382509612231,0.0056382509612822,0.00563825096118,-0.0013844687936269,0.0013844687934116,6.7856367622783e-12,-7.0083782517963e-12,4.3276383818533e-14,-2.005101098479e-13,-0.0014088895219511,0.0014088895265749,-0.0014088895264234,0.0014088895217184,-0.0014088895225323,0.0014088895266876,-0.0014088895272679,0.0014088895221191,-0.0013576256446823,0.0013576256592204,-0.0013576256591163,0.001357625644475,-6.7464039019917e-13,-4.09490843277e-13,-4.6845745365223e-14,7.3237174419299e-14,-0.0013844687938747,0.0013844687932037,-0.0014088895244024,0.001408889524338,-0.0014088895242773,0.0014088895246179,-0.0014088895243861,0.0014088895245971,-0.0014088895242458,0.0014088895245028,-0.0013576256526829,0.0013576256509473,-0.0013576256502059,0.0013576256495006,-0.001357625652202,0.001357625649305,-0.0013576256520701,0.0013576256487776,-7.1073715805592e-12,7.1728112578926e-12,-0.001384468793492,0.0013844687935223,5.8925876325515e-14,-6.5221184008186e-14,-0.0014088895269307,0.0014088895223947,-0.0014088895268024,0.0014088895220807,-0.0014088895222518,0.0014088895271664,-0.001408889522106,0.001408889526888,-0.001357625642348,0.0013576256571131,-0.0013576256571993,0.0013576256423877,0.0038027615662094,0.0036462564092722,0.74778152856445,0.70027482735306,1368840,32768,0.0057519984640853,0.0057519984641681,0.0057519984640353,25.649986921765,25.657154632284,0.00012039989537412,0.00012039989537412,0.00012039989537412,255506.13662746,0.017405935645894
30153600,0.9999822187944,0.016914761727716,0.0056382539092333,0.0056382539092924,0.0056382539091901,-0.0013844959678131,0.0013844959674505,6.7178806557102e-12,-7.0835205444861e-12,-6.1945166441215e-14,-3.1862314863446e-13,-0.0014090023015244,0.001409002305976,-0.0014090023061875,0.0014090023012185,-0.0014090023022074,0.0014090023062927,-0.0014090023068429,0.0014090023017563,-0.0013575725383114,0.0013575725523095,-0.001357572552546,0.0013575725377599,-7.2934474843034e-13,-4.5080928690926e-13,-8.1355661699203e-14,4.396886266378e-14,-0.0013844959680227,0.0013844959672782,-0.0014090023041115,0.0014090023038801,-0.0014090023040284,0.0014090023041081,-0.0014090023040248,0.0014090023041194,-0.0014090023039767,0.0014090023040944,-0.001357572545813,0.0013575725444254,-0.0013575725439603,0.0013575725428987,-0.0013575725458973,0.0013575725426748,-0.0013575725456969,0.001357572542567,-7.1327803925728e-12,7.1551096810166e-12,-0.001384495967628,0.0013844959676291,6.6093980874253e-14,-6.3415739163287e-14,-0.0014090023066292,0.0014090023017941,-0.0014090023064777,0.0014090023015405,-0.0014090023017348,0.0014090023068168,-0.0014090023016289,0.0014090023064456,-0.0013575725359327,0.0013575725506948,-0.0013575725505494,0.0013575725360801,0.0038028153144901,0.0036461817032609,0.7369005934393,0.53603222639823,1368840,32768,0.0057521108703449,0.0057521108704222,0.0057521108703316,25.758344920204,25.765516026052,0.00012126675936163,0.00012126675936163,0.00012126675936163,260191.56165597,0.017406279325781
30240000,0.99998275309202,0.016914770318295,0.0056382567727597,0.0056382567728188,0.0056382567727165,-0.0013842453382937,0.001384245337931,6.7079858991647e-12,-7.0822906408824e-12,-5.9165251365713e-14,-3.3548239830184e-13,-0.0014089771242141,0.0014089771286991,-0.0014089771288953,0.0014089771239647,-0.0014089771249662,0.0014089771290053,-0.0014089771295742,0.0014089771244795,-0.0013571144943772,0.0013571145085549,-0.0013571145088976,0.0013571144939833,-7.2498679332758e-13,-4.2654485170051e-13,-4.8194762977191e-14,8.3514272225722e-14,-0.0013842453384919,0.0013842453377558,-0.0014089771267757,0.0014089771265525,-0.0014089771267142,0.0014089771267409,-0.0014089771266591,0.0014089771267919,-0.0014089771268179,0.0014089771267475,-0.0013571145018328,0.0013571145005379,-0.0013571145000392,0.0013571144991098,-0.00135711450213,0.0013571144988193,-0.0013571145018155,0.0013571144987958,-7.1350057363548e-12,7.1419393186562e-12,-0.0013842453381027,0.0013842453381034,8.0085994604309e-14,-5.5728885756088e-14,-0.0014089771292202,0.0014089771245024,-0.0014089771291301,0.001408977124217,-0.0014089771244183,0.0014089771294329,-0.0014089771243042,0.0014089771290899,-0.0013571144920817,0.0013571145069404,-0.0013571145068809,0.001357114492122,0.0038017224715967,0.0036461084698792,0.73319462629396,0.49251518427337,1368840,32768,0.00575107222412,0.0057510722241677,0.0057510722240817,25.86670363764,25.873877419819,0.00012213362910112,0.00012213362910112,0.00012213362910112,273084.21415087,0.017403110366591
30326400,0.99998327463364,0.016914778658401,0.0056382595527949,0.0056382595528541,0.0056382595527518,-0.0013843176948609,0.0013843176944584,6.7028820550837e-12,-7.0858932955296e-12,-6.2167865520264e-14,-3.4682787523472e-13,-0.0014091215976167,0.0014091216019991,-0.0014091216023281,0.001409121597392,-0.0014091215981989,0.0014091216023415,-0.0014091216028562,0.0014091215977277,-0.0013571225769808,0.0013571225910209,-0.001357122591559,0.0013571225766625,-7.4370451563166e-13,-4.3666177792948e-13,-9.676574975512e-14,5.7732177498077e-14,-0.0013843176950428,0.0013843176943087,-0.0014091216001342,0.0014091215999834,-0.0014091216000874,0.0014091216002341,-0.0014091215999921,0.0014091216001384,-0.001409121600006,0.0014091216001407,-0.0013571225845004,0.0013571225831639,-0.001357122582802,0.0013571225819946,-0.0013571225849636,0.0013571225815835,-0.0013571225844984,0.0013571225815312,-7.1866376884458e-12,7.0881628438436e-12,-0.0013843176946998,0.0013843176946192,4.0584995450365e-14,-1.1781645961156e-13,-0.0014091216025755,0.0014091215979223,-0.0014091216026681,0.0014091215973934,-0.0014091215978058,0.0014091216027564,-0.0014091215977844,0.0014091216023331,-0.0013571225752752,0.0013571225895671,-0.0013571225897081,0.0013571225750281,0.00380196018512,0.003646036678871,0.72936697238992,0.44899814214849,1368840,32768,0.0057513719000921,0.0057513719001587,0.0057513719000913,25.975062441933,25.982238813586,0.00012300049953546,0.00012300049953546,0.00012300049953546,276897.52983525,0.017404025333642
30412800,0.99998378455408,0.016914786748593,0.0056382622495257,0.0056382622495849,0.0056382622494826,-0.0013844445843324,0.0013844445839349,6.682167099676e-12,-7.0863189295856e-12,-6.4685259203851e-14,-3.2522282937169e-13,-0.001409321897927,0.0014093219023518,-0.001409321902595,0.0014093218974795,-0.001409321898484,0.0014093219025783,-0.0014093219033125,0.0014093218980968,-0.0013571838267098,0.0013571838410431,-0.0013571838413276,0.0013571838267062,-7.1122621370385e-13,-4.2845008761451e-13,-3.9499852130161e-14,9.5213561879277e-14,-0.0013844445844985,0.0013844445837995,-0.0014093219003422,0.0014093219002458,-0.0014093219002721,0.0014093219002948,-0.0014093219002755,0.001409321900419,-0.0014093219002469,0.0014093219004584,-0.0013571838344911,0.0013571838330713,-0.0013571838330858,0.0013571838317254,-0.0013571838349573,0.0013571838315662,-0.0013571838346269,0.0013571838312463,-7.1173512168647e-12,7.1374299564141e-12,-0.0013844445841396,0.0013844445841368,7.028182352677e-14,-6.8644432371475e-14,-0.001409321902846,0.0014093218981705,-0.0014093219027752,0.0014093218978512,-0.0014093218980354,0.0014093219029664,-0.0014093218978758,0.0014093219027899,-0.0013571838249909,0.0013571838394265,-0.0013571838397262,0.001357183825014,0.0038024279841724,0.0036459663011041,0.72368409652189,0.37972806822774,1368840,32768,0.0057518974945879,0.0057518974946514,0.0057518974946069,26.114770249906,26.123956663091,0.00012411816199924,0.00012411816199924,0.00012411816199924,280885.67604648,0.017405629840963
30499200,0.99998428384666,0.016914794746043,0.0056382649153423,0.0056382649154015,0.0056382649152992,-0.0013845351068565,0.0013845351064635,6.6788340838503e-12,-7.0774997284179e-12,-3.2607474452273e-14,-3.4389649419816e-13,-0.0014095346236205,0.0014095346280464,-0.0014095346282471,0.0014095346232797,-0.0014095346243474,0.0014095346282902,-0.0014095346289262,0.0014095346238031,-0.0013571642641911,0.0013571642781161,-0.0013571642785221,0.0013571642636798,-7.4194406941209e-13,-4.0857875349366e-13,-5.6570271817027e-14,6.664352290965e-14,-0.0013845351070332,0.0013845351063185,-0.00140953462616,0.0014095346259455,-0.0014095346260558,0.0014095346261468,-0.0014095346260269,0.0014095346262139,-0.0014095346260362,0.0014095346261644,-0.0013571642715687,0.0013571642702436,-0.0013571642699215,0.0013571642688908,-0.0013571642719035,0.001357164268693,-0.0013571642715407,0.0013571642684897,-7.1120767309378e-12,7.1310282990392e-12,-0.0013845351066452,0.0013845351066581,6.3718876961459e-14,-6.3942693653424e-14,-0.0014095346286549,0.0014095346238747,-0.0014095346285311,0.0014095346236121,-0.0014095346238003,0.0014095346288355,-0.0014095346236891,0.0014095346284617,-0.0013571642620162,0.001357164276643,-0.0013571642765838,0.0013571642620456,0.0038027506665147,0.0036458973493346,0.73065099844043,0.50541939280744,1368840,32768,0.0057522723705257,0.0057522723705914,0.005752272370491,26.284240367944,26.295405071381,0.00012547392294355,0.00012547392294355,0.00012547392294355,287700.08391662,0.017406774531906
30585600,0.999984772624,0.016914802592762,0.0056382675309153,0.0056382675309745,0.0056382675308722,-0.0013852663373135,0.001385266336908,6.6483946019909e-12,-7.075256796938e-12,-1.6329501144949e-14,-3.8615879134929e-13,-0.0014100703378023,0.0014100703421946,-0.0014100703424887,0.0014100703374216,-0.0014100703386074,0.0014100703425281,-0.0014100703431635,0.0014100703380814,-0.0013580794563289,0.0013580794698529,-0.0013580794702304,0.0013580794553391,-7.6498818895946e-13,-3.7314183606716e-13,-8.0539921913611e-14,4.9501958337387e-14,-0.0013852663374979,0.0013852663367601,-0.0014100703403691,0.0014100703401011,-0.0014100703402073,0.0014100703403925,-0.001410070340386,0.0014100703404148,-0.0014100703402745,0.0014100703404057,-0.001358079463049,0.0013580794619282,-0.0013580794615118,0.001358079460326,-0.001358079463341,0.0013580794605304,-0.0013580794631533,0.0013580794602759,-7.0678293767817e-12,7.1417859998106e-12,-0.0013852663370822,0.001385266337089,6.1179425128205e-14,-7.3463667500091e-14,-0.0014100703428708,0.0014100703380761,-0.0014100703427745,0.0014100703377463,-0.001410070337969,0.0014100703430205,-0.0014100703379371,0.0014100703426228,-0.001358079453591,0.0013580794681058,-0.0013580794677888,0.0013580794536422,0.0038057192539838,0.0036458297790655,0.7323707251381,0.54258644128895,1368840,32768,0.0057553019909588,0.0057553019910344,0.0057553019908549,26.455501155032,26.466853479671,0.00012684400924026,0.00012684400924026,0.00012684400924026,275849.35692162,0.017416020579991
30672000,0.99998525095252,0.016914810290247,0.0056382700967438,0.0056382700968029,0.0056382700967006,-0.0013857080382282,0.0013857080377846,6.647881441197e-12,-7.0823581682312e-12,-2.6142201373693e-14,-4.1758124317966e-13,-0.0014104547071223,0.001410454711468,-0.0014104547117874,0.0014104547067706,-0.0014104547078648,0.0014104547116079,-0.0014104547122861,0.0014104547070758,-0.0013585756660401,0.0013585756801492,-0.0013585756802453,0.0013585756655221,-7.6598886427187e-13,-3.521810058179e-13,-9.3876426257264e-14,7.2265674686185e-14,-0.0013857080383732,0.0013857080376661,-0.0014104547094712,0.0014104547092654,-0.0014104547094703,0.0014104547096878,-0.0014104547093959,0.0014104547095766,-0.0014104547093621,0.0014104547096486,-0.0013585756734429,0.0013585756718137,-0.0013585756714468,0.0013585756705122,-0.001358575673733,0.0013585756705919,-0.0013585756733544,0.0013585756702619,-7.1110154104192e-12,7.1051266785512e-12,-0.0013857080380154,0.0013857080379947,8.2929907724715e-14,-8.7875374291165e-14,-0.0014104547121278,0.0014104547072514,-0.0014104547120677,0.0014104547069881,-0.0014104547072334,0.0014104547123306,-0.0014104547071781,0.0014104547117763,-0.001358575663632,0.0013585756782667,-0.0013585756782091,0.0013585756638463,0.0038074956140542,0.0036457635621821,0.7340069730088,0.57665384232419,1368840,32768,0.0057571319354374,0.0057571319354923,0.0057571319354319,26.626925624727,26.638301887961,0.00012821540499781,0.00012821540499781,0.00012821540499781,272368.57889672,0.017421605723281
30758400,0.99998571889839,0.016914817852246,0.0056382726174099,0.005638272617469,0.0056382726173668,-0.0013861385131022,0.0013861385126821,6.6551776300682e-12,-7.0715335577392e-12,-1.6751605896997e-14,-4.1128990596393e-13,-0.0014108356638479,0.0014108356682018,-0.0014108356683363,0.0014108356635038,-0.0014108356645993,0.0014108356685254,-0.0014108356691324,0.0014108356638348,-0.0013590536047524,0.0013590536187415,-0.0013590536190274,0.0013590536045058,-7.4747792976822e-13,-3.308598924574e-13,-5.4683152996624e-14,1.1233077425431e-13,-0.0013861385132495,0.0013861385125709,-0.0014108356664799,0.0014108356661577,-0.0014108356662224,0.0014108356663768,-0.0014108356663124,0.0014108356663817,-0.0014108356660925,0.0014108356663463,-0.0013590536122216,0.001359053610475,-0.0013590536101784,0.00135905360942,-0.0013590536127203,0.0013590536092058,-0.001359053611951,0.0013590536089631,-7.0880465238676e-12,7.1250577167305e-12,-0.0013861385128696,0.0013861385128992,1.1444415086857e-13,-5.7550624220875e-14,-0.0014108356689868,0.0014108356640934,-0.0014108356688653,0.0014108356637523,-0.0014108356640136,0.0014108356692047,-0.0014108356638097,0.0014108356685584,-0.0013590536024986,0.0013590536169186,-0.00135905361707,0.0013590536027215,0.0038092274058298,0.0036456986741531,0.73704526181109,0.6323730657908,1368840,32768,0.0057589153609201,0.0057589153609949,0.005758915360888,26.798366342643,26.809750296251,0.00012958693074114,0.00012958693074114,0.00012958693074114,269243.57192078,0.017427048947819
30844800,0.99998617653156,0.016914825313051,0.0056382751043451,0.0056382751044042,0.0056382751043019,-0.001386627117045,0.0013866271166348,6.6650281526709e-12,-7.0649576409819e-12,-5.3502483182923e-15,-4.0692127471673e-13,-0.0014112464324144,0.001411246436829,-0.0014112464369088,0.0014112464319507,-0.0014112464331859,0.0014112464369813,-0.0014112464377605,0.0014112464326671,-0.0013596158855089,0.0013596158990334,-0.0013596158995975,0.0013596158848193,-7.2668397677391e-13,-3.0329255814995e-13,-5.0920297361045e-14,9.6572549774894e-14,-0.0013866271171766,0.0013866271165162,-0.0014112464349054,0.0014112464346573,-0.0014112464347134,0.0014112464349125,-0.0014112464347936,0.0014112464349408,-0.0014112464348167,0.0014112464350106,-0.0013596158925831,0.0013596158912204,-0.001359615890769,0.0013596158897932,-0.0013596158929502,0.0013596158897437,-0.0013596158923724,0.0013596158896865,-7.1186182369816e-12,7.0976162903414e-12,-0.0013866271168432,0.0013866271168381,6.9007009530286e-14,-8.295478931754e-14,-0.0014112464373664,0.0014112464326164,-0.001411246437261,0.0014112464324557,-0.0014112464325554,0.0014112464375976,-0.0014112464324954,0.0014112464372164,-0.0013596158831846,0.001359615897479,-0.0013596158975189,0.0013596158831187,0.0038112001308803,0.0036456350964748,0.74352736125964,0.74307751585789,1368840,32768,0.0057609396400958,0.0057609396401225,0.0057609396400991,26.969809926319,26.981198704541,0.00013095847941055,0.00013095847941055,0.00013095847941055,264466.49075363,0.0174332272056
30931200,0.99998662392602,0.016914832632608,0.0056382775441972,0.0056382775442564,0.0056382775441541,-0.0013872516978599,0.0013872516973834,6.6490466997168e-12,-7.1175284467445e-12,-5.7709825239747e-14,-4.2719436127021e-13,-0.0014117256969578,0.0014117257014071,-0.0014117257015859,0.001411725696552,-0.0014117256977672,0.0014117257016389,-0.0014117257024721,0.0014117256972084,-0.0013603764231247,0.0013603764365531,-0.0013603764371093,0.0013603764224177,-6.544336545599e-13,-2.6219499012303e-13,-5.5476569934751e-14,1.5223370230607e-13,-0.0013872516979368,0.0013872516973188,-0.001411725699503,0.0014117256991196,-0.0014117256993657,0.0014117256993897,-0.0014117256993151,0.0014117256995599,-0.0014117256991681,0.0014117256995112,-0.0013603764303419,0.0013603764294248,-0.0013603764289499,0.0013603764276782,-0.0013603764311749,0.0013603764280625,-0.0013603764301238,0.0013603764273892,-7.0835354852062e-12,7.1690629018141e-12,-0.001387251697591,0.0013872516976097,1.3051051299341e-13,-8.1543008917051e-14,-0.0014117257019127,0.0014117256972438,-0.001411725701771,0.0014117256969277,-0.0014117256972209,0.0014117257022798,-0.001411725697057,0.0014117257016569,-0.0013603764208203,0.0013603764353322,-0.0013603764352396,0.0013603764210708,0.0038137339085253,0.0036455727919821,0.74609160412617,0.77014088914354,1368840,32768,0.0057635273363447,0.00576352733637,0.0057635273362564,27.141253181418,27.152647112831,0.00013233002545134,0.00013233002545134,0.00013233002545134,255848.17374122,0.017441124848043
31017600,0.99998706115974,0.016914839808574,0.005638279936186,0.0056382799362452,0.0056382799361429,-0.0013876577078248,0.001387657707406,6.6945747794535e-12,-7.1080363837794e-12,-2.6163024266979e-14,-3.8886935560223e-13,-0.0014120913862445,0.0014120913902676,-0.0014120913904527,0.0014120913857012,-0.0014120913868367,0.0014120913907871,-0.001412091391348,0.001412091386356,-0.0013608178752924,0.001360817888342,-0.0013608178889529,0.0013608178733735,-7.6479645952255e-13,-3.8019562057888e-13,-9.6771867215295e-14,1.4454961352029e-13,-0.0013876577079934,0.0013876577072901,-0.0014120913884818,0.0014120913882474,-0.0014120913883736,0.0014120913885375,-0.0014120913884047,0.0014120913884899,-0.0014120913887058,0.0014120913887085,-0.0013608178817367,0.0013608178806563,-0.0013608178808205,0.0013608178791616,-0.0013608178822323,0.0013608178791694,-0.0013608178821063,0.0013608178790358,-7.1377818868394e-12,7.1512640926143e-12,-0.0013876577076164,0.0013876577075964,8.0606566936475e-14,-1.6472855589099e-13,-0.0014120913911435,0.001412091386331,-0.0014120913908944,0.001412091386216,-0.0014120913862076,0.001412091391227,-0.0014120913862725,0.001412091390891,-0.0013608178721627,0.0013608178873741,-0.0013608178859495,0.0013608178722148,0.0038153716352362,0.0036455117337588,0.74836004291474,0.78770223647542,1368840,32768,0.005765209352301,0.0057652093524101,0.0057652093522639,27.312696385205,27.324095521121,0.00013370157108164,0.00013370157108164,0.00013370157108164,253268.4220858,0.017446258797865
31104000,0.99998748964911,0.016914846900091,0.0056382823000252,0.0056382823000843,0.005638282299982,-0.0013881441669184,0.0013881441666905,6.7323732129726e-12,-7.1299665961794e-12,7.5166291956671e-14,-2.1599475444969e-13,-0.0014125488095596,0.0014125488142515,-0.0014125488144595,0.0014125488094982,-0.0014125488106582,0.0014125488147332,-0.0014125488149414,0.0014125488100703,-0.0013613283353349,0.0013613283483419,-0.0013613283490983,0.0013613283339947,-7.5104273263064e-13,-4.3866089332846e-13,-5.7676973302174e-14,2.2297842345634e-13,-0.0013881441671376,0.0013881441665467,-0.0014125488118587,0.0014125488118867,-0.0014125488121011,0.001412548812462,-0.0014125488117516,0.0014125488120999,-0.001412548811799,0.0014125488122707,-0.0013613283425201,0.0013613283412651,-0.0013613283396015,0.0013613283394798,-0.0013613283424826,0.0013613283393231,-0.0013613283413382,0.0013613283398248,-7.2288077531205e-12,7.1192711876227e-12,-0.0013881441668757,0.0013881441667491,9.7537461473975e-14,-1.8643268696233e-13,-0.0014125488150225,0.0014125488098135,-0.0014125488145645,0.0014125488095768,-0.0014125488098573,0.001412548814982,-0.0014125488098068,0.001412548814462,-0.0013613283326754,0.0013613283476233,-0.0013613283462242,0.0013613283324492,0.0038173504103657,0.0036454519130563,0.75461537941452,0.86308056669199,1368840,32768,0.0057672246233764,0.0057672246235324,0.0057672246234096,27.538146812332,27.553020224963,0.00013550517449866,0.00013550517449866,0.00013550517449866,251315.75299598,0.017452410053574
31190400,0.99998790982872,0.016914853914953,0.0056382846383125,0.0056382846383716,0.0056382846382693,-0.001388802958572,0.0013888029581637,6.7075111489621e-12,-7.1170228151324e-12,-2.3472753511728e-14,-3.0996629544833e-13,-0.0014131121978058,0.0014131122021868,-0.0014131122023491,0.0014131121973707,-0.0014131121985298,0.0014131122022593,-0.0014131122030537,0.0014131121979462,-0.0013620714668054,0.0013620714811359,-0.0013620714807624,0.0013620714656107,-7.6971733860484e-13,-4.6169471907266e-13,-2.1729177365018e-13,8.6645764796067e-14,-0.0013888029587612,0.0013888029580216,-0.0014131122001613,0.0014131122000205,-0.0014131122000813,0.0014131122003211,-0.0014131121999574,0.0014131122001013,-0.0014131122000845,0.001413112200266,-0.0013620714742681,0.0013620714724545,-0.0013620714721914,0.0013620714712345,-0.0013620714744632,0.0013620714710474,-0.0013620714735778,0.0013620714709811,-7.1376771253339e-12,7.1735374415906e-12,-0.0013888029583644,0.0013888029583609,1.5315432124062e-13,-1.5446395770271e-13,-0.0014131122027241,0.0014131121980014,-0.0014131122026897,0.0014131121976019,-0.0014131121978502,0.0014131122029246,-0.0014131121977906,0.0014131122025567,-0.0013620714637633,0.0013620714793021,-0.0013620714787891,0.0013620714644946,0.00382004342083,0.0036453933072428,0.76119662512772,0.92744920702684,1368840,32768,0.005769953912936,0.0057699539130335,0.0057699539129147,27.782454381346,27.798660846662,0.00013745963505076,0.00013745963505076,0.00013745963505076,245520.91310279,0.017460740438646
31276800,0.99998832167547,0.016914860785825,0.0056382869286031,0.0056382869286623,0.00563828692856,-0.0013894335832348,0.0013894335828305,6.684154568372e-12,-7.0496994012283e-12,-5.3171787403099e-14,-3.9482205610426e-13,-0.0014136618991012,0.0014136619036818,-0.0014136619037078,0.0014136618987648,-0.0014136618998132,0.001413661903801,-0.0014136619045003,0.0014136618993095,-0.0013627713968348,0.0013627714105591,-0.0013627714108302,0.0013627713966249,-7.6955781406644e-13,-4.0557043363106e-13,-2.8832830941512e-13,1.2828540449836e-13,-0.0013894335834258,0.0013894335826713,-0.0014136619016693,0.0014136619013678,-0.0014136619015151,0.0014136619018868,-0.0014136619013724,0.0014136619016002,-0.0014136619014944,0.0014136619017123,-0.0013627714046527,0.0013627714026495,-0.0013627714025059,0.0013627714014773,-0.0013627714040968,0.0013627714015099,-0.001362771403798,0.0013627714018029,-7.1114715729543e-12,7.1091023512148e-12,-0.0013894335830536,0.001389433582993,1.6334903921074e-13,-2.5674436251831e-13,-0.0014136619043479,0.0014136618994799,-0.0014136619041052,0.0014136618990454,-0.0014136618992959,0.0014136619043024,-0.00141366189932,0.0014136619037742,-0.0013627713949663,0.0013627714089618,-0.0013627714092471,0.0013627713948874,0.0038226238587443,0.0036453358738478,0.76059929341375,0.86462826064949,1368840,32768,0.0057725664658392,0.0057725664659051,0.0057725664658007,28.027956563116,28.044301468363,0.00013942365250493,0.00013942365250493,0.00013942365250493,240497.80581688,0.017468714715411
31363200,0.99998872514536,0.016914867493305,0.0056382891644298,0.0056382891644889,0.0056382891643866,-0.0013897823621563,0.0013897823617399,6.6828969009105e-12,-7.0926854997972e-12,-2.2733540800051e-14,-4.0624811881059e-13,-0.0014140673715206,0.0014140673759467,-0.0014140673761367,0.0014140673711715,-0.0014140673722677,0.0014140673761776,-0.00141406737683,0.0014140673716715,-0.0013630618152784,0.0013630618291964,-0.0013630618295505,0.0013630618147999,-7.5980731781976e-13,-3.5440752603453e-13,-2.2242252867384e-13,1.9700904033258e-13,-0.0013897823623149,0.0013897823616168,-0.0014140673740794,0.0014140673737722,-0.0014140673738827,0.0014140673741143,-0.0014140673739267,0.0014140673740508,-0.0014140673738397,0.0014140673741371,-0.0013630618229628,0.0013630618211797,-0.0013630618208535,0.0013630618201187,-0.0013630618229851,0.0013630618197829,-0.0013630618224101,0.0013630618197112,-7.1619976176537e-12,7.1001095377038e-12,-0.0013897823619812,0.0013897823619018,1.7074666615949e-13,-2.5191083370871e-13,-0.0014140673765524,0.0014140673717697,-0.0014140673765321,0.0014140673714001,-0.0014140673716914,0.0014140673767333,-0.0014140673716784,0.0014140673762418,-0.0013630618131876,0.0013630618275734,-0.0013630618277833,0.0013630618131019,0.0038240477843934,0.0036452795828226,0.75787860829275,0.79905950129701,1368840,32768,0.005774011170967,0.0057740111710404,0.0057740111709396,28.273568392322,28.289942090064,0.00014138854713858,0.00014138854713858,0.00014138854713858,243267.4776477,0.017473125164856
31449600,0.99998912019907,0.016914874025592,0.0056382913418588,0.0056382913419179,0.0056382913418157,-0.0013901097309049,0.0013901097305174,6.6711558478269e-12,-7.0846452160106e-12,-6.044050652519e-15,-3.843351411782e-13,-0.0014144644540706,0.0014144644584802,-0.0014144644586864,0.0014144644536346,-0.0014144644548433,0.001414464458746,-0.001414464459421,0.0014144644542686,-0.0013633220804275,0.0013633220941367,-0.0013633220942584,0.001363322080045,-7.3183537822566e-13,-3.3104429858862e-13,-1.952756815208e-13,2.326391577393e-13,-0.0013901097310911,0.0013901097303604,-0.0014144644568553,0.0014144644562906,-0.001414464456522,0.0014144644568622,-0.001414464456724,0.0014144644565978,-0.0014144644563025,0.0014144644567223,-0.0013633220876769,0.0013633220860573,-0.0013633220854312,0.0013633220852695,-0.0013633220877342,0.0013633220845901,-0.001363322087391,0.0013633220847289,-7.0705716459485e-12,7.1719919299813e-12,-0.001390109730702,0.0013901097306853,1.5485200467167e-13,-2.7691565806379e-13,-0.0014144644591354,0.0014144644541516,-0.0014144644592173,0.0014144644540805,-0.0014144644542003,0.0014144644593332,-0.0014144644541252,0.0014144644588044,-0.0013633220781875,0.0013633220923481,-0.001363322092583,0.0013633220784877,0.0038253800846822,0.003645224406716,0.7538429539468,0.73349074194454,1368840,32768,0.0057753672067117,0.0057753672067721,0.0057753672066392,28.519191408808,28.535582711764,0.00014335353127046,0.00014335353127046,0.00014335353127046,246922.6313437,0.017477264878125
31536000,0.99998950680432,0.016914880377355,0.005638293459113,0.0056382934591722,0.0056382934590699,-0.0013904235731974,0.0013904235728886,6.7436041051706e-12,-7.0431129553808e-12,6.5793754751837e-14,-3.8696835485297e-13,-0.00141485801208,0.0014148580166618,-0.0014148580166872,0.0014148580118093,-0.0014148580127898,0.0014148580166579,-0.0014148580172275,0.0014148580123027,-0.0013635619390279,0.0013635619540191,-0.0013635619535673,0.0013635619389682,-7.6432262105681e-13,-2.9034530662077e-13,-1.6734165253327e-13,2.704776488582e-13,-0.0013904235733618,0.0013904235727344,-0.0014148580146438,0.001414858014615,-0.0014148580144572,0.0014148580149571,-0.0014148580144039,0.0014148580147987,-0.0014148580144034,0.0014148580148272,-0.0013635619472169,0.0013635619455,-0.0013635619447728,0.001363561944295,-0.001363561947844,0.0013635619437815,-0.0013635619464676,0.0013635619439131,-7.1537329877795e-12,7.1193807136885e-12,-0.001390423573049,0.001390423573011,1.8602402297614e-13,-2.5465754391625e-13,-0.001414858017112,0.0014148580123048,-0.0014148580171498,0.0014148580120216,-0.0014148580122422,0.0014148580174879,-0.0014148580122044,0.0014148580169025,-0.0013635619365356,0.0013635619516674,-0.0013635619518076,0.0013635619370334,0.0038266547359957,0.0036451703204434,0.74907244509718,0.66792198259208,1368840,32768,0.0057766672259517,0.0057766672259729,0.005776667225898,28.764816554332,28.781223333465,0.00014531853243465,0.00014531853243465,0.00014531853243465,251176.36770242,0.017481233553361
31622400,0.99998988493603,0.016914886546267,0.005638295515417,0.0056382955154762,0.0056382955153739,-0.0013907256985859,0.001390725697926,6.5105709888783e-12,-7.2779929564286e-12,-1.4512239014001e-13,-5.925960142456e-13,-0.0014152478197982,0.0014152478243986,-0.0014152478243703,0.0014152478194666,-0.0014152478207032,0.0014152478247153,-0.0014152478254455,0.001415247820052,-0.0013637839619865,0.001363783975016,-0.001363783976349,0.0013637839595319,-7.1198142592675e-13,-2.4283811087417e-13,-1.6048377380146e-13,3.8680433045204e-13,-0.0013907256985526,0.0013907256980172,-0.0014152478228071,0.0014152478225063,-0.0014152478222186,0.0014152478221874,-0.0014152478218635,0.0014152478225813,-0.0014152478220412,0.0014152478228155,-0.0013637839680588,0.0013637839670764,-0.0013637839661791,0.0013637839657755,-0.0013637839677178,0.0013637839657212,-0.001363783968787,0.0013637839655637,-7.1506191417289e-12,7.1242477414747e-12,-0.0013907256982463,0.0013907256982133,1.9963296017363e-13,-3.5087219286006e-13,-0.001415247824875,0.0014152478203843,-0.0014152478251045,0.0014152478197457,-0.0014152478200005,0.0014152478252596,-0.001415247819937,0.0014152478247722,-0.001363783958716,0.0013637839742496,-0.0013637839729886,0.0013637839581476,0.0038278804142009,0.0036451173002571,0.74386085059006,0.6023532232396,1368840,32768,0.0057779187130122,0.005777918713132,0.005777918712904,29.010442669153,29.026863955166,0.00014728354135322,0.00014728354135322,0.00014728354135322,255897.34821961,0.01748505407154
31708800,0.99999025447786,0.016914892529956,0.0056382975099798,0.005638297510039,0.0056382975099367,-0.0013910076212444,0.0013910076210686,6.8496058668896e-12,-7.0148247019205e-12,1.6921906576781e-13,-2.1901554451957e-13,-0.0014156234532541,0.0014156234578458,-0.0014156234578006,0.0014156234532227,-0.0014156234536124,0.0014156234578665,-0.0014156234581109,0.001415623453497,-0.0013639809025828,0.001363980916743,-0.0013639809170928,0.0013639809022126,-7.092419507923e-13,-2.9923885845828e-13,-1.3617804573653e-13,2.9158888627733e-13,-0.0013910076214575,0.0013910076208215,-0.0014156234556493,0.001415623455915,-0.001415623455608,0.0014156234559839,-0.0014156234556236,0.0014156234555666,-0.0014156234557074,0.0014156234558762,-0.0013639809093289,0.0013639809093226,-0.0013639809080737,0.0013639809075463,-0.0013639809101988,0.0013639809079644,-0.0013639809097736,0.0013639809069393,-7.3198690889062e-12,7.0306023081608e-12,-0.0013910076212802,0.0013910076209745,6.2404093597776e-14,-3.6787434992642e-13,-0.0014156234583541,0.0014156234533232,-0.0014156234581825,0.0014156234531694,-0.0014156234536379,0.0014156234579269,-0.0014156234539999,0.0014156234577748,-0.0013639809005702,0.00136398091475,-0.0013639809151864,0.0013639809001382,0.0038290220297272,0.0036450653227908,0.73835135002875,0.53678446388714,1368840,32768,0.0057790865099048,0.0057790865098342,0.0057790865097842,29.25138002496,29.267511874844,0.00014921104019968,0.00014921104019968,0.00014921104019968,261019.92264925,0.017488619131223
31795200,0.99999061088997,0.016914898245934,0.0056382994153059,0.005638299415365,0.0056382994152627,-0.0013908481004769,0.0013908481000788,6.738554906479e-12,-7.1425806225942e-12,1.167105522198e-14,-3.7411304169161e-13,-0.0014155696309028,0.0014155696353457,-0.0014155696355709,0.0014155696305324,-0.0014155696316072,0.0014155696355541,-0.0014155696361985,0.0014155696310722,-0.0013637273095041,0.0013637273234561,-0.0013637273237433,0.0013637273089569,-7.5734159902813e-13,-3.4924144856053e-13,-1.8168030273264e-13,2.3126522912364e-13,-0.0013908481006378,0.00139084809995,-0.0014155696334925,0.0014155696332146,-0.0014155696332997,0.0014155696335133,-0.0014155696334103,0.0014155696334912,-0.0014155696332593,0.0014155696335363,-0.0013637273169045,0.0013637273154199,-0.0013637273149449,0.0013637273142029,-0.0013637273172582,0.001363727313984,-0.0013637273166332,0.0013637273138367,-7.2186741803412e-12,7.1489163408071e-12,-0.0013908481003193,0.0013908481002276,1.6173785313725e-13,-2.541691764826e-13,-0.0014155696359672,0.0014155696311272,-0.0014155696359735,0.0014155696308345,-0.0014155696311191,0.0014155696361076,-0.0014155696311047,0.0014155696356378,-0.0013637273072495,0.0013637273216981,-0.001363727321832,0.0013637273071829,0.0038283131243543,0.0036450143391216,0.73133570234946,0.45226358797313,1368840,32768,0.005778425542265,0.0057784255423315,0.0057784255422469,29.269661619971,29.271394129255,0.00014935729295976,0.00014935729295976,0.00014935729295976,266674.67050533,0.017486602027595
31881600,0.99999095436932,0.016914903878843,0.0056383012929422,0.0056383012930013,0.0056383012928991,-0.0013905922321914,0.0013905922317686,6.7058514937811e-12,-7.1250116299031e-12,-2.5462163324859e-15,-4.1923431032665e-13,-0.0014154525650073,0.0014154525694623,-0.0014154525696663,0.001415452564674,-0.0014154525657827,0.0014154525696789,-0.0014154525703753,0.0014154525651703,-0.0013633465478213,0.0013633465617806,-0.0013633465621238,0.0013633465472419,-7.6432217989382e-13,-3.2568263885423e-13,-1.7040897059351e-13,2.1235274806343e-13,-0.0013905922323344,0.0013905922316601,-0.0014154525676171,0.0014154525673016,-0.0014154525674197,0.0014154525676217,-0.0014154525674504,0.0014154525675976,-0.0014154525673717,0.0014154525676602,-0.0013633465552861,0.0013633465537331,-0.001363346553301,0.0013633465525571,-0.001363346555431,0.001363346552284,-0.0013633465548838,0.0013633465521806,-7.1873086679479e-12,7.1299405969736e-12,-0.0013905922320135,0.0013905922319352,1.5183780263583e-13,-2.3429460716646e-13,-0.0014154525700878,0.0014154525652731,-0.0014154525700622,0.0014154525649319,-0.0014154525652069,0.0014154525702614,-0.0014154525651945,0.0014154525697908,-0.0013633465455202,0.0013633465600642,-0.0013633465601789,0.0013633465454834,0.0038272031646299,0.0036449643761084,0.74789611652411,0.76226457269966,1368840,32768,0.0057773654113217,0.0057773654113933,0.0057773654112984,29.274871150827,29.275276383666,0.00014939896920661,0.00014939896920661,0.00014939896920661,274386.40751709,0.017483366584859
31968000,0.9999912853589,0.016914909323197,0.0056383031077269,0.005638303107786,0.0056383031076838,-0.0013914448491673,0.00139144484874,6.697507042816e-12,-7.1334328432291e-12,-1.4058394055123e-17,-4.2232627469279e-13,-0.0014158935480502,0.0014158935524961,-0.0014158935527082,0.0014158935477098,-0.0014158935488331,0.0014158935527237,-0.0014158935534089,0.0014158935482184,-0.0013645867187329,0.0013645867326121,-0.0013645867330073,0.0013645867180724,-7.6469369795596e-13,-3.205367960562e-13,-1.6227754253247e-13,2.1345236152982e-13,-0.0013914448493056,0.0013914448486349,-0.0014158935506396,0.0014158935503356,-0.0014158935504541,0.0014158935506384,-0.0014158935504797,0.0014158935506316,-0.0014158935503944,0.0014158935506922,-0.0013645867261761,0.0013645867246244,-0.0013645867241802,0.0013645867234301,-0.0013645867263756,0.0013645867231418,-0.0013645867257776,0.0013645867230944,-7.1764240592887e-12,7.1409190851178e-12,-0.001391444848978,0.0013914448489164,1.5378883126853e-13,-2.2532514588323e-13,-0.0014158935531134,0.0014158935483007,-0.0014158935530768,0.0014158935479663,-0.0014158935482231,0.0014158935532975,-0.0014158935482006,0.0014158935528397,-0.0013645867164371,0.0013645867309933,-0.0013645867310118,0.0013645867163648,0.0038306607248585,0.0036449153859625,0.7502205285435,0.78347041116359,1368840,32768,0.0057808982091138,0.0057808982091826,0.0057808982090873,29.278884316905,29.279158638077,0.00014943107453524,0.00014943107453524,0.00014943107453524,250275.45637601,0.017494147882824
32054400,0.99999160430794,0.016914914589525,0.0056383048631696,0.0056383048632287,0.0056383048631265,-0.001391511133158,0.001391511132731,6.7013489254491e-12,-7.1319122426236e-12,-2.8915587236894e-15,-4.2740694301127e-13,-0.0014159242428448,0.0014159242472799,-0.0014159242474903,0.0014159242424996,-0.0014159242436248,0.0014159242475208,-0.0014159242482149,0.0014159242430006,-0.0013646833128645,0.0013646833267341,-0.0013646833271594,0.0013646833122373,-7.6131991866966e-13,-3.1491120320832e-13,-1.6142192161228e-13,2.0867168404682e-13,-0.0013915111332964,0.0013915111326273,-0.0014159242454444,0.0014159242451442,-0.0014159242452543,0.001415924245438,-0.0014159242452759,0.0014159242454296,-0.0014159242452012,0.0014159242454771,-0.0013646833203284,0.0013646833187596,-0.0013646833182931,0.0013646833175774,-0.0013646833204855,0.0013646833172814,-0.0013646833199177,0.0013646833172451,-7.1819817718573e-12,7.1377134183428e-12,-0.0013915111329692,0.0013915111329076,1.5286465361917e-13,-2.2067111159019e-13,-0.0014159242479002,0.0014159242431061,-0.0014159242478717,0.0014159242427578,-0.0014159242430209,0.0014159242480837,-0.0014159242429944,0.0014159242476314,-0.0013646833106079,0.0013646833251216,-0.001364683325184,0.0013646833105276,0.0038308869703172,0.0036448673514126,0.75282612404871,0.80523991285448,1368840,32768,0.0057811728160476,0.0057811728161195,0.0057811728160227,29.282779722852,29.283040892488,0.00014946223778281,0.00014946223778281,0.00014946223778281,248110.10575987,0.017494986040247
32140800,0.99999191165165,0.01691491968657,0.0056383065621847,0.0056383065622438,0.0056383065621416,-0.0013915780858803,0.0013915780854569,6.7003617791352e-12,-7.1297008984139e-12,-1.3624289669656e-15,-4.1949212597997e-13,-0.0014159590807852,0.0014159590852338,-0.0014159590854349,0.0014159590804481,-0.00141595908156,0.0014159590854623,-0.0014159590861483,0.0014159590809496,-0.0013647774533424,0.0013647774672554,-0.001364777467629,0.0013647774527323,-7.5634654119117e-13,-3.1631133690578e-13,-1.5451119155386e-13,2.0786362049731e-13,-0.0013915780860186,0.0013915780853521,-0.0014159590833781,0.001415959083079,-0.0014159590831927,0.0014159590833812,-0.0014159590832101,0.0014159590833718,-0.0014159590831379,0.0014159590834211,-0.0013647774607996,0.001364777459259,-0.0013647774587996,0.0013647774580921,-0.0013647774609705,0.0013647774577936,-0.0013647774604413,0.0013647774577327,-7.1803553509552e-12,7.1361696419747e-12,-0.0013915780856934,0.001391578085631,1.4789039381469e-13,-2.1795225347297e-13,-0.0014159590858488,0.0014159590810448,-0.0014159590858085,0.0014159590807089,-0.0014159590809682,0.0014159590860273,-0.0014159590809425,0.0014159590855679,-0.0013647774510651,0.0013647774656194,-0.0013647774656773,0.0013647774510273,0.0038311173942893,0.0036448202548462,0.75611977943958,0.83311157431456,1368840,32768,0.0057814501933567,0.0057814501934263,0.0057814501933304,29.286663341447,29.286923146899,0.00014949330673157,0.00014949330673157,0.00014949330673157,245958.77204789,0.017495832667548
32227200,0.99999220780978,0.016914924621991,0.005638308207325,0.0056383082073841,0.0056383082072819,-0.0013916587218312,0.0013916587214094,6.7016331520603e-12,-7.1298521879098e-12,-1.1060250352238e-15,-4.1649404109882e-13,-0.0014160012155696,0.0014160012200195,-0.0014160012202203,0.0014160012152321,-0.0014160012163428,0.0014160012202486,-0.0014160012209328,0.0014160012157358,-0.0013648905609101,0.0013648905748266,-0.0013648905751881,0.0013648905602893,-7.5435421970228e-13,-3.1706031402504e-13,-1.5135067045856e-13,2.0447390052152e-13,-0.0013916587219709,0.0013916587213036,-0.0014160012181624,0.0014160012178649,-0.0014160012179789,0.0014160012181645,-0.001416001217995,0.0014160012181557,-0.0014160012179244,0.0014160012182036,-0.0013648905683652,0.001364890566833,-0.0013648905663673,0.0013648905656626,-0.0013648905685349,0.0013648905653712,-0.0013648905680053,0.0013648905652971,-7.178938217777e-12,7.1390339368254e-12,-0.001391658721644,0.001391658721584,1.4545135067873e-13,-2.1386846646515e-13,-0.0014160012206319,0.0014160012158278,-0.0014160012205902,0.0014160012154938,-0.0014160012157516,0.001416001220812,-0.0014160012157252,0.0014160012203542,-0.001364890558631,0.0013648905732039,-0.0013648905732433,0.0013648905586071,0.0038314055059982,0.0036447740788748,0.75977560698063,0.86098323577464,1368840,32768,0.0057817842628376,0.0057817842629077,0.0057817842628116,29.290545781222,29.29080540131,0.00014952436624977,0.00014952436624977,0.00014952436624977,243402.87023729,0.017496852322293
32313600,0.99999249318703,0.016914929402688,0.0056383098008908,0.0056383098009499,0.0056383098008476,-0.0013917385755652,0.0013917385751423,6.6989538221473e-12,-7.1300641226118e-12,5.3892471269055e-16,-4.1915184225776e-13,-0.0014160427124374,0.0014160427168869,-0.0014160427170858,0.0014160427120998,-0.0014160427132127,0.0014160427171159,-0.0014160427178017,0.0014160427126032,-0.0013650021400013,0.0013650021539092,-0.0013650021542863,0.001365002139378,-7.5551689006585e-13,-3.1393440951928e-13,-1.4528288523699e-13,2.0461939607673e-13,-0.0013917385757027,0.0013917385750385,-0.0014160427150264,0.001416042714733,-0.0014160427148481,0.0014160427150311,-0.0014160427148599,0.001416042715025,-0.0014160427147934,0.0014160427150716,-0.0013650021474443,0.001365002145924,-0.0013650021454504,0.0013650021447509,-0.0013650021476241,0.0013650021444449,-0.0013650021470891,0.0013650021443883,-7.175499734585e-12,7.140031935749e-12,-0.0013917385753754,0.0013917385753195,1.4449417403746e-13,-2.0893717593622e-13,-0.0014160427175003,0.0014160427126972,-0.0014160427174566,0.0014160427123673,-0.0014160427126197,0.0014160427176804,-0.0014160427125909,0.0014160427172255,-0.0013650021377154,0.001365002152288,-0.0013650021523211,0.0013650021376835,0.0038316918290656,0.0036447288062797,0.76373518158399,0.88885489723472,1368840,32768,0.0057821150863973,0.005782115086467,0.0057821150863712,29.294428109767,29.294687655721,0.00014955542487813,0.00014955542487813,0.00014955542487813,240837.07509647,0.01749786208822
32400000,0.99999276817354,0.016914934034807,0.0056383113449302,0.0056383113449893,0.005638311344887,-0.001391817364024,0.0013918173636034,6.7008026480199e-12,-7.1258550747247e-12,-7.7050587333917e-16,-4.1806252259455e-13,-0.0014160835348829,0.0014160835393311,-0.0014160835395307,0.001416083534546,-0.0014160835356572,0.0014160835395612,-0.001416083540241,0.0014160835350489,-0.0013651118879944,0.0013651119019338,-0.0013651119022726,0.0013651118873835,-7.5671758867945e-13,-3.1754318162671e-13,-1.4622162126513e-13,2.0123714646096e-13,-0.0013918173641637,0.0013918173634973,-0.001416083537475,0.0014160835371826,-0.0014160835372928,0.0014160835374786,-0.001416083537306,0.0014160835374716,-0.0014160835372406,0.0014160835375171,-0.0013651118954521,0.0013651118939269,-0.0013651118934658,0.0013651118927502,-0.0013651118956385,0.0013651118924433,-0.0013651118951058,0.0013651118923971,-7.1741540109901e-12,7.1390494363519e-12,-0.0013918173638347,0.0013918173637798,1.4356987874464e-13,-2.0743169251594e-13,-0.0014160835399446,0.0014160835351445,-0.0014160835398987,0.0014160835348142,-0.0014160835350668,0.0014160835401264,-0.0014160835350357,0.0014160835396715,-0.0013651118857048,0.0013651119002961,-0.0013651119003376,0.0013651118857077,0.0038319750297465,0.003644684420002,0.76793666264407,0.91672655869479,1368840,32768,0.0057824414927404,0.0057824414928097,0.0057824414927137,29.298310433803,29.298569910132,0.00014958648347042,0.00014958648347042,0.00014958648347042,238278.81703758,0.017498858385645
32486400,0.9999930331278,0.016914938470709,0.0056383128235643,0.0056383128236235,0.0056383128235212,-0.0013918925578806,0.0013918925574568,6.7027750583523e-12,-7.1305168734864e-12,2.2323435681422e-15,-4.2385893375346e-13,-0.0014161217548242,0.0014161217592797,-0.0014161217594867,0.0014161217544898,-0.001416121755609,0.0014161217594709,-0.0014161217601956,0.0014161217549983,-0.001365216911362,0.001365216925388,-0.0013652169256874,0.0013652169108187,-7.6284769552654e-13,-3.1488285113328e-13,-1.4418483054652e-13,2.0262795691383e-13,-0.0013918925580183,0.0013918925573563,-0.0014161217573967,0.0014161217571184,-0.0014161217572126,0.0014161217574167,-0.0014161217572334,0.0014161217574113,-0.0014161217571734,0.0014161217574685,-0.0013652169188434,0.0013652169173365,-0.001365216916845,0.0013652169161701,-0.0013652169190633,0.0013652169158675,-0.001365216918517,0.0013652169158161,-7.1743370642214e-12,7.145549120144e-12,-0.0013918925576896,0.0013918925576389,1.4644261451394e-13,-2.0395500460873e-13,-0.0014161217598815,0.00141612175509,-0.0014161217598431,0.001416121754755,-0.0014161217550104,0.0014161217600764,-0.0014161217549662,0.0014161217596099,-0.0013652169090739,0.001365216923687,-0.0013652169237844,0.0013652169091079,0.003832244364764,0.0036446408889849,0.7632261563451,0.81481010692511,1368840,32768,0.0057827530052216,0.0057827530052988,0.0057827530052035,29.301025396194,29.301209604224,0.00014960820316955,0.00014960820316955,0.00014960820316955,235749.65957504,0.017499809231076
32572800,0.99999328802987,0.01691494269953,0.0056383142331714,0.0056383142332305,0.0056383142331282,-0.0013916247748584,0.0013916247743896,6.6822414503458e-12,-7.1532818250916e-12,-1.7530582099809e-14,-4.3832272718862e-13,-0.0014159605873246,0.0014159605916419,-0.0014159605919014,0.0014159605869257,-0.0014159605880754,0.0014159605918772,-0.0014159605926086,0.0014159605874076,-0.0013648481870246,0.0013648482007244,-0.0013648482012507,0.001364848186235,-7.7386680007693e-13,-3.3101365246602e-13,-1.4379851881866e-13,1.811578775159e-13,-0.0013916247749735,0.0013916247742993,-0.0014159605898745,0.0014159605895466,-0.001415960589648,0.0014159605898469,-0.0014159605897017,0.001415960589827,-0.0014159605896762,0.0014159605898677,-0.0013648481945659,0.0013648481929767,-0.0013648481924158,0.0013648481915931,-0.0013648481946925,0.0013648481912716,-0.0013648481940161,0.0013648481911661,-7.1939035841248e-12,7.1282349726087e-12,-0.0013916247746528,0.0013916247745775,1.3230625225246e-13,-1.9615112536482e-13,-0.0014159605923145,0.001415960587521,-0.001415960592254,0.0014159605871594,-0.0014159605874471,0.0014159605924891,-0.0014159605874431,0.0014159605920163,-0.0013648481846505,0.0013648481991536,-0.0013648481991263,0.001364848184469,0.003831097885662,0.0036445981916333,0.75626098131089,0.71055228244282,1368840,32768,0.0057816434621841,0.0057816434622355,0.0057816434621477,29.277237610738,29.275707101139,0.0001494179008859,0.0001494179008859,0.0001494179008859,241476.80386238,0.017496423113615
32659200,0.9999935332519,0.016914946724599,0.0056383155748611,0.0056383155749203,0.005638315574818,-0.0013913212490311,0.001391321248625,6.7023935994174e-12,-7.119195925216e-12,1.0445445604689e-14,-4.1171736349363e-13,-0.0014157843264638,0.001415784330862,-0.0014157843310596,0.001415784326064,-0.0014157843270939,0.0014157843309951,-0.0014157843317192,0.0014157843265193,-0.0013644276921984,0.0013644277059737,-0.0013644277064763,0.001364427691647,-7.7185444978814e-13,-3.2804362555124e-13,-1.2529770165299e-13,1.661588651372e-13,-0.0013913212491816,0.0013913212485136,-0.0014157843289751,0.0014157843287024,-0.001415784328852,0.0014157843289623,-0.0014157843288063,0.0014157843290164,-0.0014157843287539,0.0014157843290466,-0.0013644276996405,0.001364427698253,-0.0013644276976331,0.0013644276971133,-0.0013644276998345,0.0013644276965925,-0.0013644276993122,0.0013644276966644,-7.1802552363665e-12,7.1279442167852e-12,-0.0013913212488645,0.0013913212487872,1.0093579883357e-13,-1.9406145390873e-13,-0.0014157843314706,0.0014157843266325,-0.001415784331451,0.0014157843263698,-0.0014157843265863,0.0014157843316161,-0.0014157843265822,0.0014157843311518,-0.0013644276900889,0.0013644277045257,-0.0013644277045403,0.0013644276899742,0.0038297996494437,0.0036445563110324,0.74829748538715,0.60629445796055,1368840,32768,0.0057803858743105,0.0057803858743915,0.0057803858743014,29.251893385005,29.250204598054,0.00014921514708004,0.00014921514708004,0.00014921514708004,248463.01331001,0.017492585016767
32745600,0.99999376917239,0.016914950552394,0.0056383168507926,0.0056383168508518,0.0056383168507495,-0.0013909915378699,0.0013909915374433,6.6894641708732e-12,-7.1204414754006e-12,-1.4428970969547e-16,-4.2353247313838e-13,-0.0014155994207923,0.0014155994252299,-0.0014155994254346,0.0014155994204519,-0.0014155994215678,0.0014155994254591,-0.0014155994261494,0.0014155994209531,-0.0013639665040693,0.0013639665179807,-0.0013639665183513,0.0013639665034764,-7.6138874009663e-13,-3.1606905018983e-13,-1.2045784950715e-13,1.649557254217e-13,-0.0013909915380087,0.0013909915373381,-0.0014155994233682,0.0014155994230905,-0.0014155994232079,0.0014155994233708,-0.0014155994232002,0.0014155994233832,-0.001415599423151,0.0014155994234101,-0.0013639665115093,0.001363966510022,-0.0013639665095686,0.0013639665087756,-0.0013639665117251,0.0013639665084756,-0.001363966511171,0.0013639665084425,-7.156712308528e-12,7.1396832993408e-12,-0.0013909915376692,0.0013909915376315,1.2208965259786e-13,-1.6707416070496e-13,-0.0014155994258479,0.0014155994210508,-0.0014155994257814,0.001415599420738,-0.0014155994209761,0.0014155994260252,-0.0014155994209251,0.0014155994255887,-0.001363966501771,0.0013639665163539,-0.0013639665163844,0.0013639665017882,0.0038283916571125,0.0036445152315627,0.73975107504822,0.50203663347824,1368840,32768,0.005779019816773,0.0057790198168424,0.005779019816747,29.226406524475,29.22470209497,0.0001490112521958,0.0001490112521958,0.0001490112521958,256419.15030259,0.017488415811351
32832000,0.99999399615638,0.016914954192979,0.0056383180643209,0.0056383180643801,0.0056383180642778,-0.0013906345366417,0.0013906345362191,6.6959262675782e-12,-7.105729571898e-12,-1.0650086411876e-14,-4.2136159828064e-13,-0.0014153982613772,0.0014153982657648,-0.0014153982659701,0.0014153982610334,-0.0014153982621093,0.0014153982660679,-0.0014153982666504,0.0014153982614098,-0.0013634681714218,0.0013634681854311,-0.0013634681856506,0.001363468171049,-7.4950727953768e-13,-3.1678679296916e-13,-1.1517042279911e-13,1.8585558694528e-13,-0.0013906345367863,0.0013906345361303,-0.0014153982639964,0.0014153982636918,-0.0014153982636994,0.0014153982639329,-0.0014153982637111,0.0014153982639608,-0.0014153982637832,0.0014153982639843,-0.0013634681789759,0.0013634681775138,-0.00136346817699,0.0013634681761825,-0.0013634681790003,0.0013634681759383,-0.0013634681785003,0.0013634681757255,-7.1554755816033e-12,7.1325261062234e-12,-0.0013906345364394,0.0013906345364055,1.1956722965615e-13,-1.848637643036e-13,-0.0014153982663537,0.001415398261664,-0.0014153982663744,0.0014153982613192,-0.0014153982614882,0.001415398266548,-0.0014153982614661,0.0014153982661754,-0.0013634681691428,0.0013634681837814,-0.0013634681838711,0.0013634681693089,0.0038268698507785,0.0036444749389381,0.73135292538896,0.40460927212687,1368840,32768,0.0057775406996427,0.0057775406997581,0.0057775406996098,29.200905491261,29.199199591885,0.00014880724393009,0.00014880724393009,0.00014880724393009,265261.96516211,0.01748390151136
32918400,0.99999421455429,0.016914957744379,0.005638319248121,0.0056383192481801,0.0056383192480778,-0.0013902698913036,0.0013902698908638,6.6698917687966e-12,-7.1196185005419e-12,-1.2935957756547e-14,-4.2448356173033e-13,-0.0014151974535448,0.0014151974579314,-0.0014151974581467,0.0014151974531435,-0.0014151974542763,0.0014151974581726,-0.0014151974588656,0.0014151974536306,-0.0013629557842431,0.0013629557981363,-0.001362955798441,0.0013629557836949,-7.7438943116973e-13,-3.4072441463243e-13,-1.397132906784e-13,1.6078226468277e-13,-0.0013902698914482,0.0013902698907548,-0.0014151974560989,0.0014151974558033,-0.0014151974559189,0.0014151974560577,-0.0014151974559297,0.0014151974560472,-0.001415197455878,0.0014151974561006,-0.0013629557915672,0.0013629557900336,-0.0013629557896742,0.0013629557889103,-0.0013629557917947,0.0013629557886904,-0.0013629557913037,0.0013629557884618,-7.1566999559642e-12,7.1193544203741e-12,-0.0013902698910992,0.0013902698910569,1.2883527005329e-13,-1.7527805714038e-13,-0.0014151974585574,0.0014151974537837,-0.0014151974585088,0.0014151974534546,-0.0014151974536832,0.0014151974587602,-0.0014151974536299,0.0014151974582904,-0.0013629557817909,0.0013629557963291,-0.0013629557964001,0.0013629557818837,0.0038253159970502,0.0036444354425023,0.74157907701755,0.59136693301626,1368840,32768,0.0057760299228511,0.0057760299229249,0.0057760299228278,29.175403088705,29.1736970888,0.00014860322470963,0.00014860322470963,0.00014860322470963,274497.93440185,0.017479290565048
33004800,0.99999442470233,0.016914961167442,0.0056383203891419,0.005638320389201,0.0056383203890987,-0.0013907647926351,0.0013907647922038,6.6741725791973e-12,-7.117563739784e-12,-8.9236685645214e-15,-4.2006581433654e-13,-0.0014154272990953,0.001415427303527,-0.0014154273037325,0.0014154272987481,-0.001415427299857,0.0014154273037599,-0.0014154273044384,0.0014154272992169,-0.0013636993798595,0.0013636993936999,-0.0013636993941109,0.0013636993792957,-7.5147124895153e-13,-3.1824427785576e-13,-1.2287804027786e-13,1.8265721406514e-13,-0.0013907647927703,0.0013907647921029,-0.0014154273016803,0.0014154273013869,-0.0014154273015285,0.001415427301663,-0.0014154273014844,0.0014154273016334,-0.0014154273014068,0.001415427301708,-0.0013636993873129,0.0013636993857723,-0.001363699385339,0.0013636993845847,-0.0013636993874129,0.0013636993842945,-0.0013636993868948,0.0013636993842812,-7.1640060268864e-12,7.1140744640261e-12,-0.0013907647924484,0.0013907647923869,1.1418274708957e-13,-1.9505971753011e-13,-0.0014154273041556,0.001415427299383,-0.0014154273041012,0.0014154272990127,-0.0014154272992593,0.0014154273043143,-0.0014154272992359,0.0014154273038915,-0.0013636993776207,0.0013636993920395,-0.0013636993921582,0.0013636993775447,0.0038273098636771,0.0036443967157302,0.7429381193773,0.62503185655508,1368840,32768,0.005778080567667,0.0057780805677379,0.0057780805676596,29.149900464953,29.148194585715,0.00014839920371962,0.00014839920371962,0.00014839920371962,258677.48692013,0.017485548539577
33091200,0.99999462692316,0.016914964506872,0.0056383215022854,0.0056383215023446,0.0056383215022423,-0.001390804355723,0.0013908043552836,6.6609620415937e-12,-7.1124213674682e-12,-8.8885519902498e-15,-4.316476369904e-13,-0.0014154199029609,0.001415419907399,-0.0014154199076056,0.00141541990262,-0.0014154199037554,0.0014154199076371,-0.0014154199083247,0.0014154199031222,-0.0013637835591433,0.0013637835728979,-0.0013637835732982,0.0013637835584613,-7.7020788244259e-13,-3.2551429105597e-13,-1.1692786911033e-13,1.6343097788404e-13,-0.0013908043558579,0.001390804355182,-0.0014154199055362,0.0014154199052197,-0.0014154199053857,0.001415419905539,-0.0014154199053763,0.0014154199055437,-0.0014154199053229,0.0014154199055704,-0.0013637835664675,0.0013637835651344,-0.0013637835645463,0.0013637835638092,-0.0013637835668446,0.001363783563524,-0.001363783566211,0.0013637835635128,-7.1463040970799e-12,7.1134828056302e-12,-0.0013908043555194,0.0013908043554735,1.1295099060124e-13,-1.7112324289063e-13,-0.0014154199079991,0.0014154199032067,-0.001415419907936,0.0014154199029031,-0.001415419903109,0.0014154199081779,-0.0014154199030776,0.0014154199077449,-0.0013637835569059,0.0013637835714197,-0.001363783571387,0.0013637835568978,0.0038274284867754,0.0036443587545348,0.75302743571036,0.79978099776202,1368840,32768,0.005778244541411,0.0057782445414798,0.0057782445413826,29.124397281369,29.12269208263,0.00014819517825095,0.00014819517825095,0.00014819517825095,255887.03736351,0.017486048777343
33177600,0.99999482152638,0.016914967733052,0.0056383225776786,0.0056383225777377,0.0056383225776354,-0.0013911914089259,0.0013911914084986,6.6753121914417e-12,-7.1089975308876e-12,-2.0517608495262e-15,-4.2660314403737e-13,-0.0014155910472075,0.0014155910516422,-0.0014155910518419,0.0014155910468714,-0.0014155910479851,0.0014155910518682,-0.0014155910525583,0.0014155910473696,-0.0013643723010184,0.0013643723148922,-0.001364372315266,0.0013643723004051,-7.5752232880107e-13,-3.1106708534936e-13,-1.1796383746221e-13,1.7302289074004e-13,-0.0013911914090612,0.0013911914083969,-0.0014155910497822,0.001415591049505,-0.0014155910496183,0.0014155910497834,-0.0014155910496112,0.0014155910497993,-0.0014155910495616,0.0014155910498248,-0.0013643723084147,0.0013643723069465,-0.0013643723064841,0.0013643723057088,-0.001364372308633,0.0013643723054324,-0.0013643723081011,0.0013643723053968,-7.1461707482125e-12,7.1245734668181e-12,-0.0013911914087258,0.0013911914086859,1.2250249292705e-13,-1.7223773825532e-13,-0.0014155910522546,0.0014155910474675,-0.0014155910521923,0.0014155910471547,-0.0014155910473887,0.0014155910524333,-0.0014155910473414,0.0014155910519974,-0.0013643722987119,0.0013643723132761,-0.0013643723132907,0.0013643722987266,0.0038289786571914,0.0036443215357413,0.75593951845839,0.82129808892253,1368840,32768,0.0057798483225225,0.005779848322592,0.0057798483224962,29.098894377423,29.097189579545,0.00014799115501938,0.00014799115501938,0.00014799115501938,243310.42822357,0.017490943010469
33264000,0.99999500890955,0.016914970852887,0.0056383236176237,0.0056383236176828,0.0056383236175806,-0.0013912193441189,0.0013912193436931,6.6749920835737e-12,-7.1068049508106e-12,1.8573550237848e-15,-4.239717538363e-13,-0.0014155867499457,0.0014155867543785,-0.0014155867545807,0.0014155867496086,-0.0014155867507217,0.0014155867546031,-0.0014155867552947,0.0014155867501051,-0.0013644272994698,0.0013644273133259,-0.0013644273136985,0.001364427298853,-7.5816113281546e-13,-3.1042504613969e-13,-1.1575616961083e-13,1.6819056777596e-13,-0.0013912193442551,0.0013912193435908,-0.001415586752517,0.0014155867522423,-0.0014155867523556,0.0014155867525222,-0.0014155867523469,0.0014155867525389,-0.0014155867522991,0.0014155867525643,-0.0013644273068654,0.0013644273053918,-0.0013644273049342,0.001364427304139,-0.0013644273070792,0.0013644273038745,-0.0013644273065497,0.0013644273038205,-7.1421801642397e-12,7.126084538303e-12,-0.0013912193439176,0.0013912193438814,1.2225252997501e-13,-1.6547179789133e-13,-0.0014155867549927,0.0014155867502038,-0.0014155867549274,0.0014155867498923,-0.0014155867501268,0.0014155867551709,-0.0014155867500763,0.0014155867547359,-0.0013644272971568,0.0013644273117127,-0.0013644273117203,0.0013644272971764,0.00382905719499,0.0036442850460398,0.75905495051023,0.84281518008304,1368840,32768,0.0057799640578439,0.0057799640579138,0.0057799640578171,29.082801549488,29.081704558562,0.00014786241239591,0.00014786241239591,0.00014786241239591,241139.42660719,0.017491296249141
33350400,0.99999519077397,0.016914973894147,0.0056383246313769,0.005638324631436,0.0056383246313337,-0.0013915134126309,0.0013915134122107,6.6790039021919e-12,-7.0924175079841e-12,1.4986012775832e-14,-4.2414457208623e-13,-0.0014158457530703,0.001415845757496,-0.001415845757697,0.0014158457527312,-0.001415845753842,0.0014158457577013,-0.0014158457583916,0.0014158457532031,-0.0013647496966679,0.0013647497105334,-0.0013647497109172,0.0013647496960579,-7.786289487142e-13,-3.1756988669324e-13,-1.2579236301201e-13,1.357726463565e-13,-0.0013915134127758,0.0013915134120959,-0.0014158457556074,0.0014158457553496,-0.0014158457554533,0.0014158457556276,-0.0014158457554473,0.0014158457556534,-0.0014158457554054,0.001415845755674,-0.0013647497040426,0.0013647497025141,-0.0013647497021438,0.0013647497012566,-0.0013647497042711,0.0013647497008993,-0.0013647497037108,0.0013647497009258,-7.1342337599381e-12,7.1237005817195e-12,-0.001391513412429,0.0013915134123993,1.0992090669764e-13,-1.5554892455772e-13,-0.0014158457580984,0.0014158457533125,-0.0014158457580178,0.0014158457530101,-0.0014158457532303,0.0014158457582864,-0.0014158457531776,0.0014158457578513,-0.0013647496942646,0.0013647497088309,-0.0013647497088275,0.0013647496942802,0.0038302529605181,0.0036442492793157,0.76237033839523,0.86433227124354,1368840,32768,0.0057811822965747,0.0057811822966369,0.0057811822965473,29.205065075204,29.212920771612,0.00014884052060163,0.00014884052060163,0.00014884052060163,238909.49436448,0.017495014822039
33436800,0.99999536731623,0.016914976860009,0.0056383256199977,0.0056383256200568,0.0056383256199545,-0.0013918221384692,0.0013918221379459,6.5800431606687e-12,-7.1908834999157e-12,-9.8982740851094e-14,-4.5368131681778e-13,-0.0014161242011724,0.0014161242053495,-0.0014161242056216,0.0014161242004987,-0.0014161242017919,0.0014161242056054,-0.00141612420636,0.0014161242010733,-0.001365082842348,0.0013650828578576,-0.001365082857222,0.0013650828428714,-6.5845212003383e-13,-2.8056401719715e-13,-1.5639857507206e-13,1.1978389950762e-13,-0.0013918221385929,0.0013918221378731,-0.0014161242037727,0.0014161242032907,-0.0014161242033218,0.001416124203117,-0.0014161242033852,0.001416124203225,-0.0014161242030275,0.0014161242032784,-0.0013650828494795,0.0013650828492784,-0.0013650828486413,0.0013650828475406,-0.0013650828504296,0.0013650828482183,-0.001365082850053,0.0013650828472765,-7.2069592441068e-12,7.0508993645702e-12,-0.0013918221382556,0.0013918221381522,5.1817240548282e-14,-2.2955228145302e-13,-0.0014161242059317,0.001416124201172,-0.0014161242059539,0.0014161242006919,-0.0014161242008908,0.0014161242059882,-0.0014161242011944,0.0014161242058703,-0.0013650828398126,0.0013650828550576,-0.0013650828554269,0.0013650828404797,0.0038315124353421,0.0036442142216598,0.76586128643467,0.88584936240405,1368840,32768,0.005782461244594,0.0057824612446993,0.005782461244579,29.335454887088,29.344136984662,0.0001498836390967,0.0001498836390967,0.0001498836390967,236788.27030615,0.017498918771725
33523200,0.99999553864965,0.016914979752122,0.0056383265840352,0.0056383265840943,0.005638326583992,-0.0013921312045615,0.001392131204115,6.7119247200129e-12,-7.1161412538282e-12,-2.0788541394918e-14,-4.1494391198361e-13,-0.0014164030933045,0.0014164030977296,-0.0014164030975229,0.0014164030929864,-0.0014164030940744,0.0014164030980927,-0.0014164030986726,0.0014164030937385,-0.0013654160739946,0.0013654160888178,-0.0013654160883765,0.0013654160741121,-7.7377671459369e-13,-3.5611029754544e-13,-2.4513239372658e-13,9.188369301625e-14,-0.0013921312047365,0.0013921312039787,-0.0014164030961441,0.0014164030955537,-0.0014164030959903,0.0014164030959718,-0.0014164030960206,0.0014164030956684,-0.0014164030955125,0.0014164030959931,-0.0013654160816041,0.0013654160797243,-0.0013654160798942,0.0013654160785734,-0.0013654160823015,0.0013654160792659,-0.0013654160817976,0.0013654160796164,-7.2507879639931e-12,7.0638846149385e-12,-0.0013921312044401,0.0013921312042619,7.6630776629434e-14,-2.6304299362887e-13,-0.0014164030981159,0.0014164030932048,-0.0014164030981367,0.0014164030930757,-0.0014164030935284,0.0014164030983497,-0.0014164030934633,0.0014164030978603,-0.0013654160716469,0.00136541608623,-0.0013654160871122,0.0013654160718834,0.0038327742981019,0.0036441798589415,0.7695007035163,0.90736645356456,1368840,32768,0.0057837415981032,0.0057837415981832,0.0057837415981561,29.466588254222,29.47535319771,0.00015093270603377,0.00015093270603377,0.00015093270603377,234688.25490602,0.017502827034566
33609600,0.99999570487974,0.01691498255427,0.0056383275180847,0.0056383275181438,0.0056383275180415,-0.0013924392282991,0.0013924392278827,6.6983259589752e-12,-7.1220034865057e-12,7.219132401637e-15,-4.1228175801647e-13,-0.00141668047126,0.0014166804757011,-0.0014166804759004,0.0014166804709164,-0.0014166804720205,0.0014166804759313,-0.0014166804766164,0.0014166804714193,-0.0013657484544615,0.0013657484684071,-0.0013657484687529,0.0013657484538917,-7.6271587602412e-13,-3.2135318288085e-13,-1.2857810143903e-13,1.7503127056189e-13,-0.0013924392284436,0.0013924392277728,-0.0014166804738415,0.0014166804735644,-0.0014166804736742,0.0014166804738413,-0.0014166804736869,0.0014166804738597,-0.0014166804736204,0.0014166804738885,-0.0013657484618945,0.0013657484603593,-0.0013657484599551,0.0013657484591114,-0.0013657484620963,0.0013657484589749,-0.0013657484615225,0.0013657484589292,-7.1743911802153e-12,7.1324723725708e-12,-0.0013924392281103,0.0013924392280608,1.2900797065976e-13,-1.7821220279836e-13,-0.0014166804763148,0.0014166804715139,-0.0014166804762612,0.001416680471193,-0.0014166804714327,0.001416680476494,-0.00141668047139,0.0014166804760514,-0.0013657484521486,0.001365748466736,-0.0013657484667981,0.001365748452182,0.0038340325566361,0.0036441461725638,0.76843337210704,0.85812931190057,1368840,32768,0.0057850176299688,0.0057850176300404,0.0057850176299466,29.597791410845,29.606569410759,0.00015198233128676,0.00015198233128676,0.00015198233128676,232603.60210891,0.017506722122488
33696000,0.99999586611097,0.016914985295078,0.0056383284316875,0.0056383284317466,0.0056383284316443,-0.0013925920355291,0.0013925920350892,6.6689390920179e-12,-7.1210274574992e-12,-2.1217704754861e-14,-4.0006989578636e-13,-0.0014168804872094,0.0014168804917245,-0.0014168804918428,0.0014168804868177,-0.0014168804880539,0.0014168804918285,-0.0014168804926314,0.0014168804874104,-0.0013658544669251,0.0013658544809447,-0.0013658544812676,0.0013658544663379,-7.5274403359824e-13,-3.5236982357906e-13,-1.2088471881952e-13,1.3769397001432e-13,-0.0013925920356793,0.0013925920349643,-0.0014168804898038,0.001416880489463,-0.0014168804896016,0.0014168804896912,-0.0014168804897458,0.0014168804897383,-0.0014168804897051,0.0014168804898547,-0.0013658544741331,0.0013658544727581,-0.0013658544719883,0.0013658544712523,-0.0013658544741929,0.0013658544712609,-0.0013658544740498,0.0013658544709975,-7.1543324988766e-12,7.1224592961105e-12,-0.0013925920353105,0.0013925920352871,1.1549267766033e-13,-1.4695548119916e-13,-0.0014168804922669,0.0014168804875284,-0.0014168804923267,0.0014168804873169,-0.0014168804873845,0.0014168804925163,-0.0014168804874102,0.0014168804920804,-0.0013658544642273,0.0013658544787784,-0.0013658544786871,0.0013658544643097,0.0038346523599483,0.0036441131559756,0.77489376087306,0.94143566578772,1368840,32768,0.0057856505366488,0.0057856505367011,0.0057856505366061,29.729007562552,29.737785623809,0.00015303206050042,0.00015303206050042,0.00015303206050042,234903.43520926,0.0175086544988
33782400,0.99999602244707,0.01691498795528,0.0056383293184212,0.0056383293184803,0.0056383293183781,-0.0013930266276173,0.0013930266272055,6.6835772918897e-12,-7.0949772533151e-12,-7.5960032414327e-15,-4.0154132142355e-13,-0.0014172256401898,0.0014172256446245,-0.0014172256448223,0.0014172256398539,-0.0014172256409583,0.0014172256448564,-0.0014172256455261,0.0014172256403641,-0.0013663692928328,0.0013663693067573,-0.0013663693071035,0.0013663692923101,-7.491227324618e-13,-3.33291759342e-13,-1.2166925367605e-13,1.5728748909282e-13,-0.0013930266277661,0.0013930266270904,-0.0014172256427629,0.0014172256424863,-0.0014172256426021,0.0014172256427644,-0.0014172256425994,0.0014172256427743,-0.0014172256425577,0.0014172256427979,-0.0013663693002758,0.0013663692987837,-0.0013663692983862,0.0013663692975084,-0.0013663693004576,0.0013663692973016,-0.0013663692999384,0.0013663692972042,-7.1448976106354e-12,7.1202444225969e-12,-0.0013930266274231,0.0013930266273871,1.2038808693246e-13,-1.6238386281387e-13,-0.0014172256452379,0.0014172256404537,-0.0014172256451726,0.0014172256401432,-0.0014172256403763,0.0014172256454168,-0.0014172256403237,0.0014172256449881,-0.0013663692905302,0.0013663693050648,-0.0013663693051365,0.0013663692905516,0.0038364300255042,0.0036440807904876,0.77568242413299,0.9123616557077,1368840,32768,0.0057874510219601,0.0057874510220298,0.0057874510219338,29.86022009717,29.869001836858,0.00015408176077736,0.00015408176077736,0.00015408176077736,229464.96437942,0.017514150064714
33868800,0.99999617399126,0.016914990512803,0.005638330170929,0.0056383301709882,0.0056383301708859,-0.0013932266104736,0.0013932266100539,6.6734710712161e-12,-7.0843820475796e-12,-2.6794416743079e-14,-4.1201847194203e-13,-0.0014174493526033,0.0014174493570137,-0.0014174493572234,0.0014174493522587,-0.0014174493533327,0.0014174493572329,-0.001417449357939,0.0014174493528144,-0.0013665432831784,0.0013665432969724,-0.0013665432974509,0.0013665432825474,-7.4276298557123e-13,-3.3551080919861e-13,-1.2962639294385e-13,1.3625083763044e-13,-0.0013932266106236,0.0013932266099348,-0.001417449355164,0.0014174493548888,-0.0014174493550165,0.001417449355186,-0.0014174493550419,0.0014174493551243,-0.0014174493549486,0.0014174493551969,-0.0013665432903173,0.0013665432890497,-0.001366543288732,0.0013665432878994,-0.0013665432906289,0.0013665432876601,-0.0013665432903857,0.0013665432875961,-7.1478041689008e-12,7.0967766689324e-12,-0.0013932266102828,0.0013932266102276,1.0529669502295e-13,-1.6418877826317e-13,-0.0014174493576569,0.001417449352863,-0.0014174493576072,0.0014174493525254,-0.0014174493527863,0.0014174493577761,-0.0014174493527456,0.0014174493573425,-0.0013665432810415,0.0013665432955208,-0.0013665432955472,0.0013665432809771,0.0038372461323614,0.0036440490566723,0.76926643072553,0.79912606441465,1368840,32768,0.0057882793878714,0.0057882793879355,0.005788279387836,29.991427782743,30.000218049907,0.00015513142226194,0.00015513142226194,0.00015513142226194,230380.67805783,0.017516678996687
33955200,0.99999632084615,0.01691499298478,0.0056383309949213,0.0056383309949805,0.0056383309948782,-0.0013932303159912,0.0013932303155286,6.6280966926663e-12,-7.1037554557353e-12,-4.7410492818459e-14,-4.4503346335671e-13,-0.0014175745261924,0.0014175745305181,-0.0014175745308396,0.0014175745257604,-0.0014175745269077,0.0014175745308217,-0.0014175745314501,0.0014175745263323,-0.0013664333713272,0.0013664333850666,-0.0013664333856081,0.0013664333707923,-7.7585932744188e-13,-3.5587154013343e-13,-1.5216114569909e-13,1.1557073409929e-13,-0.0013932303161478,0.0013932303154228,-0.0014175745287855,0.001417574528437,-0.0014175745286034,0.0014175745287529,-0.0014175745285607,0.0014175745287061,-0.0014175745286189,0.0014175745286936,-0.0013664333788043,0.0013664333774319,-0.0013664333771975,0.0013664333760681,-0.001366433379193,0.0013664333758637,-0.0013664333784822,0.0013664333757805,-7.1387361518049e-12,7.0796995729789e-12,-0.0013932303158024,0.0013932303157303,9.3878455607034e-14,-1.7791097670649e-13,-0.0014175745312407,0.0014175745263249,-0.0014175745312194,0.0014175745260872,-0.0014175745263606,0.0014175745313437,-0.0014175745261877,0.0014175745309371,-0.0013664333693232,0.0013664333837698,-0.0013664333838006,0.0013664333692091,0.0038372513390255,0.0036440179457475,0.76728902681813,0.77434335722282,1368840,32768,0.0057882945294813,0.0057882945295864,0.005788294529508,30.122638797499,30.131434262956,0.00015618111037999,0.00015618111037999,0.00015618111037999,237004.93275783,0.017516725957314
34041600,0.99999646320867,0.016914995374238,0.0056383317914074,0.0056383317914666,0.0056383317913643,-0.0013934433689039,0.0013934433684192,6.6644984041484e-12,-7.0910217270949e-12,-5.1449722363945e-14,-4.7402998929745e-13,-0.0014178215869114,0.0014178215911551,-0.0014178215916463,0.001417821586545,-0.0014178215878295,0.0014178215916191,-0.0014178215922933,0.0014178215872146,-0.0013666151804691,0.0013666151951854,-0.0013666151954848,0.0013666151811553,-8.0153192551457e-13,-3.5754637132143e-13,-1.5046058000315e-13,8.4687059927274e-14,-0.0013934433690809,0.0013934433682872,-0.0014178215896552,0.0014178215893267,-0.0014178215896768,0.001417821589562,-0.0014178215894515,0.0014178215895648,-0.001417821589565,0.0014178215894366,-0.0013666151883476,0.0013666151872966,-0.001366615187442,0.00136661518615,-0.0013666151882058,0.0013666151859182,-0.0013666151883657,0.0013666151862171,-7.1387577982024e-12,7.1029145990699e-12,-0.0013934433686732,0.0013934433686631,9.7026300619e-14,-1.4224768384267e-13,-0.0014178215919234,0.0014178215872609,-0.0014178215918451,0.0014178215869078,-0.0014178215870896,0.0014178215921997,-0.0014178215870019,0.001417821591964,-0.0013666151790427,0.0013666151932618,-0.0013666151942018,0.0013666151787441,0.003838117890469,0.0036439874456465,0.76515348808016,0.75098643361818,1368840,32768,0.0057891770960951,0.0057891770961884,0.0057891770961225,30.265686500798,30.275253871846,0.00015732549200638,0.00015732549200638,0.00015732549200638,238598.08346396,0.017519420151454
34128000,0.99999660216134,0.016914997699361,0.0056383325664485,0.0056383325665076,0.0056383325664054,-0.0013939041416744,0.0013939041414595,6.8105454719225e-12,-6.9467845452065e-12,1.2649795910359e-13,-3.532175623871e-13,-0.0014183123285311,0.0014183123335374,-0.0014183123338864,0.0014183123285976,-0.0014183123302062,0.0014183123337487,-0.001418312334375,0.0014183123297778,-0.001367048130111,0.0013670481448448,-0.0013670481439992,0.0013670481304413,-7.8840926757924e-13,-2.8610890662812e-13,-6.3904988922925e-14,1.4381990051841e-13,-0.0013939041419255,0.0013939041412556,-0.0014183123317127,0.0014183123312654,-0.0014183123315842,0.0014183123316899,-0.0014183123319016,0.001418312331671,-0.0014183123318043,0.0014183123314593,-0.0013670481372067,0.001367048135984,-0.0013670481350964,0.0013670481345277,-0.0013670481376717,0.001367048134024,-0.0013670481373882,0.0013670481335665,-7.0318941216379e-12,7.2118126840729e-12,-0.0013939041414714,0.0013939041416266,1.5149001914273e-13,-6.029189341816e-14,-0.0014183123338203,0.0014183123294638,-0.0014183123341757,0.0014183123289138,-0.0014183123291894,0.0014183123344274,-0.0014183123286037,0.0014183123341928,-0.001367048127025,0.0013670481419156,-0.0013670481426205,0.0013670481280704,0.0038400236765975,0.0036439575495877,0.76284114618813,0.72762951001354,1368840,32768,0.0057910858811925,0.0057910858812903,0.0057910858811183,30.535932998359,30.55378250381,0.00015948746398687,0.00015948746398687,0.00015948746398687,240088.11638746,0.017525246902431
34214400,0.9999967377543,0.016914999954851,0.0056383333182782,0.0056383333183374,0.0056383333182351,-0.001394378365527,0.0013943783653393,6.7602033627806e-12,-6.9556023346526e-12,2.9026983833804e-13,-3.2789468892468e-13,-0.0014188199722467,0.0014188199767488,-0.0014188199769299,0.0014188199718047,-0.0014188199728664,0.0014188199772232,-0.0014188199774893,0.0014188199719506,-0.0013674925649299,0.0013674925787541,-0.0013674925780732,0.0013674925647725,-8.3632180388414e-13,-1.9611912634237e-13,-1.8804299070983e-13,8.5582856090728e-14,-0.0013943783658789,0.0013943783650822,-0.0014188199751952,0.0014188199747079,-0.0014188199746205,0.0014188199747953,-0.0014188199751436,0.001418819974646,-0.0014188199744317,0.0014188199744244,-0.0013674925723814,0.0013674925702054,-0.0013674925703398,0.0013674925689903,-0.0013674925721251,0.0013674925692716,-0.0013674925704408,0.0013674925693883,-7.0349612044112e-12,7.1673800120487e-12,-0.0013943783653845,0.0013943783655466,2.0489968163185e-13,-7.2954977157879e-14,-0.0014188199772999,0.00141881997257,-0.0014188199772258,0.0014188199722315,-0.0014188199723325,0.001418819977652,-0.0014188199724637,0.0014188199770888,-0.0013674925617621,0.0013674925758465,-0.0013674925760991,0.0013674925626227,0.0038419875516691,0.003643928243698,0.75834974862039,0.67431668349712,1368840,32768,0.0057930503781977,0.005793050378394,0.005793050378332,30.81367767525,30.832311135774,0.000161709421402,0.000161709421402,0.000161709421402,241695.83898633,0.01753124378646
34300800,0.99999686998368,0.016915002138458,0.0056383340461475,0.0056383340462066,0.0056383340461043,-0.0013947776394422,0.0013947776388749,6.5028545187288e-12,-7.1470268397065e-12,7.4515488308864e-14,-6.4233743585578e-13,-0.0014192899511352,0.0014192899553748,-0.0014192899555225,0.001419289950639,-0.0014192899516981,0.00141928995559,-0.0014192899564969,0.0014192899507577,-0.0013678282817319,0.0013678282938024,-0.0013678282944218,0.0013678282804772,-9.970913630727e-13,-2.5902814569148e-13,-1.1960128743924e-13,5.9705646621714e-14,-0.0013947776395348,0.0013947776387937,-0.0014192899534754,0.0014192899531357,-0.001419289953322,0.0014192899535907,-0.0014192899532191,0.0014192899537815,-0.0014192899530653,0.0014192899535423,-0.0013678282872294,0.0013678282864636,-0.0013678282860634,0.0013678282860462,-0.001367828289017,0.0013678282848149,-0.0013678282883582,0.0013678282857689,-6.9703334728617e-12,7.1660382589207e-12,-0.0013947776391121,0.0013947776392954,1.5957833087388e-13,-2.4479428640847e-14,-0.0014192899560545,0.0014192899511781,-0.0014192899558357,0.0014192899512409,-0.0014192899506937,0.0014192899562064,-0.0014192899509189,0.0014192899557062,-0.0013678282792048,0.0013678282930576,-0.0013678282920436,0.0013678282793767,0.0038436430737431,0.0036438995150878,0.75287681508987,0.61110028707413,1368840,32768,0.0057947043271451,0.0057947043271686,0.0057947043273325,31.092111379829,31.110839767739,0.00016393689103863,0.00016393689103863,0.00016393689103863,245497.44167227,0.017536292920972
34387200,0.99999699884416,0.016915004272604,0.0056383347575294,0.0056383347575885,0.0056383347574862,-0.0013951437562539,0.001395143755801,6.6094709087301e-12,-7.044162923305e-12,1.1058185709429e-13,-5.7805822307102e-13,-0.0014197415182832,0.0014197415228817,-0.0014197415231068,0.0014197415180328,-0.0014197415196307,0.0014197415232891,-0.001419741524047,0.0014197415188231,-0.001368117651382,0.0013681176651098,-0.001368117665338,0.0013681176506773,-9.2667736711312e-13,-2.1737041830646e-13,-3.2859937327941e-14,1.3281258972537e-13,-0.0013951437563858,0.0013951437557247,-0.0014197415208242,0.0014197415205992,-0.0014197415208084,0.0014197415209564,-0.0014197415208542,0.0014197415212008,-0.0014197415205418,0.0014197415213922,-0.0013681176583679,0.001368117656827,-0.0013681176559885,0.0013681176555802,-0.0013681176586368,0.0013681176554271,-0.0013681176580214,0.0013681176552866,-7.0589025318436e-12,7.082218172508e-12,-0.0013951437560457,0.0013951437560392,6.5681287599396e-14,-1.0489170739505e-13,-0.001419741523495,0.0014197415189993,-0.0014197415236764,0.0014197415185265,-0.0014197415189169,0.0014197415236618,-0.001419741518766,0.001419741523379,-0.0013681176479656,0.0013681176626855,-0.0013681176623631,0.0013681176484816,0.0038451616339396,0.0036438713576468,0.75509890112583,0.66690379671628,1368840,32768,0.0057962208994444,0.0057962208995595,0.0057962208995069,31.370616284508,31.389368399704,0.00016616493027606,0.00016616493027606,0.00016616493027606,250282.23150855,0.017540922779235
34473600,0.99999712433349,0.0169150063583,0.0056383354527614,0.0056383354528206,0.0056383354527183,-0.0013958187819597,0.0013958187814543,6.6001747221339e-12,-7.067969137218e-12,2.8400779434507e-14,-6.1863398350939e-13,-0.0014203564602079,0.0014203564646211,-0.0014203564648135,0.0014203564599904,-0.0014203564610977,0.0014203564648212,-0.001420356465554,0.0014203564603374,-0.0013688514650266,0.0013688514790264,-0.0013688514792734,0.0013688514642292,-9.2606459171534e-13,-2.5755613183697e-13,-1.0110317607325e-13,1.2925852182912e-13,-0.0013958187820259,0.0013958187813494,-0.0014203564626252,0.001420356462554,-0.001420356462528,0.0014203564625303,-0.0014203564625373,0.0014203564628894,-0.0014203564624528,0.0014203564629008,-0.0013688514726025,0.0013688514705949,-0.0013688514699692,0.001368851469236,-0.0013688514725918,0.0013688514691427,-0.0013688514715469,0.0013688514691954,-7.1496656414459e-12,7.0049885024097e-12,-0.0013958187817515,0.001395818781608,4.7255762251254e-14,-1.8725625003833e-13,-0.0014203564650715,0.0014203564604026,-0.0014203564652187,0.0014203564602806,-0.0014203564604091,0.0014203564652521,-0.0014203564603533,0.0014203564648111,-0.0013688514619201,0.0013688514764729,-0.0013688514770633,0.0013688514623228,0.0038479544389094,0.0036438437598828,0.75783064366953,0.72270730635844,1368840,32768,0.00579901738392,0.0057990173838398,0.0057990173838071,31.6491292758,31.667897031668,0.00016839303420639,0.00016839303420639,0.00016839303420639,246344.63539426,0.017549458965666
34560000,0.99999724645303,0.016915008397343,0.0056383361324423,0.0056383361325014,0.0056383361323992,-0.0013964919535521,0.0013964919531679,6.66624940948e-12,-6.9886797947471e-12,1.0622746070635e-13,-5.2400681548089e-13,-0.0014209633018029,0.0014209633060762,-0.0014209633063102,0.0014209633012266,-0.0014209633025765,0.0014209633062295,-0.001420963307095,0.0014209633020023,-0.0013695877383253,0.0013695877524303,-0.0013695877521117,0.0013695877377027,-8.3489599450046e-13,-1.8407614130612e-13,-7.5171644734324e-14,1.764086402489e-13,-0.0013964919536886,0.0013964919530694,-0.0014209633041197,0.0014209633039238,-0.0014209633039206,0.0014209633042846,-0.0014209633041253,0.0014209633041989,-0.0014209633041499,0.0014209633044182,-0.0013695877458421,0.0013695877442752,-0.0013695877435837,0.0013695877428428,-0.0013695877459378,0.0013695877425492,-0.0013695877453019,0.001369587742996,-7.0260594763529e-12,7.1153753654609e-12,-0.0013964919533391,0.0013964919533674,1.4651787692061e-13,-1.0940362838249e-13,-0.0014209633067655,0.0014209633018894,-0.0014209633065084,0.0014209633016272,-0.0014209633018545,0.0014209633068512,-0.0014209633018278,0.0014209633066009,-0.001369587735611,0.001369587750579,-0.0013695877505303,0.0013695877363229,0.0038507411403644,0.0036438167107973,0.76127756275937,0.77851081600059,1368840,32768,0.0058018061629085,0.0058018061629874,0.0058018061628806,31.927644806336,31.946425663632,0.00017062115845069,0.00017062115845069,0.00017062115845069,242329.10275642,0.017557971738798
34646400,0.99999736520768,0.01691501039174,0.0056383367972413,0.0056383367973004,0.0056383367971981,-0.0013971632539653,0.0013971632534585,6.5617986003805e-12,-7.0847839764774e-12,8.6556179297549e-14,-5.4862994561411e-13,-0.0014215684459429,0.0014215684503393,-0.0014215684504315,0.0014215684455518,-0.0014215684469434,0.0014215684506484,-0.0014215684513532,0.0014215684460852,-0.0013703208052433,0.0013703208185194,-0.0013703208191189,0.0013703208040148,-8.0510649278458e-13,-1.47174268633e-13,-3.2762087376014e-14,2.1698581240885e-13,-0.0013971632540438,0.001397163253446,-0.0014215684485342,0.001421568448219,-0.0014215684485073,0.0014215684485834,-0.0014215684482218,0.0014215684486083,-0.001421568448066,0.0014215684487081,-0.0013703208119407,0.0013703208114122,-0.0013703208101472,0.0013703208098495,-0.0013703208124812,0.0013703208092466,-0.0013703208120615,0.0013703208096218,-7.0639676712248e-12,7.0691705416924e-12,-0.0013971632537268,0.0013971632537191,1.3001249879564e-13,-1.234291999109e-13,-0.0014215684509461,0.001421568446202,-0.0014215684508712,0.0014215684460295,-0.0014215684460907,0.001421568451226,-0.0014215684460221,0.0014215684506735,-0.0013703208024599,0.0013703208172715,-0.0013703208170248,0.0013703208025754,0.0038535221328826,0.003643790199689,0.76566257580756,0.83431432564275,1368840,32768,0.0058045871666902,0.0058045871668272,0.0058045871667364,32.206162774327,32.224954295597,0.00017284930219461,0.00017284930219461,0.00017284930219461,238297.46019871,0.017566460900941
34732800,0.99999748135394,0.016915012355935,0.0056383374519732,0.0056383374520323,0.00563833745193,-0.0013980587264807,0.0013980587260106,6.5624534627278e-12,-7.0642756618159e-12,2.9756620367438e-14,-4.9228272580652e-13,-0.0014223930593589,0.0014223930636955,-0.0014223930639265,0.0014223930589974,-0.001422393060165,0.0014223930638868,-0.001422393064671,0.0014223930594906,-0.0013712796963757,0.0013712797104989,-0.0013712797110756,0.0013712796957444,-7.7232755298222e-13,-2.2831949558437e-13,-5.8778527885732e-14,1.6610948429281e-13,-0.0013980587265754,0.0013980587259552,-0.0014223930618883,0.0014223930616301,-0.0014223930617182,0.001422393061895,-0.0014223930617224,0.0014223930619932,-0.0014223930616479,0.0014223930619842,-0.001371279703731,0.0013712797022212,-0.0013712797021772,0.0013712797010407,-0.0013712797041005,0.0013712797008554,-0.001371279703594,0.0013712797009775,-7.1107702414384e-12,7.0024583444101e-12,-0.0013980587262812,0.0013980587261982,6.455441026002e-14,-1.6394069760657e-13,-0.0014223930643894,0.0014223930596129,-0.0014223930643346,0.0014223930593257,-0.0014223930595239,0.0014223930645379,-0.0014223930594943,0.0014223930640923,-0.0013712796937274,0.0013712797085044,-0.0013712797086516,0.0013712796935798,0.0038572457000036,0.0036437642202022,0.77095579674501,0.89011783528492,1368840,32768,0.00580829679296,0.0058082967930413,0.0058082967929355,32.601645049297,32.628077043768,0.00017601316039437,0.00017601316039437,0.00017601316039437,234126.53546644,0.017577784987266
34819200,0.99999759512741,0.016915014276465,0.0056383380921496,0.0056383380922088,0.0056383380921065,-0.0013990447049928,0.0013990447045277,6.5580382446685e-12,-7.055492988944e-12,-3.2932346880585e-14,-4.6078698209752e-13,-0.0014233113276817,0.0014233113320407,-0.0014233113322716,0.0014233113273291,-0.0014233113283993,0.0014233113322541,-0.001423311332949,0.0014233113277995,-0.0013723251899402,0.0013723252035403,-0.0013723252041398,0.0013723251891731,-7.5450718561751e-13,-3.0465563415597e-13,-1.1850776202216e-13,1.8546598120041e-13,-0.0013990447051046,0.00139904470445,-0.0014233113302213,0.0014233113299825,-0.0014233113300636,0.0014233113302459,-0.0014233113300707,0.0014233113302546,-0.0014233113300127,0.0014233113302797,-0.001372325197131,0.0013723251958152,-0.0013723251952257,0.0013723251944711,-0.0013723251973103,0.0013723251942751,-0.001372325196672,0.0013723251943426,-7.0723031224648e-12,7.0278802442591e-12,-0.0013990447047725,0.0013990447047364,1.4354487950835e-13,-1.6415924975349e-13,-0.001423311332657,0.0014233113279516,-0.0014233113326097,0.0014233113276257,-0.0014233113278276,0.0014233113328232,-0.0014233113277996,0.0014233113324216,-0.0013723251876998,0.0013723252021462,-0.0013723252020191,0.001372325187505,0.0038613522210274,0.0036437387582205,0.76949567392228,0.83758763975058,1368840,32768,0.0058123813086047,0.0058123813086754,0.0058123813085807,33.045192847077,33.075062787206,0.00017956154277662,0.00017956154277662,0.00017956154277662,229989.85966522,0.01759025372878
34905600,0.99999770645714,0.016915016152655,0.0056383387175463,0.0056383387176055,0.0056383387175032,-0.0013997999892709,0.001399799989443,6.8948147210842e-12,-6.7106427003542e-12,2.9406278128977e-13,-9.0396885496022e-14,-0.0014241153128812,0.0014241153178519,-0.0014241153169162,0.0014241153122528,-0.0014241153130602,0.0014241153173637,-0.0014241153175673,0.0014241153130127,-0.001373032532156,0.001373032547586,-0.0013730325449146,0.0013730325331335,-7.0453344757502e-13,-2.9659605684111e-13,-2.9318957267157e-14,2.8417317164585e-13,-0.0013997999896414,0.0013997999891813,-0.0014241153153175,0.0014241153159441,-0.0014241153155218,0.0014241153159362,-0.0014241153145516,0.0014241153160209,-0.0014241153144379,0.0014241153152393,-0.0013730325398921,0.0013730325386228,-0.0013730325370568,0.0013730325363061,-0.0013730325405795,0.0013730325369122,-0.0013730325392248,0.0013730325366587,-7.1984247989459e-12,6.8935838763327e-12,-0.0013997999895017,0.0013997999891951,-2.6535483476841e-14,-3.4400346151862e-13,-0.0014241153184929,0.0014241153127411,-0.0014241153174854,0.0014241153127731,-0.0014241153129262,0.0014241153175499,-0.0014241153124235,0.0014241153173779,-0.0013730325304291,0.0013730325439327,-0.001373032545007,0.0013730325303658,0.0038645107887152,0.0036437138027848,0.76818882066174,0.80613688129706,1368840,32768,0.0058155099617338,0.0058155099619591,0.0058155099616986,33.491812271297,33.522048530644,0.00018313449817037,0.00018313449817037,0.00018313449817037,232471.13873594,0.017599805260461
34992000,0.99999781525853,0.016915017976146,0.0056383393253768,0.005638339325436,0.0056383393253337,-0.0014005940965474,0.0014005940961959,6.5772780098481e-12,-7.0036139267549e-12,3.8629172846462e-14,-2.9558126431292e-13,-0.0014249446022252,0.0014249446066345,-0.0014249446066303,0.001424944601791,-0.0014249446030575,0.0014249446070029,-0.0014249446071875,0.0014249446024672,-0.0013737934798595,0.0013737934942975,-0.0013737934938766,0.0013737934812181,-5.7860470637633e-13,-2.2570745773327e-13,2.0478550864916e-14,3.4251103652294e-13,-0.0014005940965702,0.001400594096194,-0.0014249446045011,0.0014249446047126,-0.001424944604517,0.0014249446050398,-0.0014249446044994,0.0014249446050967,-0.0014249446044834,0.0014249446048855,-0.0013737934874925,0.0013737934868141,-0.0013737934862956,0.001373793485889,-0.0013737934890266,0.0013737934857976,-0.0013737934877897,0.0013737934854008,-7.0488760734392e-12,7.0181058663891e-12,-0.0014005940963787,0.0014005940963535,1.366406198405e-13,-1.8966764696005e-13,-0.0014249446072437,0.0014249446025274,-0.0014249446071071,0.0014249446020393,-0.0014249446023376,0.0014249446072991,-0.0014249446023501,0.0014249446070036,-0.0013737934789336,0.0013737934923132,-0.0013737934935973,0.0013737934796335,0.0038678272469451,0.0036436893410935,0.76399331701832,0.74465079368024,1368840,32768,0.0058187994855036,0.005818799485547,0.0058187994854806,33.938715229637,33.969034274082,0.0001867097218371,0.0001867097218371,0.0001867097218371,234092.93870454,0.017609847797041
35078400,0.99999792145085,0.016915019748091,0.0056383399160251,0.0056383399160843,0.005638339915982,-0.0014013122576741,0.0014013122572233,6.5203071620331e-12,-7.0161953071083e-12,-1.1118189758699e-14,-2.8302911836059e-13,-0.0014257351697045,0.0014257351740774,-0.0014257351744022,0.001425735169406,-0.0014257351702341,0.0014257351744578,-0.0014257351749148,0.0014257351701028,-0.0013744453170245,0.0013744453305474,-0.0013744453317829,0.0013744453156606,-6.6734114259794e-13,-3.7290584327658e-13,-1.2928869737787e-13,2.5762177689038e-13,-0.0014013122578054,0.0014013122571736,-0.0014257351726976,0.0014257351719004,-0.0014257351722961,0.0014257351724093,-0.0014257351724306,0.0014257351723266,-0.0014257351719591,0.0014257351724382,-0.0013744453241812,0.0013744453223679,-0.0013744453223577,0.001374445322039,-0.0013744453253446,0.0013744453206152,-0.0013744453240696,0.0013744453202748,-6.9332284887465e-12,7.0897890882806e-12,-0.0014013122574596,0.0014013122574837,1.7729878952604e-13,-2.1280055791256e-13,-0.0014257351747797,0.0014257351700234,-0.0014257351746854,0.0014257351697208,-0.0014257351698815,0.0014257351750392,-0.0014257351699027,0.0014257351746803,-0.0013744453144992,0.0013744453294949,-0.0013744453287771,0.0013744453136022,0.0038708293900056,0.0036436653631044,0.76065624352343,0.70622966914048,1368840,32768,0.0058217743528636,0.0058217743530326,0.0058217743529587,34.385650168926,34.416020017521,0.0001902852013514,0.0001902852013514,0.0001902852013514,237960.65051773,0.017618929973598
35164800,0.99999802495918,0.016915021466963,0.0056383404889823,0.0056383404890414,0.0056383404889391,-0.0014020776974165,0.0014020776971473,6.682199863381e-12,-6.8837341184126e-12,1.2521029255857e-14,-1.8787796633945e-13,-0.0014265515623262,0.0014265515668804,-0.0014265515667143,0.0014265515621621,-0.0014265515631747,0.0014265515670149,-0.0014265515676034,0.0014265515625331,-0.001375165267606,0.0013751652816421,-0.0013751652808835,0.0013751652665391,-6.9744084071988e-13,-4.754310053209e-13,-2.2283331024239e-13,1.876414147424e-13,-0.0014020776976563,0.0014020776969201,-0.0014265515645456,0.0014265515646794,-0.0014265515645654,0.0014265515646843,-0.0014265515648175,0.0014265515649457,-0.0014265515648264,0.0014265515650728,-0.0013751652749196,0.001375165272897,-0.0013751652734215,0.0013751652727946,-0.0013751652757059,0.0013751652718823,-0.0013751652746966,0.0013751652713957,-6.983448660437e-12,7.068739731324e-12,-0.0014020776973289,0.0014020776972923,1.773212888387e-13,-2.3662756530795e-13,-0.0014265515675494,0.0014265515626516,-0.00142655156737,0.001426551562331,-0.0014265515626635,0.001426551567431,-0.0014265515628699,0.0014265515672488,-0.0013751652651219,0.0013751652798932,-0.0013751652792009,0.0013751652656855,0.0038740254631627,0.0036436418582927,0.75704957572677,0.66780854460071,1368840,32768,0.0058249451128689,0.0058249451128951,0.0058249451129882,34.832588946407,34.863005760959,0.00019386071157125,0.00019386071157125,0.00019386071157125,240596.74004,0.017628610091911
35251200,0.99999812571478,0.016915023131691,0.0056383410438917,0.0056383410439509,0.0056383410438486,-0.0014028395116307,0.0014028395112721,6.623158902336e-12,-6.9830043210701e-12,-8.6780407741641e-14,-2.2923840868868e-13,-0.0014273660560033,0.0014273660602667,-0.0014273660604666,0.0014273660555753,-0.0014273660565684,0.0014273660605336,-0.0014273660612554,0.001427366056397,-0.0013758804752792,0.0013758804888792,-0.0013758804887345,0.0013758804749175,-6.8206448692752e-13,-5.1729560873894e-13,-2.3093482745248e-13,1.1207101748381e-13,-0.0014028395118818,0.0014028395110815,-0.0014273660584973,0.0014273660583749,-0.0014273660584647,0.0014273660585204,-0.0014273660586815,0.0014273660584395,-0.001427366058391,0.0014273660584372,-0.0013758804824892,0.0013758804807899,-0.0013758804808812,0.0013758804794082,-0.0013758804827332,0.001375880479516,-0.0013758804817167,0.0013758804794093,-7.0947738477643e-12,6.9983107064117e-12,-0.0014028395114825,0.0014028395113917,7.7238846288618e-14,-2.6936606516926e-13,-0.0014273660608523,0.0014273660561049,-0.001427366061158,0.0014273660558205,-0.0014273660562659,0.0014273660614365,-0.0014273660562498,0.0014273660608093,-0.0013758804724755,0.0013758804866408,-0.0013758804869568,0.0013758804727219,0.0038772065675258,0.0036436188164756,0.75326371097162,0.62938742006096,1368840,32768,0.005828100845607,0.0058281008457322,0.0058281008455479,35.279528749736,35.309991504398,0.00019743622999789,0.00019743622999789,0.00019743622999789,243371.23347821,0.017638244417064
35337600,0.99999822332517,0.016915024736028,0.0056383415786708,0.00563834157873,0.0056383415786277,-0.0014034762944198,0.0014034762942251,6.6730723775136e-12,-6.8700364780425e-12,8.13691612868e-14,-1.3730133495023e-13,-0.0014280594925527,0.0014280594968976,-0.0014280594964429,0.0014280594921991,-0.0014280594929047,0.001428059497608,-0.0014280594976131,0.0014280594924757,-0.0013764678677437,0.0013764678815326,-0.001376467881255,0.001376467866806,-7.6161911541176e-13,-5.2200087676094e-13,-1.2575589353789e-13,1.3386938097054e-13,-0.0014034762947417,0.0014034762939849,-0.0014280594948839,0.0014280594949582,-0.0014280594947314,0.0014280594950386,-0.0014280594948073,0.0014280594950033,-0.001428059494683,0.0014280594946766,-0.0013764678741755,0.0013764678732502,-0.001376467873831,0.0013764678723865,-0.0013764678747998,0.0013764678722535,-0.0013764678756024,0.0013764678711867,-6.9868585562671e-12,7.0436380863973e-12,-0.0014034762943718,0.0014034762943218,4.0687109977895e-14,-2.218775453227e-13,-0.0014280594977153,0.0014280594931462,-0.0014280594970238,0.0014280594925273,-0.0014280594928943,0.0014280594971913,-0.0014280594926223,0.0014280594974288,-0.0013764678651126,0.0013764678797999,-0.0013764678793802,0.0013764678651523,0.0038798636272069,0.0036435962259435,0.74935533045543,0.59096629552119,1368840,32768,0.0058307386303618,0.005830738630531,0.005830738630463,35.663507965065,35.689862697491,0.00020050806372052,0.00020050806372052,0.00020050806372052,246318.81053172,0.017646297587944
35424000,0.99999831726783,0.01691502627181,0.0056383420905981,0.0056383420906572,0.0056383420905549,-0.0014039151542704,0.0014039151538679,6.5707691498658e-12,-7.0066842447235e-12,-1.5771094674472e-13,-3.1983381753171e-13,-0.0014285575121864,0.001428557516548,-0.0014285575167119,0.0014285575115841,-0.0014285575129405,0.0014285575169359,-0.0014285575174476,0.0014285575123263,-0.0013768555958534,0.0013768556104479,-0.0013768556089793,0.0013768555955947,-6.7892711218393e-13,-4.9563927032522e-13,-1.7332308745159e-13,1.0477085814573e-13,-0.0014039151544738,0.0014039151536841,-0.0014285575144565,0.0014285575144022,-0.0014285575145338,0.0014285575146297,-0.0014285575147751,0.0014285575148342,-0.0014285575144187,0.0014285575145038,-0.0013768556031298,0.0013768556017862,-0.0013768556022163,0.0013768556005583,-0.0013768556031385,0.001376855601164,-0.0013768556033922,0.0013768556001277,-7.061109758532e-12,7.0030242094763e-12,-0.0014039151540912,0.001403915153933,1.60802440537e-14,-2.6514413532279e-13,-0.0014285575171482,0.0014285575124613,-0.0014285575172649,0.0014285575120664,-0.0014285575120342,0.0014285575173087,-0.001428557512003,0.0014285575164069,-0.001376855593287,0.0013768556079843,-0.0013768556083066,0.0013768555943535,0.0038816903415101,0.0036435740745303,0.74536382621197,0.55254517098144,1368840,32768,0.0058325565216882,0.0058325565217288,0.0058325565214521,35.946772127215,35.966370225889,0.00020277417701772,0.00020277417701772,0.00020277417701772,249409.47702043,0.017651847734107
35510400,0.9999984075713,0.016915027757318,0.0056383425857673,0.0056383425858264,0.0056383425857241,-0.0014043387613299,0.0014043387609927,6.6090828029394e-12,-6.951765393045e-12,-1.0550583569267e-13,-2.3959832749438e-13,-0.0014290406216478,0.0014290406260616,-0.0014290406262351,0.0014290406213166,-0.0014290406223453,0.0014290406263684,-0.0014290406268588,0.0014290406219108,-0.0013772275587157,0.0013772275726114,-0.0013772275724951,0.0013772275581856,-6.8376308209543e-13,-5.2785940366932e-13,-1.5850327548079e-13,9.380822245849e-14,-0.0014043387615676,0.0014043387607925,-0.0014290406241969,0.00142904062392,-0.0014290406240464,0.0014290406241942,-0.0014290406241193,0.0014290406241368,-0.0014290406240836,0.0014290406241664,-0.0013772275660585,0.0013772275644989,-0.0013772275642848,0.0013772275632372,-0.0013772275662277,0.0013772275631392,-0.0013772275660294,0.0013772275626881,-7.0066275405735e-12,7.0404765947434e-12,-0.0014043387611642,0.0014043387611425,9.9456785192894e-14,-1.5701282101315e-13,-0.0014290406266679,0.0014290406219296,-0.001429040626558,0.0014290406216127,-0.0014290406218241,0.0014290406268051,-0.0014290406217807,0.0014290406263872,-0.0013772275562877,0.0013772275707924,-0.0013772275707212,0.0013772275566138,0.0038834526697828,0.0036435523578596,0.75005021033127,0.64701585131699,1368840,32768,0.0058343112325786,0.0058343112326562,0.0058343112325458,36.223902358511,36.242877754288,0.00020499121886809,0.00020499121886809,0.00020499121886809,252576.46794151,0.017657204996146
35596800,0.99999849429816,0.016915029153236,0.0056383430510734,0.0056383430511325,0.0056383430510302,-0.0014051177163744,0.0014051177159577,6.5866987220518e-12,-7.0092903415797e-12,-1.6942541240524e-13,-2.7651437620503e-13,-0.0014296996164644,0.0014296996208104,-0.0014296996209515,0.001429699616182,-0.0014296996172621,0.0014296996209994,-0.0014296996217105,0.0014296996168084,-0.0013781204450875,0.0013781204591033,-0.0013781204588116,0.0013781204447554,-6.2892978662673e-13,-5.001150159472e-13,-1.4759328524409e-13,7.0470406000999e-14,-0.0014051177165652,0.0014051177157926,-0.0014296996189413,0.001429699618659,-0.0014296996189694,0.0014296996187951,-0.0014296996188956,0.0014296996189235,-0.0014296996188284,0.0014296996189028,-0.0013781204524337,0.0013781204510728,-0.0013781204509586,0.0013781204495618,-0.0013781204524237,0.0013781204496839,-0.0013781204525956,0.0013781204494869,-7.0229869819802e-12,7.0596230686553e-12,-0.00140511771616,0.0014051177161461,1.0504255572791e-13,-1.1719350805407e-13,-0.001429699621418,0.0014296996166588,-0.001429699621295,0.0014296996162491,-0.0014296996164958,0.0014296996215611,-0.0014296996165986,0.0014296996212571,-0.001378120442738,0.0013781204572649,-0.001378120457322,0.0013781204432674,0.0038866811982686,0.0036435310565386,0.73390814457716,0.42619644272479,1368840,32768,0.0058375381991739,0.005837538199227,0.00583753819912,36.500455512832,36.519385282687,0.00020720364410265,0.00020720364410265,0.00020720364410265,245465.71339663,0.01766705615276
35683200,0.99999857751643,0.016915030500848,0.0056383435002773,0.0056383435003365,0.0056383435002342,-0.0014050265905484,0.0014050265902124,6.6311137181453e-12,-7.0117099147222e-12,-8.3017463873464e-14,-2.0723896310958e-13,-0.0014299235462875,0.0014299235506682,-0.0014299235509036,0.0014299235459557,-0.0014299235469749,0.00142992355098,-0.0014299235515053,0.0014299235465481,-0.0013777427356733,0.0013777427494654,-0.0013777427495735,0.001377742735056,-6.7692070289012e-13,-5.3020527318109e-13,-1.0709093432782e-13,1.1403798680602e-14,-0.0014050265907924,0.0014050265900011,-0.0014299235487934,0.0014299235485634,-0.0014299235486803,0.0014299235487774,-0.0014299235487031,0.0014299235487646,-0.0014299235487465,0.0014299235487244,-0.0013777427432232,0.001377742741505,-0.001377742741225,0.0013777427399511,-0.0013777427432788,0.001377742740092,-0.00137774274289,0.0013777427396074,-7.0455969383204e-12,7.0845844825718e-12,-0.0014050265903626,0.0014050265903844,1.0036181636834e-13,-2.2640720106248e-14,-0.001429923551278,0.0014299235465404,-0.0014299235511467,0.0014299235462506,-0.0014299235464885,0.0014299235514322,-0.0014299235463515,0.0014299235510553,-0.0013777427332821,0.0013777427478941,-0.0013777427475928,0.0013777427334916,0.0038863199989834,0.0036435101727402,0.73830500809333,0.51863330302199,1368840,32768,0.0058371602977409,0.0058371602978085,0.0058371602977124,36.776952102549,36.795892811086,0.00020941561682039,0.00020941561682039,0.00020941561682039,263533.06809235,0.017665903906321
35769600,0.99999865729679,0.016915031800097,0.0056383439333602,0.0056383439334193,0.0056383439333171,-0.0014058248186638,0.0014058248183656,6.6539939603461e-12,-6.9915714122925e-12,-1.4828958750195e-16,-1.977499588745e-13,-0.0014305935937709,0.0014305935980056,-0.0014305935981754,0.0014305935932472,-0.0014305935942057,0.0014305935983765,-0.001430593598825,0.0014305935939311,-0.0013786631174264,0.0013786631312164,-0.0013786631312177,0.0013786631166168,-6.8280549370204e-13,-4.633736089602e-13,-8.7489180206776e-14,3.4716704134401e-14,-0.0014058248188967,0.0014058248181485,-0.0014305935960482,0.0014305935958184,-0.0014305935961024,0.0014305935961258,-0.001430593596135,0.0014305935962079,-0.0014305935961144,0.0014305935961233,-0.001378663124807,0.001378663123352,-0.0013786631227883,0.0013786631218486,-0.0013786631254582,0.0013786631218686,-0.0013786631244324,0.0013786631218257,-7.1377497113517e-12,6.9941076877522e-12,-0.0014058248185363,0.0014058248184847,7.1170943423591e-14,-5.5495657586931e-14,-0.0014305935985989,0.0014305935939612,-0.0014305935982746,0.0014305935934808,-0.0014305935939391,0.0014305935989307,-0.0014305935937691,0.0014305935985785,-0.0013786631154225,0.0013786631301729,-0.0013786631297511,0.0013786631157035,0.0038896294796103,0.003643489697818,0.74267456625056,0.60432253861505,1368840,32768,0.0058404671039869,0.0058404671040197,0.0058404671039697,37.053444159156,37.072400339482,0.00021162755327325,0.00021162755327325,0.00021162755327325,255805.66233931,0.01767599886935
35856000,0.99999873371222,0.016915033052731,0.0056383443509052,0.0056383443509643,0.005638344350862,-0.0014065902351424,0.0014065902348066,6.6631168581184e-12,-7.0112805160753e-12,-4.3264443006846e-14,-2.42158366934e-13,-0.0014312430378257,0.0014312430422762,-0.0014312430423042,0.0014312430372682,-0.0014312430382955,0.0014312430422597,-0.0014312430430441,0.0014312430379149,-0.0013795383846493,0.0013795383984733,-0.0013795383984616,0.001379538384069,-6.4429314081622e-13,-4.2281378921132e-13,-7.0711928034431e-14,-3.5050576287778e-14,-0.0014065902353578,0.0014065902346133,-0.0014312430404982,0.0014312430399083,-0.001431243039995,0.0014312430401818,-0.001431243039889,0.0014312430402222,-0.0014312430404125,0.0014312430399319,-0.0013795383922361,0.0013795383910514,-0.001379538390511,0.0013795383889759,-0.0013795383921763,0.0013795383895097,-0.0013795383916654,0.0013795383890549,-7.1950797834868e-12,6.96604719204e-12,-0.0014065902350493,0.0014065902348631,-6.1892138649413e-14,-1.0311384994266e-13,-0.001431243042874,0.0014312430379528,-0.0014312430429545,0.0014312430379211,-0.0014312430379038,0.0014312430426412,-0.0014312430375501,0.0014312430424377,-0.0013795383828601,0.0013795383972179,-0.0013795383969285,0.001379538382874,0.0038928045796321,0.0036434696238539,0.747476430428,0.69001177420814,1368840,32768,0.0058436379471253,0.0058436379471711,0.0058436379470496,37.329937225937,37.348907867882,0.00021383949780749,0.00021383949780749,0.00021383949780749,248987.9583028,0.017685678931223
35942400,0.99999880683771,0.016915034260857,0.0056383447536137,0.0056383447536728,0.0056383447535705,-0.0014073435466738,0.001407343546327,6.6713629003251e-12,-6.9999088046498e-12,-7.5337227911165e-14,-2.2853243025583e-13,-0.0014318872249778,0.0014318872293915,-0.0014318872296235,0.0014318872246025,-0.00143188722566,0.0014318872295569,-0.0014318872301485,0.0014318872250117,-0.0013803945973638,0.0013803946117364,-0.0013803946116059,0.001380394597904,-6.8268893843919e-13,-5.0688827961688e-13,-4.8421403112314e-14,-1.9293469421282e-14,-0.0014073435468918,0.0014073435461443,-0.0014318872271541,0.0014318872273176,-0.0014318872272994,0.0014318872274926,-0.0014318872273927,0.0014318872273974,-0.0014318872272412,0.0014318872273576,-0.0013803946049607,0.0013803946041854,-0.0013803946035739,0.0013803946025068,-0.0013803946059148,0.0013803946027172,-0.0013803946048068,0.0013803946023778,-7.0501329762181e-12,7.1079521804694e-12,-0.0014073435464417,0.0014073435465186,6.4817490458394e-14,3.0573771874609e-14,-0.0014318872298809,0.0014318872250933,-0.0014318872296711,0.0014318872250699,-0.0014318872251289,0.0014318872301824,-0.0014318872249782,0.0014318872298469,-0.0013803945955876,0.0013803946098046,-0.0013803946105632,0.0013803945959642,0.0038959308540811,0.0036434499431917,0.75328016957325,0.77570100980123,1368840,32768,0.0058467586221057,0.0058467586221787,0.005846758622022,37.606433462356,37.625415396283,0.00021605146769884,0.00021605146769884,0.00021605146769884,242531.63591667,0.017695205971184
36028800,0.99999887675015,0.016915035424206,0.0056383451413966,0.0056383451414557,0.0056383451413534,-0.001408087211092,0.0014080872108054,6.6465827161663e-12,-7.0392857781808e-12,-3.412178113242e-14,-1.7679759895471e-13,-0.0014325244602027,0.0014325244647537,-0.0014325244650118,0.0014325244599135,-0.0014325244606723,0.0014325244647938,-0.0014325244655077,0.0014325244606293,-0.0013812360960992,0.0013812361104335,-0.001381236110564,0.0013812360957466,-7.3250124023698e-13,-5.6695579753662e-13,-5.8063667371289e-14,-4.5743720207806e-14,-0.0014080872113897,0.0014080872105499,-0.00143252446294,0.0014325244626147,-0.0014325244626594,0.001432524462919,-0.001432524462349,0.0014325244629986,-0.0014325244625655,0.0014325244626379,-0.0013812361042669,0.0013812361026672,-0.0013812361025313,0.0013812361007115,-0.001381236104065,0.0013812361016358,-0.001381236103799,0.0013812361009251,-7.0677043217785e-12,7.104285351312e-12,-0.0014080872109214,0.0014080872109562,5.218178823513e-14,3.5740231689867e-14,-0.0014325244652277,0.0014325244604854,-0.0014325244653358,0.0014325244602284,-0.0014325244604207,0.0014325244656136,-0.0014325244599013,0.0014325244647873,-0.0013812360947676,0.0013812361092843,-0.0013812361094228,0.0013812360949279,0.003899019324921,0.0036434306477422,0.75863256149422,0.83080222133199,1368840,32768,0.005849839301103,0.0058498393011905,0.0058498393010621,37.882931530642,37.901922924681,0.00021826345224514,0.00021826345224514,0.00021826345224514,236253.64778722,0.017704611066383
36115200,0.99999894295384,0.016915036520641,0.0056383455068752,0.0056383455069343,0.005638345506832,-0.0014084378645816,0.0014084378642228,6.6421754390409e-12,-7.0124278339667e-12,-6.3975398536666e-14,-2.8829954558795e-13,-0.0014328081343172,0.0014328081387123,-0.0014328081389122,0.0014328081339797,-0.001432808135026,0.0014328081390034,-0.0014328081395592,0.0014328081345482,-0.0013816459095373,0.0013816459234326,-0.0013816459236852,0.0013816459091246,-6.9826102154627e-13,-4.5202830849252e-13,-2.0753983627105e-14,5.1884885540597e-15,-0.0014084378647864,0.0014084378640517,-0.0014328081368321,0.0014328081366494,-0.0014328081367608,0.0014328081368346,-0.0014328081367317,0.0014328081368793,-0.0014328081367637,0.0014328081368054,-0.0013816459169351,0.0013816459155952,-0.0013816459152386,0.0013816459140658,-0.0013816459171828,0.0013816459139905,-0.0013816459168532,0.0013816459137371,-7.043977811313e-12,7.0971270405817e-12,-0.0014084378643731,0.0014084378644188,3.9267359232659e-14,8.5046813642927e-15,-0.0014328081393307,0.0014328081345732,-0.0014328081391742,0.0014328081343507,-0.0014328081344981,0.0014328081395022,-0.0014328081343584,0.0014328081391562,-0.0013816459072796,0.0013816459218484,-0.0013816459217436,0.001381645907454,0.0039004676366583,0.0036434117230844,0.75497878970532,0.75354661301225,1368840,32768,0.005851291885041,0.0058512918851109,0.0058512918850154,37.994745963255,38.002827568812,0.00021915796770604,0.00021915796770604,0.00021915796770604,232035.50130392,0.017709045802913
36201600,0.99999900483205,0.016915037543709,0.0056383458478976,0.0056383458479567,0.0056383458478544,-0.0014080184478313,0.0014080184474741,6.6439620315205e-12,-7.0050615295905e-12,-6.090660993311e-14,-2.9256900339424e-13,-0.0014324765646251,0.0014324765689956,-0.0014324765692027,0.0014324765642731,-0.0014324765653247,0.0014324765692961,-0.001432476569849,0.0014324765648365,-0.001381145130602,0.0013811451445777,-0.0013811451448228,0.001381145130145,-6.9603814827705e-13,-4.4234648661847e-13,-2.0270145466852e-14,-1.8589137996947e-15,-0.0014080184480378,0.0014080184473021,-0.0014324765671087,0.0014324765669296,-0.0014324765670519,0.0014324765671057,-0.0014324765669995,0.0014324765671513,-0.0014324765670484,0.001432476567078,-0.0013811451380118,0.0013811451367221,-0.0013811451362574,0.0013811451352632,-0.001381145138343,0.0013811451350205,-0.0013811451378639,0.0013811451348937,-7.0349182645465e-12,7.100668785325e-12,-0.0014080184476206,0.0014080184476722,3.8808226200034e-14,1.5543083992983e-14,-0.0014324765696173,0.0014324765648587,-0.0014324765694653,0.0014324765646471,-0.001432476564819,0.0014324765697903,-0.0014324765646664,0.0014324765694455,-0.0013811451283888,0.0013811451430806,-0.0013811451429091,0.0013811451285718,0.003898706248567,0.0036433931589369,0.75364861285216,0.73045191308876,1368840,32768,0.0058495543301179,0.0058495543301892,0.0058495543300918,37.864844021163,37.856521076302,0.0002181187521693,0.0002181187521693,0.0002181187521693,236533.14951759,0.017703741502317
36288000,0.99999906264616,0.016915038497748,0.0056383461659107,0.0056383461659699,0.0056383461658676,-0.0014076859516276,0.0014076859512638,6.6365607870352e-12,-7.0018233932192e-12,-4.2377881855387e-14,-3.1683408564205e-13,-0.0014321707749378,0.0014321707793562,-0.0014321707795469,0.0014321707746207,-0.0014321707756816,0.0014321707796312,-0.0014321707801867,0.0014321707751522,-0.0013807878808371,0.001380787894715,-0.0013807878951218,0.0013807878804886,-7.0900995787953e-13,-4.1258568990803e-13,-1.7448143441783e-14,3.0986112219071e-14,-0.0014076859518159,0.0014076859511028,-0.0014321707774719,0.0014321707772747,-0.001432170777378,0.0014321707774771,-0.0014321707773347,0.0014321707775302,-0.0014321707773866,0.0014321707774634,-0.0013807878882776,0.0013807878870246,-0.0013807878865477,0.0013807878855015,-0.0013807878885589,0.0013807878853751,-0.0013807878881415,0.0013807878851469,-7.0341839928604e-12,7.0906443856812e-12,-0.0014076859514181,0.0014076859514593,4.3284501217611e-14,-9.8283173987087e-15,-0.0014321707799525,0.0014321707752177,-0.0014321707798237,0.0014321707749803,-0.0014321707751387,0.0014321707801382,-0.0014321707750161,0.0014321707797873,-0.0013807878787101,0.0013807878931587,-0.0013807878931749,0.0013807878787057,0.0038972962197314,0.0036433749490154,0.75224735256881,0.71149841764089,1368840,32768,0.0058481769608013,0.0058481769608578,0.0058481769607724,37.720089122331,37.710214583792,0.00021696071297864,0.00021696071297864,0.00021696071297864,237791.13013555,0.01769953642208
36374400,0.99999911668401,0.016915039387547,0.0056383464625102,0.0056383464625693,0.0056383464624671,-0.0014073581812224,0.0014073581808298,6.6273523036422e-12,-7.0371098446541e-12,-5.6880850564354e-14,-3.438028500001e-13,-0.0014318658222674,0.0014318658266656,-0.0014318658268697,0.0014318658219261,-0.0014318658229923,0.0014318658269307,-0.0014318658275251,0.0014318658224726,-0.001380439306391,0.0013804393202175,-0.0013804393205332,0.0013804393058379,-7.2767844639355e-13,-4.188966735824e-13,-9.550531767222e-15,2.2204086386285e-14,-0.0014073581814005,0.0014073581806863,-0.0014318658247872,0.0014318658245957,-0.0014318658247039,0.0014318658247895,-0.0014318658246597,0.0014318658248372,-0.0014318658246829,0.0014318658247781,-0.0013804393136779,0.0013804393123579,-0.0013804393120148,0.0013804393108849,-0.0013804393139468,0.0013804393106176,-0.0013804393135706,0.0013804393104737,-7.0399985799346e-12,7.1109619120536e-12,-0.001407358180996,0.0014073581810437,3.4521298339209e-14,-2.0929654731062e-15,-0.001431865827281,0.0014318658225317,-0.0014318658271396,0.0014318658223109,-0.0014318658224415,0.0014318658274584,-0.0014318658223237,0.0014318658271034,-0.0013804393039184,0.0013804393185474,-0.0013804393183607,0.0013804393040623,0.0038959048678328,0.0036433570873656,0.7506332030078,0.69254492219303,1368840,32768,0.0058468191801124,0.0058468191801838,0.0058468191800867,37.573935924273,37.563908091282,0.00021579148739418,0.00021579148739418,0.00021579148739418,238869.58112812,0.017695391111356
36460800,0.9999991672152,0.016915040217633,0.0056383467392058,0.0056383467392649,0.0056383467391626,-0.0014070285356709,0.0014070285352874,6.6409956515532e-12,-7.033631597971e-12,-4.9208967288063e-14,-3.4562944125782e-13,-0.0014315600084138,0.0014315600128241,-0.0014315600130128,0.0014315600080777,-0.0014315600091508,0.0014315600130832,-0.0014315600136874,0.001431560008627,-0.0013800882928354,0.0013800883066878,-0.0013800883069704,0.0013800882922799,-7.2838454246986e-13,-4.1007264903264e-13,-1.5713196443223e-14,1.6162535657395e-14,-0.0014070285358533,0.0014070285351387,-0.0014315600109284,0.0014315600107376,-0.001431560010856,0.0014315600109368,-0.001431560010801,0.0014315600109883,-0.0014315600108316,0.0014315600109312,-0.0013800883001166,0.0013800882988336,-0.0013800882985346,0.0013800882973292,-0.0013800883004771,0.0013800882971117,-0.001380088300046,0.0013800882970708,-7.0448782543933e-12,7.1162483976139e-12,-0.0014070285354493,0.0014070285354967,3.9906251479645e-14,3.2086666833177e-15,-0.0014315600134352,0.0014315600086811,-0.0014315600132819,0.0014315600084455,-0.0014315600086026,0.0014315600136102,-0.0014315600084649,0.0014315600132591,-0.0013800882904871,0.0013800883051524,-0.0013800883049568,0.0013800882906783,0.0038945056688143,0.0036433395680962,0.74886367769238,0.67359142674518,1368840,32768,0.0058454536334367,0.0058454536335064,0.0058454536334115,37.427641602606,37.417601598772,0.00021462113282085,0.00021462113282085,0.00021462113282085,240021.45485612,0.01769122209555
36547200,0.99999921448897,0.016915040982453,0.0056383469941458,0.0056383469942049,0.0056383469941027,-0.0014066975379545,0.0014066975375924,6.6483386037016e-12,-7.0196620835536e-12,-4.3927952148862e-14,-3.2946493507239e-13,-0.0014312536452351,0.0014312536496259,-0.0014312536498226,0.001431253644902,-0.0014312536459468,0.0014312536499272,-0.0014312536504918,0.0014312536454661,-0.0013797354858826,0.0013797354996527,-0.0013797354999257,0.0013797354854965,-7.1953501869909e-13,-4.1199447267519e-13,-6.7877514623815e-14,9.9656955548415e-15,-0.0014066975381641,0.0014066975374171,-0.0014312536477521,0.0014312536475752,-0.0014312536476686,0.0014312536477314,-0.0014312536476723,0.001431253647762,-0.0014312536476803,0.0014312536477091,-0.0013797354933368,0.0013797354917078,-0.0013797354915312,0.0013797354904752,-0.0013797354934162,0.001379735490275,-0.0013797354930753,0.00137973549012,-7.0579373848576e-12,7.0964603256553e-12,-0.0014066975377529,0.0014066975377824,4.7667043804532e-14,-3.482202444635e-14,-0.0014312536503145,0.0014312536455234,-0.0014312536501131,0.0014312536453164,-0.0014312536454551,0.0014312536504597,-0.0014312536453033,0.0014312536501102,-0.0013797354835245,0.0013797354979207,-0.0013797354978679,0.0013797354836876,0.0038931009377789,0.0036433223827625,0.73751413108063,0.51734844106458,1368840,32768,0.0058440824858338,0.005844082485905,0.0058440824858098,37.281333984475,37.271295106262,0.0002134506718758,0.0002134506718758,0.0002134506718758,241232.14261244,0.017687035989394
36633600,0.99999925873546,0.016915041694504,0.0056383472314961,0.0056383472315552,0.0056383472314529,-0.0014059979511562,0.0014059979507261,6.595286518524e-12,-7.0854855432803e-12,-6.688678018419e-14,-3.9427183761894e-13,-0.0014307605211144,0.0014307605254937,-0.0014307605257032,0.0014307605206237,-0.0014307605217667,0.0014307605257861,-0.0014307605264516,0.0014307605215081,-0.0013788476494675,0.0013788476635822,-0.0013788476635301,0.0013788476484193,-7.5282488406949e-13,-4.0362355193049e-13,5.6860027671067e-16,7.8801063269843e-14,-0.0014059979513318,0.0014059979505692,-0.0014307605234926,0.0014307605233358,-0.001430760523565,0.0014307605236223,-0.0014307605235456,0.0014307605235222,-0.0014307605236341,0.0014307605234979,-0.0013788476564494,0.0013788476555512,-0.0013788476545649,0.001378847654146,-0.0013788476573041,0.0013788476536987,-0.0013788476568469,0.0013788476539201,-7.0771427393237e-12,7.0900927848852e-12,-0.001405997950907,0.0014059979508997,4.3042979184179e-14,-4.0390883733286e-14,-0.0014307605260779,0.0014307605214734,-0.0014307605259289,0.0014307605210144,-0.0014307605211999,0.0014307605261428,-0.001430760521141,0.0014307605258919,-0.0013788476468915,0.0013788476619208,-0.0013788476614567,0.0013788476471202,0.0038901746936076,0.0036433055278312,0.73361141341935,0.48156401590332,1368840,32768,0.0058411842354203,0.005841184235459,0.0058411842352637,37.135023672051,37.124988613752,0.0002122801893764,0.0002122801893764,0.0002122801893764,253120.1154993,0.017678188498251
36720000,0.99999930016731,0.016915042364949,0.0056383474549777,0.0056383474550368,0.0056383474549345,-0.0014056046581898,0.0014056046577819,6.648148785971e-12,-7.0581282613794e-12,-5.1593835608443e-14,-3.6166624546211e-13,-0.0014304287388307,0.0014304287432308,-0.0014304287434674,0.0014304287384677,-0.0014304287395972,0.0014304287435186,-0.0014304287441384,0.0014304287390081,-0.0013784008602694,0.0013784008742815,-0.0013784008744384,0.001378400859752,-7.129615136328e-13,-3.8118388450575e-13,-6.072138029763e-15,2.6150112896707e-14,-0.0014056046583506,0.0014056046576523,-0.001430428741345,0.0014304287411541,-0.0014304287412329,0.0014304287413613,-0.0014304287412235,0.0014304287414271,-0.0014304287412741,0.0014304287413317,-0.0013784008675887,0.0013784008663169,-0.0013784008659076,0.0013784008647824,-0.0013784008680269,0.0013784008646289,-0.0013784008674629,0.0013784008647618,-7.0646529444078e-12,7.1281994442823e-12,-0.0014056046579742,0.0014056046579933,1.3830283376689e-14,-2.3229378593723e-14,-0.0014304287438895,0.001430428739049,-0.0014304287437384,0.0014304287388626,-0.0014304287390481,0.0014304287440283,-0.0014304287388835,0.001430428743676,-0.0013784008577828,0.0013784008725205,-0.0013784008724386,0.0013784008580561,0.0038885111936501,0.0036432889995356,0.73780772309925,0.56834652841547,1368840,32768,0.0058395550125704,0.0058395550126351,0.005839555012562,36.988712811656,36.978682121242,0.00021110970249324,0.00021110970249324,0.00021110970249324,256352.11543828,0.017673214611091
36806400,0.99999933898101,0.016915042984365,0.0056383476614497,0.0056383476615088,0.0056383476614065,-0.0014055575771267,0.0014055575767471,6.6777321763364e-12,-7.0613199874038e-12,-4.4965155757122e-14,-3.3830695907227e-13,-0.0014302653585194,0.0014302653629294,-0.0014302653631367,0.0014302653581882,-0.0014302653592403,0.0014302653631962,-0.0014302653638134,0.0014302653587211,-0.0013784635366198,0.0013784635505785,-0.0013784635508816,0.0013784635360322,-7.1643837800522e-13,-4.0103916029364e-13,-3.1845203621477e-14,1.7718046961122e-14,-0.001405557577311,0.0014055575765968,-0.0014302653610626,0.0014302653608313,-0.0014302653609647,0.0014302653610405,-0.0014302653609153,0.0014302653611097,-0.0014302653609454,0.0014302653610447,-0.0013784635439178,0.0013784635426017,-0.0013784635422903,0.0013784635409942,-0.0013784635442236,0.0013784635409793,-0.0013784635437679,0.0013784635407782,-7.0855104836949e-12,7.1401250505515e-12,-0.0014055575769145,0.0014055575769491,4.3940804697402e-14,-1.041171134113e-14,-0.0014302653635721,0.0014302653588074,-0.0014302653634417,0.0014302653585707,-0.0014302653587221,0.0014302653637531,-0.0014302653586046,0.0014302653634007,-0.0013784635340484,0.0013784635488353,-0.0013784635486326,0.0013784635341972,0.0038882771632934,0.003643272788799,0.72764533708065,0.43194025391056,1368840,32768,0.00583936017934,0.0058393601794105,0.005839360179319,36.842402295306,36.832375628732,0.00020993921836244,0.00020993921836244,0.00020993921836244,249450.18908131,0.017672619093601
36892800,0.99999937558778,0.016915043572099,0.005638347857361,0.0056383478574202,0.0056383478573179,-0.0014051097423066,0.0014051097419245,6.675505597298e-12,-7.0590862909358e-12,-3.5427800057968e-14,-3.3986844078184e-13,-0.0014300133344536,0.0014300133388662,-0.0014300133390704,0.0014300133341112,-0.0014300133351852,0.0014300133391364,-0.0014300133397436,0.0014300133346553,-0.0013778374209926,0.0013778374349081,-0.0013778374351912,0.0013778374204788,-7.2385294561291e-13,-3.9733056770625e-13,-3.065235770916e-14,3.6744406895356e-14,-0.0014051097424903,0.0014051097417746,-0.0014300133369851,0.0014300133367776,-0.0014300133368969,0.0014300133369804,-0.0014300133368608,0.0014300133370273,-0.0014300133368792,0.0014300133369771,-0.0013778374283395,0.001377837427,-0.0013778374266184,0.0013778374255313,-0.0013778374286323,0.0013778374254216,-0.0013778374281998,0.0013778374252575,-7.084529043089e-12,7.1368816496351e-12,-0.0014051097420916,0.0014051097421269,5.1457575065227e-14,-2.063445786677e-14,-0.0014300133394834,0.0014300133347119,-0.0014300133393477,0.0014300133344744,-0.0014300133346348,0.0014300133396642,-0.0014300133345146,0.0014300133393046,-0.0013778374186301,0.0013778374332882,-0.0013778374331629,0.0013778374187937,0.0038864055244662,0.0036432568945272,0.73199880813578,0.52015280790737,1368840,32768,0.0058375048121263,0.0058375048121963,0.0058375048121003,36.814520771804,36.812326948776,0.00020971616617443,0.00020971616617443,0.00020971616617443,260776.08117148,0.017666955516402
36979200,0.99999941040993,0.016915044134647,0.0056383480448769,0.005638348044936,0.0056383480448337,-0.0014056147304047,0.0014056147300576,6.7181356479204e-12,-7.0698437270094e-12,1.7744987314583e-14,-3.1237657475712e-13,-0.0014303911745434,0.0014303911790531,-0.0014303911793116,0.0014303911742307,-0.0014303911752888,0.0014303911791123,-0.0014303911798615,0.0014303911746674,-0.0013784614670988,0.001378461481221,-0.001378461481539,0.0013784614671417,-7.3348053384964e-13,-3.8073554526103e-13,-4.1938071761872e-14,4.7788393038572e-14,-0.0014056147305908,0.001405614729899,-0.0014303911770229,0.0014303911769359,-0.001430391176918,0.0014303911769899,-0.0014303911769932,0.0014303911772939,-0.0014303911767639,0.0014303911771372,-0.001378461475011,0.0013784614735237,-0.0013784614731009,0.0013784614722608,-0.0013784614750587,0.0013784614719616,-0.0013784614747775,0.0013784614718465,-7.1430723134558e-12,7.1303949066242e-12,-0.001405614730231,0.0014056147302129,3.2047403326768e-14,-6.2706466713426e-14,-0.0014303911796051,0.0014303911747764,-0.0014303911794741,0.0014303911744268,-0.0014303911747618,0.0014303911796712,-0.0014303911746473,0.0014303911793382,-0.0013784614651571,0.0013784614793208,-0.0013784614797337,0.0013784614652568,0.0038884886387161,0.0036432413123576,0.73667733342258,0.60836536190423,1368840,32768,0.005839596892622,0.005839596892679,0.0058395968925839,36.946332352289,36.954970547506,0.00021077065881831,0.00021077065881831,0.00021077065881831,253306.36889003,0.017673341901749
37065600,0.99999944353778,0.016915044673592,0.0056383482245253,0.0056383482245845,0.0056383482244822,-0.001406124349216,0.0014061243487602,6.6450191168744e-12,-7.1292524415257e-12,-1.1453150114126e-13,-3.7140406562544e-13,-0.0014307825371696,0.0014307825414361,-0.0014307825416446,0.0014307825368095,-0.0014307825378231,0.0014307825417613,-0.0014307825423666,0.0014307825374085,-0.0013790822744087,0.0013790822884819,-0.0013790822890888,0.0013790822742568,-6.727178901067e-13,-3.9464747320235e-13,-1.3912457336919e-14,9.7922861464975e-14,-0.0014061243493148,0.0014061243486753,-0.0014307825395438,0.0014307825395042,-0.0014307825394602,0.0014307825397097,-0.0014307825393985,0.0014307825397255,-0.001430782539522,0.0014307825397122,-0.0013790822818327,0.001379082280535,-0.0013790822798399,0.0013790822792987,-0.0013790822821342,0.0013790822790266,-0.0013790822817966,0.001379082279281,-7.1078397427278e-12,7.1532237974526e-12,-0.0014061243489533,0.0014061243490022,8.7979988742324e-14,-2.8237990289956e-14,-0.0014307825420947,0.0014307825373718,-0.001430782541989,0.0014307825371024,-0.0014307825372413,0.0014307825422289,-0.0014307825370591,0.001430782542037,-0.0013790822722862,0.0013790822867644,-0.0013790822871973,0.0013790822721359,0.0038905943606396,0.0036432260364226,0.74179140677409,0.69657791590102,1368840,32768,0.0058417081247326,0.0058417081247614,0.00584170812469,37.087948346781,37.097614146242,0.00021190358677425,0.00021190358677425,0.00021190358677425,246335.09512714,0.017679786894958
37152000,0.99999947504097,0.016915045190485,0.0056383483968231,0.0056383483968822,0.0056383483967799,-0.0014066226090852,0.001406622608726,6.7142413551237e-12,-7.0815195467917e-12,-1.2848372196931e-14,-2.7294483819314e-13,-0.001431168988446,0.0014311689928705,-0.0014311689930523,0.001431168988031,-0.0014311689891053,0.0014311689930654,-0.001431168993677,0.0014311689885298,-0.0013796850193874,0.0013796850331997,-0.0013796850338461,0.0013796850192198,-6.5144830458382e-13,-3.692250145469e-13,-1.2099659775464e-14,8.8949223838739e-14,-0.0014066226092481,0.0014066226085833,-0.0014311689910911,0.0014311689908409,-0.0014311689908639,0.0014311689909722,-0.0014311689908441,0.0014311689910974,-0.0014311689907885,0.0014311689909431,-0.0013796850264917,0.0013796850252205,-0.0013796850248927,0.0013796850239179,-0.0013796850269712,0.0013796850239457,-0.0013796850263675,0.001379685023892,-7.1519431601046e-12,7.1297888074931e-12,-0.0014066226088927,0.0014066226089154,6.5749579630769e-14,-3.9827959753757e-14,-0.0014311689933618,0.0014311689885679,-0.0014311689932654,0.0014311689885213,-0.0014311689887164,0.0014311689935622,-0.0014311689883704,0.001431168993185,-0.0013796850172767,0.001379685031381,-0.0013796850315016,0.0013796850169551,0.0038926543680106,0.0036432110609509,0.74806139856256,0.78479046989782,1368840,32768,0.0058437722827704,0.0058437722828122,0.005843772282764,37.230486978315,37.240257744975,0.00021304389582652,0.00021304389582652,0.00021304389582652,239748.09442565,0.017686088266342
37238400,0.99999950498551,0.016915045687184,0.0056383485623894,0.0056383485624485,0.0056383485623462,-0.0014071111233593,0.0014071111230191,6.7079270186105e-12,-7.0769398043468e-12,-5.4191050382962e-14,-2.8663083186013e-13,-0.0014315486066683,0.0014315486111128,-0.0014315486112081,0.0014315486063105,-0.0014315486073587,0.0014315486114248,-0.0014315486119126,0.0014315486069001,-0.0013802723656664,0.001380272379708,-0.0013802723799852,0.0013802723650724,-7.1528744257727e-13,-4.6069680838168e-13,-1.1311145628736e-13,-1.0560353859027e-14,-0.0014071111236012,0.0014071111228187,-0.0014315486091789,0.0014315486089872,-0.0014315486091387,0.0014315486092013,-0.0014315486091354,0.0014315486091489,-0.0014315486090929,0.001431548609175,-0.0013802723731958,0.0013802723718015,-0.0013802723715188,0.0013802723703738,-0.0013802723733012,0.0013802723702216,-0.0013802723725311,0.001380272369879,-7.1486440844185e-12,7.1225618223901e-12,-0.0014071111231973,0.0014071111231846,4.3148828891719e-14,-6.3961546018674e-14,-0.0014315486116995,0.0014315486069196,-0.0014315486115669,0.0014315486066933,-0.0014315486068719,0.0014315486118938,-0.0014315486067399,0.0014315486114775,-0.0013802723633862,0.0013802723781399,-0.0013802723779553,0.0013802723634258,0.0038946763195746,0.0036431963803861,0.75619173356074,0.87300302389465,1368840,32768,0.0058457960391758,0.0058457960392617,0.0058457960391832,37.373121002237,37.382901343708,0.00021418496801789,0.00021418496801789,0.00021418496801789,233331.03240407,0.017692266415527
37324800,0.99999953343531,0.01691504615618,0.0056383487187214,0.0056383487187806,0.0056383487186783,-0.0014075922319645,0.0014075922316295,6.7387808995751e-12,-7.0769829206767e-12,-2.9525098028522e-14,-3.1636292356514e-13,-0.0014319239406291,0.0014319239451135,-0.0014319239452598,0.0014319239403154,-0.0014319239414494,0.0014319239455066,-0.0014319239460324,0.0014319239409256,-0.0013808455143756,0.0013808455282923,-0.001380845528713,0.0013808455137063,-7.1498348127484e-13,-4.0658163803358e-13,-5.5484599101231e-14,6.2173835926108e-14,-0.0014075922321675,0.001407592231452,-0.0014319239432352,0.0014319239429427,-0.001431923943086,0.0014319239431831,-0.0014319239431865,0.0014319239432256,-0.0014319239431238,0.0014319239431875,-0.0013808455218379,0.0013808455205389,-0.0013808455198684,0.0013808455189012,-0.0013808455220004,0.0013808455187457,-0.0013808455215001,0.0013808455185825,-7.1688718194162e-12,7.1332145263691e-12,-0.0014075922317888,0.001407592231786,6.10756341813e-14,-6.0881198944692e-14,-0.0014319239457325,0.0014319239409545,-0.0014319239456099,0.0014319239407047,-0.0014319239408637,0.0014319239459203,-0.0014319239407607,0.0014319239455189,-0.0013808455120831,0.0013808455268976,-0.0013808455266189,0.0013808455121416,0.0038966710692052,0.0036431819867767,0.75145803532018,0.76558456952601,1368840,32768,0.0058477890790613,0.005847789079114,0.0058477890790217,37.515755260892,37.525544942441,0.00021532604208713,0.00021532604208713,0.00021532604208713,226953.8141725,0.017698350945554
37411200,0.99999956045234,0.016915046596618,0.0056383488655341,0.0056383488655933,0.005638348865491,-0.0014076414425423,0.0014076414420288,6.6574477960103e-12,-7.2066072548599e-12,-9.387007351016e-14,-3.9159591936641e-13,-0.0014320796164769,0.0014320796207856,-0.0014320796210388,0.0014320796161936,-0.001432079617519,0.0014320796210247,-0.0014320796218701,0.0014320796165447,-0.0013807927650432,0.0013807927788391,-0.0013807927785382,0.0013807927640484,-5.6811682089168e-13,-2.4817688895463e-13,2.3557427395587e-14,2.0664006964066e-13,-0.0014076414425839,0.0014076414420559,-0.0014320796192298,0.0014320796187571,-0.0014320796190911,0.0014320796189702,-0.0014320796188891,0.0014320796190349,-0.001432079619021,0.0014320796190008,-0.0013807927715816,0.0013807927705342,-0.0013807927702256,0.0013807927695837,-0.0013807927726416,0.0013807927692366,-0.0013807927717688,0.001380792768562,-7.1724540629223e-12,7.1783384419821e-12,-0.0014076414423177,0.0014076414422702,4.5568549088575e-14,-1.4165458431439e-13,-0.0014320796215432,0.0014320796167981,-0.0014320796214572,0.0014320796164026,-0.0014320796167454,0.0014320796217295,-0.0014320796165081,0.0014320796214229,-0.0013807927622329,0.0013807927770976,-0.0013807927768025,0.0013807927624426,0.0038968864431046,0.0036431678740188,0.74304622729109,0.63706424169365,1368840,32768,0.0058479927002301,0.0058479927003722,0.0058479927002648,37.658391170634,37.668188541172,0.00021646712936507,0.00021646712936507,0.00021646712936507,232803.74588417,0.017698973418268
37497600,0.99999958609669,0.016915047012205,0.005638349004063,0.0056383490041221,0.0056383490040198,-0.001407608350452,0.0014076083500597,6.6872127690637e-12,-7.1568770093788e-12,-4.7144618587793e-14,-3.0948654539848e-13,-0.0014321991438504,0.0014321991481475,-0.0014321991484468,0.0014321991435152,-0.0014321991446781,0.0014321991486748,-0.0014321991492655,0.0014321991440406,-0.001380619450692,0.0013806194636714,-0.0013806194644454,0.0013806194495347,-6.5176779482361e-13,-3.6794540657922e-13,-4.2697313273447e-14,1.5725069609918e-13,-0.0014076083506012,0.0014076083499607,-0.0014321991463724,0.0014321991464169,-0.0014321991465146,0.0014321991464269,-0.0014321991461618,0.0014321991465541,-0.0014321991462699,0.0014321991465203,-0.0013806194580217,0.0013806194562625,-0.0013806194553322,0.0013806194546455,-0.0013806194581951,0.00138061945401,-0.0013806194569652,0.0013806194543283,-7.2174905694409e-12,7.1130987291282e-12,-0.0014076083503022,0.0014076083501989,5.8192781074013e-14,-1.4580075176947e-13,-0.0014321991490074,0.0014321991443379,-0.0014321991489839,0.0014321991439659,-0.0014321991442277,0.0014321991492881,-0.0014321991442241,0.001432199148645,-0.0013806194481579,0.0013806194623958,-0.0013806194617415,0.001380619447709,0.0038967574320203,0.0036431540373502,0.73870638601712,0.58517435017954,1368840,32768,0.0058478553860182,0.0058478553861221,0.0058478553859962,37.801029445787,37.810832139907,0.00021760823556629,0.00021760823556629,0.00021760823556629,241395.17562711,0.017698555017372
37584000,0.99999961042659,0.016915047404332,0.0056383491347719,0.0056383491348311,0.0056383491347288,-0.0014077452018261,0.0014077452014119,6.6479482038633e-12,-7.1426365620618e-12,-7.3473931892403e-14,-3.3622678732597e-13,-0.0014324080127596,0.0014324080169922,-0.0014324080172981,0.0014324080122954,-0.0014324080133572,0.0014324080174558,-0.0014324080182482,0.0014324080128518,-0.0013806915053892,0.001380691518906,-0.0013806915191816,0.0013806915043701,-7.1323518174302e-13,-4.2795563213155e-13,-1.2220182564164e-13,1.0042157924851e-13,-0.0014077452020128,0.0014077452012613,-0.0014324080150332,0.0014324080149316,-0.0014324080152323,0.0014324080152189,-0.0014324080150126,0.0014324080150772,-0.0014324080149866,0.0014324080151847,-0.0013806915127241,0.001380691510881,-0.0013806915107385,0.0013806915096776,-0.0013806915131114,0.0013806915092601,-0.0013806915121409,0.0013806915091898,-7.1263592357935e-12,7.1508542816043e-12,-0.0014077452016264,0.0014077452015948,9.5563198256949e-14,-1.3126763692262e-13,-0.0014324080174558,0.0014324080127807,-0.0014324080176109,0.0014324080126917,-0.0014324080130207,0.0014324080179428,-0.001432408012751,0.001432408017503,-0.001380691502904,0.001380691517497,-0.0013806915171665,0.0013806915030408,0.0038973270231916,0.0036431404715226,0.73474882776706,0.54243370808786,1368840,32768,0.0058484221929253,0.0058484221930003,0.0058484221928907,37.943668114938,37.953475738639,0.0002187493449195,0.0002187493449195,0.0002187493449195,245307.29859923,0.017700285832161
37670400,0.99999963336929,0.016915047772038,0.0056383492573406,0.0056383492573998,0.0056383492572975,-0.0014076936598647,0.0014076936594654,6.6778221147653e-12,-7.1151197556225e-12,-4.8700276945851e-14,-3.3359874996365e-13,-0.0014324214850901,0.0014324214895212,-0.0014324214897332,0.0014324214847074,-0.0014324214857893,0.0014324214898155,-0.0014324214904639,0.0014324214852876,-0.0013805825588924,0.0013805825726801,-0.0013805825730377,0.0013805825582175,-7.2964838621324e-13,-4.227443207453e-13,-1.1438997605299e-13,1.0731116289411e-13,-0.001407693660046,0.0014076936593234,-0.001432421487646,0.0014324214874393,-0.0014324214875099,0.0014324214876286,-0.0014324214875181,0.0014324214876283,-0.0014324214875276,0.0014324214876639,-0.0013805825661068,0.0013805825647798,-0.0013805825643195,0.0013805825635543,-0.0013805825663947,0.0013805825631799,-0.0013805825659027,0.0013805825628886,-7.1301066507243e-12,7.1492156846035e-12,-0.0014076936596567,0.0014076936596575,1.1210051658264e-13,-1.1385372772912e-13,-0.0014324214901184,0.0014324214852997,-0.0014324214900789,0.0014324214850423,-0.0014324214853253,0.001432421490313,-0.0014324214851496,0.001432421489983,-0.0013805825564952,0.0013805825711151,-0.0013805825709469,0.0013805825565017,0.0038971047713708,0.0036431271706412,0.73067326781775,0.49969306599618,1368840,32768,0.0058482086156887,0.0058482086157699,0.0058482086156557,37.979340144599,37.982050903069,0.00021903472115679,0.00021903472115679,0.00021903472115679,248787.08441278,0.017699634026012
37756800,0.9999996548511,0.016915048114362,0.0056383493714487,0.0056383493715079,0.0056383493714056,-0.0014073811379328,0.0014073811375541,6.6931599991446e-12,-7.0947843768544e-12,-5.3961645626414e-14,-2.963864750084e-13,-0.0014321770864887,0.0014321770908759,-0.0014321770911184,0.0014321770862071,-0.0014321770872257,0.0014321770912585,-0.0014321770917943,0.0014321770867392,-0.0013802103230197,0.0013802103370524,-0.0013802103371954,0.0013802103228497,-7.2043654998145e-13,-4.5596030601975e-13,-1.2333234992843e-13,9.0808284692765e-14,-0.0014073811381518,0.0014073811373883,-0.001432177089137,0.0014321770888962,-0.0014321770890398,0.0014321770890372,-0.0014321770890667,0.0014321770890922,-0.0014321770890621,0.0014321770890885,-0.0013802103305561,0.0013802103288933,-0.001380210328702,0.001380210327768,-0.0013802103307365,0.0013802103276218,-0.0013802103302155,0.0013802103273405,-7.150333091644e-12,7.1241849198644e-12,-0.0014073811377573,0.001407381137747,9.8307908525582e-14,-1.1997680537919e-13,-0.0014321770916436,0.0014321770867046,-0.0014321770914494,0.0014321770865509,-0.0014321770867474,0.0014321770917241,-0.0014321770865597,0.0014321770913334,-0.0013802103209095,0.0013802103351365,-0.0013802103355789,0.0013802103210173,0.00389578704414,0.003643114128919,0.72651021780574,0.4569524239045,1368840,32768,0.0058469139593966,0.0058469139595067,0.0058469139594326,37.8822949349,37.875956105864,0.0002182583594792,0.0002182583594792,0.0002182583594792,252447.02428014,0.017695681597809
37843200,0.99999967496266,0.016915048433484,0.0056383494778227,0.0056383494778818,0.0056383494777795,-0.0014070480728517,0.0014070480724261,6.6717128896332e-12,-7.1229302817222e-12,-8.860205797383e-14,-3.1158871647271e-13,-0.001431911387983,0.0014319113924253,-0.0014319113927008,0.0014319113875955,-0.0014319113888322,0.0014319113926431,-0.0014319113933505,0.0014319113882489,-0.0013798177537008,0.0013798177678237,-0.0013798177681546,0.0013798177534638,-6.8196160771747e-13,-4.3686871278423e-13,-1.1782084183063e-13,9.5558492518353e-14,-0.0014070480730327,0.0014070480723019,-0.0014319113905753,0.0014319113903334,-0.0014319113903623,0.0014319113905618,-0.0014319113905643,0.0014319113905921,-0.001431911390409,0.0014319113905058,-0.0013798177614163,0.0013798177599514,-0.0013798177595799,0.0013798177586611,-0.0013798177615373,0.0013798177583668,-0.0013798177611258,0.0013798177581212,-7.1887366831465e-12,7.0919875799417e-12,-0.0014070480726595,0.0014070480725833,6.0332098072288e-14,-1.5698493951197e-13,-0.0014319113930035,0.0014319113881604,-0.0014319113928875,0.0014319113879435,-0.0014319113882022,0.0014319113931874,-0.0014319113880569,0.0014319113927823,-0.0013798177517115,0.0013798177661572,-0.0013798177663893,0.0013798177517227,0.003894382195239,0.0036431013416885,0.7234418892979,0.43132005729132,1368840,32768,0.0058455342109138,0.0058455342110313,0.0058455342108414,37.777057005622,37.769861308659,0.00021741645604498,0.00021741645604498,0.00021741645604498,256195.650047,0.017691469353448
37929600,0.99999969379696,0.016915048734297,0.0056383495780936,0.0056383495781528,0.0056383495780505,-0.0014067603703321,0.0014067603699627,6.7018697330682e-12,-7.0833812546237e-12,-5.8082755023468e-14,-3.0275210407221e-13,-0.001431668205118,0.0014316682095521,-0.0014316682097515,0.0014316682047671,-0.0014316682058323,0.0014316682098322,-0.0014316682104082,0.0014316682053334,-0.0013794918025274,0.0013794918165049,-0.0013794918167732,0.001379491802067,-7.1008780730491e-13,-4.4333475054533e-13,-1.2498676997527e-13,1.0095491589662e-13,-0.0014067603705333,0.0014067603697949,-0.0014316682076805,0.0014316682074238,-0.0014316682075368,0.0014316682076768,-0.0014316682075696,0.0014316682076572,-0.0014316682075443,0.0014316682076534,-0.0013794918099917,0.0013794918084651,-0.001379491808209,0.0013794918072015,-0.0013794918101842,0.0013794918070315,-0.0013794918097754,0.0013794918068108,-7.1398319418587e-12,7.1317882758224e-12,-0.0014067603701526,0.001406760370129,9.6662282327744e-14,-1.333200448112e-13,-0.0014316682101627,0.0014316682053702,-0.0014316682100774,0.0014316682050788,-0.001431668205295,0.0014316682103397,-0.0014316682052268,0.0014316682099258,-0.0013794918002832,0.0013794918148342,-0.0013794918148452,0.0013794918003123,0.0038931646219005,0.0036430888051124,0.72823084304736,0.52548026821167,1368840,32768,0.0058443424050397,0.0058443424051088,0.0058443424050125,37.671046816038,37.663766511454,0.0002165683745283,0.0002165683745283,0.0002165683745283,258590.13772436,0.017687830805538
38016000,0.99999971144103,0.016915049016694,0.0056383496722258,0.005638349672285,0.0056383496721827,-0.0014068205764661,0.001406820576088,6.6992895765961e-12,-7.0697917285979e-12,-6.340847467933e-14,-3.1403264181247e-13,-0.001431599115584,0.0014315991200071,-0.0014315991201528,0.0014315991152097,-0.0014315991162885,0.0014315991202779,-0.0014315991209076,0.0014315991157438,-0.0013796740834444,0.0013796740974257,-0.0013796740978641,0.0013796740830884,-6.731316715836e-13,-4.0068964155944e-13,-9.1210125357985e-14,1.4066282049445e-13,-0.0014068205766292,0.0014068205759607,-0.0014315991180994,0.0014315991179299,-0.0014315991179154,0.0014315991181985,-0.0014315991178974,0.0014315991181461,-0.0014315991178937,0.001431599118087,-0.0013796740909769,0.0013796740895922,-0.0013796740891563,0.0013796740883499,-0.0013796740911886,0.0013796740880909,-0.0013796740907471,0.0013796740879859,-7.1862335243222e-12,7.0691589244002e-12,-0.0014068205763217,0.0014068205762145,5.3822826337836e-14,-1.8176538836862e-13,-0.0014315991206202,0.0014315991157103,-0.0014315991205862,0.0014315991154888,-0.0014315991157338,0.0014315991207804,-0.0014315991157626,0.0014315991203109,-0.0013796740813875,0.0013796740957781,-0.0013796740960522,0.0013796740813169,0.0038933839676646,0.0036430765141329,0.72979381364451,0.56198697248515,1368840,32768,0.0058445920130662,0.0058445920131405,0.0058445920130293,37.564958529066,37.557671714249,0.00021571966823252,0.00021571966823252,0.00021571966823252,250796.30966702,0.01768859214277
38102400,0.99999972797562,0.016915049281509,0.0056383497604978,0.005638349760557,0.0056383497604547,-0.0014067135080058,0.0014067135076316,6.7001216688233e-12,-7.078235117717e-12,-5.1273139523136e-14,-3.1915336773075e-13,-0.0014314407525379,0.0014314407569599,-0.0014314407571507,0.0014314407521871,-0.0014314407532513,0.0014314407572236,-0.0014314407578158,0.001431440752739,-0.001379615660175,0.0013796156742274,-0.001379615674484,0.0013796156597811,-7.1863325212979e-13,-4.2888666251274e-13,-1.1652394027361e-13,1.086185347195e-13,-0.0014067135082008,0.0014067135074697,-0.0014314407550888,0.001431440754841,-0.0014314407549607,0.0014314407550908,-0.0014314407549832,0.0014314407550744,-0.0014314407549587,0.0014314407550686,-0.0013796156676825,0.0013796156661824,-0.0013796156657984,0.0013796156648998,-0.0013796156678282,0.0013796156646809,-0.0013796156674956,0.0013796156645377,-7.1380397024927e-12,7.1267933990007e-12,-0.0014067135078218,0.0014067135078024,9.8711513842775e-14,-1.3049368997793e-13,-0.0014314407575658,0.0014314407527877,-0.0014314407574949,0.0014314407525091,-0.0014314407527127,0.0014314407577489,-0.0014314407526567,0.0014314407573399,-0.0013796156579013,0.0013796156724802,-0.0013796156725628,0.0013796156579699,0.0038929139241664,0.003643064464038,0.73019938112457,0.57718443256635,1368840,32768,0.0058441485727189,0.0058441485727876,0.0058441485726918,37.458862251927,37.451576917044,0.00021487089801542,0.00021487089801542,0.00021487089801542,247776.79735423,0.017687238006102
38188800,0.99999974347572,0.016915049529887,0.0056383498432904,0.0056383498433495,0.0056383498432472,-0.0014065488974321,0.0014065488970555,6.6956679225293e-12,-7.0899834646954e-12,-3.779061022868e-14,-3.242142131254e-13,-0.0014312557906031,0.0014312557950252,-0.0014312557952315,0.0014312557902766,-0.0014312557913123,0.0014312557953168,-0.0014312557959088,0.0014312557908124,-0.0013794712047718,0.001379471218751,-0.001379471218989,0.0013794712041738,-7.1381745807252e-13,-4.0548208338892e-13,-1.1119427956167e-13,1.203592348727e-13,-0.0014065488976191,0.0014065488968989,-0.0014312557931591,0.0014312557928933,-0.0014312557930301,0.0014312557931495,-0.0014312557930532,0.001431255793148,-0.0014312557930158,0.0014312557931429,-0.0013794712122415,0.0013794712107316,-0.00137947121036,0.0013794712094647,-0.0013794712123747,0.0013794712092457,-0.0013794712119792,0.0013794712090414,-7.1241620087997e-12,7.147989898521e-12,-0.0014065488972449,0.0014065488972267,9.6873040595106e-14,-1.3876620196425e-13,-0.0014312557956458,0.001431255790861,-0.0014312557955611,0.0014312557905592,-0.0014312557907651,0.0014312557958121,-0.0014312557907063,0.0014312557954089,-0.0013794712024591,0.0013794712171457,-0.0013794712170316,0.0013794712025301,0.0038922072453241,0.0036430526502859,0.73055188525816,0.59029928701811,1368840,32768,0.0058434667255171,0.0058434667255804,0.0058434667254844,37.352765137375,37.345482119839,0.000214022121099,0.000214022121099,0.000214022121099,246439.14085459,0.017685156167736
38275200,0.99999975801088,0.01691504976294,0.0056383499209747,0.0056383499210338,0.0056383499209315,-0.0014063786901861,0.0014063786898029,6.6935617515772e-12,-7.0956534091296e-12,-3.4432595166677e-14,-3.4003208284151e-13,-0.0014310679594188,0.001431067963843,-0.0014310679640572,0.001431067959057,-0.0014310679601535,0.0014310679641259,-0.0014310679647181,0.0014310679596238,-0.0013793184029639,0.001379318416892,-0.0013793184171526,0.0013793184023247,-7.26669006643e-13,-3.9909957248789e-13,-1.0741074808714e-13,1.13206071044e-13,-0.0014063786903691,0.0014063786896539,-0.0014310679619793,0.0014310679617161,-0.0014310679618567,0.0014310679619778,-0.0014310679618574,0.0014310679619656,-0.0014310679618279,0.0014310679619724,-0.0013793184103506,0.0013793184089036,-0.0013793184085292,0.0013793184076166,-0.0013793184105806,0.0013793184074026,-0.0013793184101675,0.0013793184071732,-7.1302143533164e-12,7.1454682402619e-12,-0.0014063786899947,0.0014063786899807,9.719953062106e-14,-1.2760942514907e-13,-0.0014310679644565,0.0014310679596741,-0.0014310679643717,0.0014310679593813,-0.0014310679595859,0.0014310679646358,-0.0014310679595286,0.0014310679642279,-0.0013793184006571,0.0013793184153376,-0.0013793184152142,0.0013793184007316,0.0038914778541099,0.0036430410684201,0.73097098192859,0.60341414146987,1368840,32768,0.0058427616887039,0.0058427616887743,0.0058427616886759,37.246667917876,37.239387322635,0.00021317334334301,0.00021317334334301,0.00021317334334301,245257.03499932,0.017683003553864
38361600,0.99999977168658,0.016915049983647,0.0056383499945438,0.0056383499946029,0.0056383499945006,-0.0014063176621566,0.0014063176617415,6.6762632800337e-12,-7.0988014894285e-12,-5.0371637651634e-14,-3.6873197078552e-13,-0.0014309879598292,0.0014309879642504,-0.0014309879644858,0.0014309879594691,-0.0014309879605557,0.0014309879645039,-0.0014309879651812,0.0014309879600505,-0.0013792754522163,0.0013792754658061,-0.0013792754662583,0.0013792754515196,-7.3372796746718e-13,-3.9354997731834e-13,-9.9726306370972e-14,1.091944583019e-13,-0.0014063176623258,0.0014063176616138,-0.0014309879623625,0.0014309879621468,-0.001430987962284,0.0014309879624272,-0.0014309879622534,0.0014309879623921,-0.001430987962255,0.0014309879624017,-0.0013792754594393,0.001379275457974,-0.0013792754575806,0.0013792754566279,-0.0013792754598668,0.0013792754563853,-0.0013792754591868,0.0013792754562361,-7.1441883381855e-12,7.1174670368559e-12,-0.0014063176619637,0.0014063176619339,9.3512643252938e-14,-1.1927088576808e-13,-0.0014309879649038,0.0014309879601103,-0.0014309879647651,0.0014309879597953,-0.0014309879600212,0.0014309879650309,-0.0014309879599166,0.0014309879646355,-0.0013792754499849,0.0013792754644221,-0.0013792754642278,0.0013792754499233,0.0038912067998543,0.0036430297146114,0.73575587803916,0.68645999815632,1368840,32768,0.0058425089173487,0.0058425089174347,0.0058425089173479,37.197141757423,37.1936084,0.00021277713405938,0.00021277713405938,0.00021277713405938,244039.11370433,0.017682231716538
38448000,0.99999978458724,0.016915050194071,0.0056383500646851,0.0056383500647442,0.0056383500646419,-0.0014065194040494,0.0014065194036588,6.6817050549677e-12,-7.0771207988175e-12,-3.2112783682384e-14,-3.5118774204378e-13,-0.001431084287755,0.0014310842921759,-0.0014310842923771,0.0014310842874095,-0.0014310842884954,0.0014310842924407,-0.001431084293059,0.0014310842879491,-0.001379574870288,0.0013795748842093,-0.0013795748845431,0.0013795748697849,-7.2725742984355e-13,-3.8626202348973e-13,-1.0186106468498e-13,1.1857443645589e-13,-0.0014065194042234,0.0014065194035187,-0.0014310842903085,0.0014310842900565,-0.0014310842901736,0.001431084290307,-0.0014310842901781,0.0014310842903155,-0.0014310842901492,0.0014310842903132,-0.0013795748777448,0.0013795748762665,-0.0013795748758732,0.0013795748749526,-0.0013795748779344,0.0013795748747612,-0.0013795748774818,0.0013795748745555,-7.1287097522222e-12,7.1165171835203e-12,-0.0014065194038579,0.0014065194038373,9.8563812472597e-14,-1.2593100583539e-13,-0.00143108429279,0.0014310842880123,-0.0014310842927022,0.001431084287722,-0.0014310842879346,0.0014310842929675,-0.0014310842878614,0.0014310842925567,-0.0013795748680355,0.0013795748825787,-0.001379574882585,0.0013795748680565,0.003892026068384,0.0036430185848699,0.74362258929087,0.79944244,1368840,32768,0.0058433447736061,0.0058433447736763,0.0058433447735794,37.193945945686,37.1936084,0.00021275156756548,0.00021275156756548,0.00021275156756548,237852.65164413,0.017684783045688
38534400,0.99999979675875,0.016915050393218,0.0056383501310673,0.0056383501311264,0.0056383501310242,-0.0014067857570085,0.0014067857566169,6.6788483775313e-12,-7.0768457483966e-12,-3.044165826353e-14,-3.5646899246991e-13,-0.0014312160946154,0.0014312160990387,-0.0014312160992387,0.0014312160942752,-0.0014312160953585,0.0014312160993002,-0.0014312160999228,0.0014312160948114,-0.0013799630910159,0.0013799631049303,-0.0013799631052251,0.0013799630904758,-7.272161075765e-13,-3.7927500164434e-13,-9.6794837101816e-14,1.2018721071615e-13,-0.0014067857571789,0.0014067857564804,-0.0014312160971718,0.0014312160969219,-0.0014312160970351,0.0014312160971743,-0.001431216097036,0.0014312160971822,-0.0014312160970093,0.0014312160971806,-0.0013799630984341,0.0013799630969745,-0.0013799630965754,0.0013799630956672,-0.0013799630986491,0.0013799630954726,-0.0013799630981979,0.0013799630953256,-7.1192687465208e-12,7.1228462842883e-12,-0.0014067857568139,0.001406785756799,9.9331377259314e-14,-1.2170642901096e-13,-0.0014312160996535,0.0014312160948733,-0.0014312160995655,0.001431216094586,-0.0014312160947973,0.0014312160998311,-0.0014312160947223,0.0014312160994212,-0.0013799630887266,0.0013799631033066,-0.0013799631032738,0.0013799630887927,0.0038931144644916,0.0036430076744533,0.74587014715296,0.79944244,1368840,32768,0.0058444482967948,0.0058444482968649,0.0058444482967689,37.193642550212,37.1936084,0.00021274914040169,0.00021274914040169,0.00021274914040169,229908.47291897,0.017688151499662
38620800,0.99999980824252,0.016915050581619,0.0056383501938678,0.0056383501939269,0.0056383501938246,-0.001406796768814,0.0014067967684201,6.6768122044409e-12,-7.0772564417325e-12,-2.7801974198184e-14,-3.6119302462456e-13,-0.0014312177795018,0.001431217783925,-0.0014312177841246,0.001431217779162,-0.0014312177802467,0.0014312177841827,-0.0014312177848106,0.0014312177796944,-0.0013799780933488,0.0013799781072565,-0.0013799781075585,0.0013799780928037,-7.3016631156744e-13,-3.7486031298063e-13,-9.4946805322624e-14,1.1847532183671e-13,-0.001406796768982,0.001406796768285,-0.0014312177820241,0.0014312177817749,-0.0014312177818878,0.0014312177820266,-0.0014312177818854,0.0014312177820379,-0.0014312177818593,0.0014312177820354,-0.0013799781007854,0.0013799780993314,-0.0013799780989318,0.0013799780980233,-0.0013799781010582,0.0013799780978778,-0.001379978100601,0.0013799780977333,-7.1179857268926e-12,7.1225362643474e-12,-0.0014067967686173,0.0014067967686033,9.7460610880531e-14,-1.2003371540533e-13,-0.0014312177845062,0.0014312177797266,-0.0014312177844167,0.0014312177794405,-0.0014312177796511,0.0014312177846839,-0.0014312177795744,0.0014312177842753,-0.0013799780911284,0.0013799781057092,-0.0013799781056741,0.0013799780911946,0.0038931540401643,0.0036429969790923,0.74780414527004,0.79944244,1368840,32768,0.0058444938700289,0.0058444938700968,0.0058444938700009,37.193611904288,37.1936084,0.00021274889523431,0.00021274889523431,0.00021274889523431,229066.01818289,0.017688290779585
38707200,0.99999981907742,0.016915050759776,0.0056383502532532,0.0056383502533124,0.0056383502532101,-0.001406805639659,0.0014068056392633,6.6748598523192e-12,-7.0769943909145e-12,-2.639272313219e-14,-3.6448063007282e-13,-0.001431219179503,0.0014312191839249,-0.0014312191841249,0.0014312191791633,-0.0014312191802501,0.0014312191841811,-0.0014312191848129,0.0014312191796938,-0.0013799898473134,0.0013799898612165,-0.0013799898615212,0.0013799898467658,-7.3145715448602e-13,-3.7145500524574e-13,-9.2587612688457e-14,1.1791607421546e-13,-0.0014068056398252,0.0014068056391304,-0.0014312191820362,0.0014312191817885,-0.0014312191819014,0.0014312191820387,-0.0014312191818961,0.0014312191820533,-0.0014312191818712,0.0014312191820497,-0.0013799898547349,0.0013799898532889,-0.0013799898528851,0.001379989851975,-0.0013799898549964,0.0013799898518106,-0.0013799898545337,0.0013799898516708,-7.1162735439045e-12,7.1220593671516e-12,-0.001406805639461,0.0014068056394482,9.6968920018997e-14,-1.1761873035794e-13,-0.0014312191845185,0.0014312191797403,-0.0014312191844286,0.0014312191794548,-0.0014312191796638,0.0014312191846963,-0.0014312191795869,0.0014312191842887,-0.0013799898450629,0.0013799898596437,-0.0013799898596074,0.0013799898451325,0.0038931841090723,0.0036429864945946,0.74948450344186,0.79944244,1368840,32768,0.0058445305819562,0.0058445305820251,0.0058445305819293,37.193608761607,37.1936084,0.00021274887009285,0.00021274887009285,0.00021274887009285,228341.12371075,0.017688402980183
38793600,0.99999982930011,0.016915050928197,0.0056383503093936,0.0056383503094527,0.0056383503093504,-0.0014068127274775,0.001406812727084,6.6749556140996e-12,-7.0759388349257e-12,-2.3149057518065e-14,-3.6360071577713e-13,-0.0014312205681299,0.001431220572552,-0.0014312205727559,0.0014312205677991,-0.0014312205688774,0.0014312205728116,-0.0014312205734419,0.0014312205683395,-0.0013799986453077,0.0013799986592139,-0.0013799986594992,0.0013799986447611,-7.3297284347688e-13,-3.7057797321494e-13,-9.3925483582126e-14,1.1730068125059e-13,-0.0014068127276447,0.0014068127269475,-0.0014312205705718,0.0014312205703236,-0.0014312205704374,0.0014312205705773,-0.0014312205704334,0.0014312205705888,-0.0014312205704146,0.0014312205705799,-0.0013799986528004,0.001379998651364,-0.0013799986509651,0.001379998650043,-0.0013799986531599,0.0013799986499923,-0.0013799986526847,0.0013799986498512,-7.1171941040173e-12,7.1201941006048e-12,-0.0014068127272794,0.0014068127272635,9.5963950720119e-14,-1.193622065077e-13,-0.0014312205730555,0.0014312205682706,-0.0014312205729572,0.0014312205679769,-0.0014312205682001,0.0014312205732311,-0.0014312205681203,0.0014312205728247,-0.0013799986432353,0.0013799986578095,-0.0013799986577786,0.0013799986433052,0.0038932063232373,0.0036429762168569,0.75095686986934,0.79944244,1368840,32768,0.0058445599140951,0.0058445599141587,0.0058445599140566,37.193608438002,37.1936084,0.00021274886750402,0.00021274886750402,0.00021274886750402,227712.60810187,0.017688492629882
38880000,0.99999983894519,0.016915051087377,0.0056383503624538,0.0056383503625129,0.0056383503624106,-0.0014068183552012,0.0014068183548001,6.6709258548531e-12,-7.0789401550021e-12,-2.678724049172e-14,-3.6917689836976e-13,-0.0014312214447752,0.0014312214491951,-0.0014312214494077,0.0014312214444403,-0.0014312214455275,0.0014312214494678,-0.0014312214500968,0.0014312214449751,-0.0013800055712242,0.0013800055851316,-0.0013800055854206,0.0013800055706673,-7.3196063910491e-13,-3.6760653457859e-13,-9.2816164529885e-14,1.1753467410227e-13,-0.0014068183553647,0.0014068183546705,-0.001431221447233,0.0014312214469698,-0.0014312214470856,0.0014312214472345,-0.001431221447084,0.0014312214472403,-0.0014312214470585,0.0014312214472303,-0.0013800055787061,0.0013800055772629,-0.0013800055768663,0.0013800055759368,-0.0013800055790353,0.001380005575873,-0.0013800055785855,0.0013800055757199,-7.1120388497421e-12,7.124336268182e-12,-0.0014068183549978,0.0014068183549905,1.005104882971e-13,-1.1392675490996e-13,-0.0014312214497137,0.0014312214449277,-0.0014312214496076,0.0014312214446423,-0.0014312214448524,0.0014312214498915,-0.0014312214447732,0.0014312214494816,-0.0013800055691269,0.0013800055837083,-0.0013800055836679,0.001380005569209,0.0038932221393809,0.0036429661418553,0.75225768047486,0.79944244,1368840,32768,0.0058445832024426,0.0058445832025128,0.0058445832024158,37.193608404632,37.1936084,0.00021274886723706,0.00021274886723706,0.00021274886723706,227155.78773206,0.017688563811228
