time,ASR_ext,ASR_strain,ASR_strain_xx,ASR_strain_yy,ASR_strain_zz,disp_x_101,disp_x_102,disp_x_103,disp_x_104,disp_x_105,disp_x_106,disp_x_p1_neg,disp_x_p1_pos,disp_x_p2_neg,disp_x_p2_pos,disp_x_p3_neg,disp_x_p3_pos,disp_x_p4_neg,disp_x_p4_pos,disp_x_p5_neg,disp_x_p5_pos,disp_x_p6_neg,disp_x_p6_pos,disp_y_101,disp_y_102,disp_y_103,disp_y_104,disp_y_105,disp_y_106,disp_y_p1_neg,disp_y_p1_pos,disp_y_p2_neg,disp_y_p2_pos,disp_y_p3_neg,disp_y_p3_pos,disp_y_p4_neg,disp_y_p4_pos,disp_y_p5_neg,disp_y_p5_pos,disp_y_p6_neg,disp_y_p6_pos,disp_y_p7_neg,disp_y_p7_pos,disp_y_p8_neg,disp_y_p8_pos,disp_z_101,disp_z_102,disp_z_103,disp_z_104,disp_z_105,disp_z_106,disp_z_p1_neg,disp_z_p1_pos,disp_z_p2_neg,disp_z_p2_pos,disp_z_p3_neg,disp_z_p3_pos,disp_z_p4_neg,disp_z_p4_pos,disp_z_p5_neg,disp_z_p5_pos,disp_z_p6_neg,disp_z_p6_pos,error,error_ASR,humidity,humidity_bc,ndof,nelem,strain_xx,strain_yy,strain_zz,temp,temp_bc,thermal_strain_xx,thermal_strain_yy,thermal_strain_zz,vonmises,vstrain
14391759,0,0,0,0,0,0,0,0,0,0,0,0,0,0,0,0,0,0,0,0,0,0,0,0,0,0,0,0,0,0,0,0,0,0,0,0,0,0,0,0,0,0,0,0,0,0,0,0,0,0,0,0,0,0,0,0,0,0,0,0,0,0,0,0,0,0,0,0,0,0,0,0,0,0,0,0,0,0,0
14478159,0.010574647094314,0.00017721594486956,5.9071981623187e-05,5.9071981623187e-05,5.9071981623187e-05,-5.3464830753946e-05,5.3464831119099e-05,1.1643970641307e-11,-1.1263803725734e-11,-2.535873578597e-13,6.4271464124418e-13,-5.2768260846934e-05,5.2768269472986e-05,-5.2768269495082e-05,5.2768260861472e-05,-5.2768262425137e-05,5.2768271690765e-05,-5.2768271016739e-05,5.2768263099126e-05,-5.3688522518582e-05,5.3688538863576e-05,-5.3688538138297e-05,5.3688523141482e-05,1.8153429239536e-12,9.2170025445461e-13,1.7353572286749e-12,1.4225146883733e-12,-5.3464830636751e-05,5.3464831238155e-05,-5.276826605045e-05,5.2768265752235e-05,-5.2768266492146e-05,5.2768266022268e-05,-5.2768266723198e-05,5.276826581493e-05,-5.2768266499149e-05,5.2768265317899e-05,-5.3688525848941e-05,5.3688534705158e-05,-5.3688532427558e-05,5.3688540943861e-05,-5.3688526348385e-05,5.3688541570708e-05,-5.3688526286053e-05,5.3688540026837e-05,-1.1335451149087e-11,1.1415402540266e-11,-5.3464830913002e-05,5.3464830990354e-05,-1.0855333910089e-13,2.0302946946407e-13,-5.2768270937114e-05,5.2768261352371e-05,-5.276827073377e-05,5.2768261400931e-05,-5.2768261362764e-05,5.2768270864582e-05,-5.2768261211145e-05,5.2768270906012e-05,-5.3688528851456e-05,5.3688545269524e-05,-5.3688545013697e-05,5.3688529095178e-05,0.0016260160320288,0.0017893777496463,0.76591249307596,0.34651472743358,1368840,32768,0.00022274525806259,0.00022274525806647,0.00022274525812572,31.059522518801,32.387220370366,0.00016367618015041,0.00016367618015041,0.00016367618015041,260805.15500524,0.00066845930187322
14564559,0.022216151302355,0.00037213236803304,0.00012404412266977,0.00012404412268087,0.00012404412268239,-7.0577616780432e-05,7.0577619568791e-05,8.8055996015942e-11,-8.5277621253678e-11,-2.3695028706667e-12,5.2164413986489e-12,-7.0677748458748e-05,7.0677806644927e-05,-7.0677806396029e-05,7.067774870958e-05,-7.0677746360969e-05,7.0677809616458e-05,-7.0677804325544e-05,7.0677751649079e-05,-6.9992808532163e-05,6.9992982994629e-05,-6.9992977649268e-05,6.9992813822795e-05,2.6573695342583e-12,-4.9330276743907e-12,-3.6764730723007e-13,-6.6292205517156e-13,-7.0577619249674e-05,7.0577617104402e-05,-7.0677777658603e-05,7.0677777834747e-05,-7.0677777840676e-05,7.0677777791301e-05,-7.0677780238092e-05,7.0677775344274e-05,-7.0677780250408e-05,7.067777518947e-05,-6.9992897291949e-05,6.9992895086392e-05,-6.9992897393117e-05,6.9992894839476e-05,-6.9992893346148e-05,6.9992898630743e-05,-6.9992900430814e-05,6.9992891236611e-05,-8.656912031765e-11,8.6680790648846e-11,-7.0577618135973e-05,7.0577618242108e-05,-9.7170138136627e-14,1.9811813696514e-13,-7.0677806954682e-05,7.0677749065425e-05,-7.0677806758754e-05,7.0677749072901e-05,-7.0677749060104e-05,7.0677806963433e-05,-7.0677748868848e-05,7.0677806966456e-05,-6.9992811462731e-05,6.9992980861198e-05,-6.9992980626492e-05,6.9992811692577e-05,0.001557698848044,0.0017274432532086,0.76406758874761,0.35691983141528,1368840,32768,0.00029403009002766,0.00029403009003777,0.00029403009008777,31.927998985887,32.029260691481,0.0001706239918871,0.0001706239918871,0.0001706239918871,264280.53177024,0.00088247966974855
14650959,0.033826665843706,0.0005660793996141,0.00018869313320675,0.00018869313321773,0.00018869313318961,-8.5556585729273e-05,8.5556588317683e-05,8.7511320835542e-11,-8.4939436290879e-11,-2.3213152802645e-12,4.9663733909961e-12,-8.6049549491681e-05,8.604960730967e-05,-8.6049607044977e-05,8.6049549725112e-05,-8.604954719238e-05,8.604960975833e-05,-8.604960480186e-05,8.6049552169438e-05,-8.4437676053679e-05,8.4437849749745e-05,-8.4437844736982e-05,8.4437681147178e-05,2.4503665510721e-12,-4.8408458103363e-12,-7.264754261597e-13,-1.0173085064823e-12,-8.5556588193998e-05,8.5556585865806e-05,-8.6049578348396e-05,8.6049578536898e-05,-8.6049578458984e-05,8.604957847424e-05,-8.6049580750915e-05,8.6049576188739e-05,-8.6049580793845e-05,8.6049575944603e-05,-8.4437764980683e-05,8.4437761294571e-05,-8.4437765280513e-05,8.4437760857753e-05,-8.443776071309e-05,8.4437765375377e-05,-8.4437767751007e-05,8.443775801208e-05,-8.6180998332599e-11,8.6208270624449e-11,-8.5556587026769e-05,8.5556587049172e-05,-1.3851542286068e-13,1.5248118555445e-13,-8.6049607195664e-05,8.6049549770302e-05,-8.6049607035448e-05,8.6049549819089e-05,-8.6049549801429e-05,8.604960712022e-05,-8.6049549768445e-05,8.6049607151933e-05,-8.4437678673651e-05,8.4437847566395e-05,-8.4437847494957e-05,8.4437678779177e-05,0.0014982207925431,0.0016658119950439,0.76268502796983,0.36732493539697,1368840,32768,0.00035642205726771,0.00035642205729446,0.00035642205732808,31.682994247638,31.671301012596,0.00016866395398111,0.00016866395398111,0.00016866395398111,370120.69207208,0.0010698386657392
14737359,0.045288135163899,0.00075696282100104,0.00025232094033326,0.00025232094034336,0.00025232094032442,-0.00010010693913128,0.00010010694152411,8.6738746742297e-11,-8.4345214451301e-11,-2.2106325144882e-12,4.693372117027e-12,-0.00010099784262964,0.00010099789976335,-0.00010099789968205,0.00010099784270489,-0.0001009978403362,0.00010099790200778,-0.00010099789737636,0.00010099784498347,-9.8445549550396e-05,9.8445721514566e-05,-9.8445716823171e-05,9.8445554283001e-05,2.1596158597767e-12,-4.7455395637885e-12,-8.5149764358148e-13,-1.1893804207593e-12,-0.00010010694157217,0.00010010693908767,-0.00010099787115764,0.00010099787123298,-0.00010099787127806,0.00010099787119359,-0.00010099787341666,0.00010099786898601,-0.00010099787352238,0.000100997868808,-9.8445637521644e-05,9.8445633828324e-05,-9.8445637902328e-05,9.8445633337391e-05,-9.8445633591495e-05,9.8445637860548e-05,-9.8445640182519e-05,9.8445630776343e-05,-8.5471601176989e-11,8.5588395439887e-11,-0.00010010694028175,0.00010010694039527,-1.1454923956995e-13,2.2290858735449e-13,-0.0001009978996595,0.00010099784279618,-0.00010099789948809,0.00010099784283273,-0.00010099784280392,0.00010099789965921,-0.00010099784265187,0.00010099789970268,-9.8445551929392e-05,9.8445719415616e-05,-9.844571923723e-05,9.8445552150631e-05,0.0014404847656605,0.001605185042377,0.76163519431817,0.37773003937866,1368840,32768,0.00041702492398719,0.00041702492399649,0.00041702492403228,31.336204284806,31.313341333711,0.00016588963427845,0.00016588963427845,0.00016588963427845,481602.85458875,0.0012518589120317
14823759,0.056585119172561,0.00094459064668051,0.00031486354889049,0.00031486354889935,0.00031486354889067,-0.00011438644410203,0.00011438644658601,8.632240412672e-11,-8.384538305169e-11,-1.9882027617704e-12,4.5404532077124e-12,-0.00011569824596379,0.00011569830300843,-0.00011569830269712,0.00011569824629448,-0.00011569824366954,0.00011569830487571,-0.00011569830027025,0.00011569824829528,-0.00011216543333265,0.00011216560433441,-0.00011216559970886,0.00011216543794971,1.7395004164416e-12,-4.785201833751e-12,-1.0851360538825e-12,-1.4289936430192e-12,-0.00011438644681431,0.000114386443879,-0.00011569827460528,0.00011569827427415,-0.00011569827459398,0.00011569827419588,-0.00011569827660046,0.00011569827215111,-0.00011569827680268,0.00011569827196251,-0.00011216552097,0.00011216551692196,-0.00011216552139235,0.00011216551643384,-0.00011216551719034,0.00011216552076608,-0.00011216552355151,0.00011216551403244,-8.5018159790342e-11,8.5146643194306e-11,-0.00011438644529808,0.00011438644542549,-1.1262206866429e-13,2.3077095562042e-13,-0.00011569830265028,0.00011569824614029,-0.00011569830244652,0.00011569824615984,-0.00011569824610988,0.00011569830267559,-0.00011569824592542,0.00011569830270162,-0.00011216543566836,0.00011216560239074,-0.00011216560209848,0.0001121654358944,0.0013838378215952,0.0015456292401238,0.76082644447706,0.38813514336033,1368840,32768,0.00047649606700641,0.00047649606701738,0.00047649606708041,30.979347245647,30.955381654826,0.00016303477796517,0.00016303477796517,0.00016303477796517,584428.6354809,0.0014305124304057
14910159,0.067713452346676,0.0011289832873324,0.00037632776243839,0.00037632776244895,0.00037632776244503,-0.00012841362295314,0.00012841362552408,8.5729769429832e-11,-8.3167400487856e-11,-1.79858026049e-12,4.4365039604964e-12,-0.00013017123680597,0.00013017129367379,-0.00013017129318175,0.00013017123730963,-0.00013017123573964,0.00013017129578658,-0.00013017129119075,0.00013017124034139,-0.00012561571217663,0.00012561588170031,-0.00012561587695361,0.00012561571678934,1.4755772438193e-12,-4.7485872574482e-12,-1.2686037229682e-12,-1.5977482928276e-12,-0.00012841362580747,0.00012841362267546,-0.00013017126669929,0.00013017126473722,-0.00013017126595002,0.00013017126470232,-0.00013017126787172,0.00013017126273386,-0.00013017126883066,0.00013017126253019,-0.00012561579907648,0.00012561579478197,-0.00012561579967298,0.00012561579467455,-0.000125615795584,0.00012561579864291,-0.00012561580183976,0.00012561579249856,-8.4396752332736e-11,8.455183619981e-11,-0.00012841362423812,0.0001284136243804,-9.7735387412767e-14,2.308697265001e-13,-0.00013017129449034,0.00013017123778742,-0.00013017129413297,0.00013017123765585,-0.00013017123774831,0.00013017129451867,-0.00013017123742729,0.00013017129439254,-0.00012561571461862,0.00012561588005377,-0.00012561587975127,0.00012561571495418,0.0013282062920203,0.001487140356046,0.76019744376715,0.39854024734204,1368840,32768,0.00053491282405983,0.00053491282407173,0.00053491282435401,30.621475776375,30.59742197594,0.000160171806211,0.000160171806211,0.000160171806211,677944.98711585,0.0016060297886331
14996559,0.078475164911926,0.001306835198549,0.00043561173282391,0.00043561173283411,0.000435611732891,-0.00014153620706529,0.00014153620963296,8.4942260778122e-11,-8.2383869126407e-11,-1.5807062252157e-12,4.2091205833731e-12,-0.00014376464881231,0.0001437647051833,-0.00014376470453059,0.00014376464946615,-0.00014376464685047,0.0001437647069758,-0.00014376470253263,0.00014376465130299,-0.00013814727525659,0.00013814744325268,-0.00013814743873825,0.0001381472797122,1.42124577677e-12,-4.3571212752888e-12,-1.0968587343656e-12,-1.4850147735239e-12,-0.00014153620986975,0.00014153620683468,-0.00014376467740247,0.00014376467657408,-0.00014376467750096,0.0001437646764592,-0.00014376467924977,0.00014376467467038,-0.00014376467940779,0.00014376467449983,-0.00013814736124556,0.00013814735742966,-0.0001381473618127,0.00013814735704661,-0.00013814735781499,0.00013814736089477,-0.00013814736361744,0.0001381473550418,-8.3615136137045e-11,8.3793823553267e-11,-0.00014153620830714,0.00014153620847599,-1.1391034732296e-13,2.7329043425306e-13,-0.00014376470488184,0.00014376464926353,-0.00014376470454353,0.00014376464919818,-0.00014376464922074,0.00014376470491353,-0.00014376464891195,0.00014376470484672,-0.00013814727733436,0.00013814744142733,-0.00013814744107681,0.00013814727765358,0.0012763074571925,0.0014308195142533,0.7591987769368,0.40138889727238,1368840,32768,0.0005895592017572,0.00058955920177006,0.00058955920193396,30.061628494138,30.024519210003,0.0001556930279531,0.0001556930279531,0.0001556930279531,763622.09024402,0.0017702468821806
15082959,0.088831808995399,0.0014765644108005,0.00049218813690567,0.00049218813691689,0.00049218813697793,-0.00015390525882258,0.00015390526145388,8.4398482632818e-11,-8.178213459722e-11,-1.450390897436e-12,4.130473405108e-12,-0.00015664750478613,0.00015664756090211,-0.00015664756011147,0.00015664750557304,-0.00015664750296219,0.00015664756256751,-0.00015664755809888,0.00015664750743356,-0.00014986814586079,0.00014986831270288,-0.000149868308193,0.00014986815027367,1.617474590938e-12,-3.9562464187993e-12,-8.5724680434562e-13,-1.1921032401525e-12,-0.00015390526136363,0.00015390525891366,-0.00015664753310773,0.00015664753262141,-0.0001566475330303,0.00015664753254409,-0.00015664753475048,0.00015664753079093,-0.00015664753501601,0.00015664753063129,-0.00014986823100058,0.00014986822776345,-0.00014986823144591,0.00014986822736506,-0.00014986822758598,0.00014986823106686,-0.00014986823324342,0.00014986822547092,-8.3066748059042e-11,8.3216234643065e-11,-0.0001539052601008,0.00015390526025412,-9.3368408688617e-14,2.4051667443952e-13,-0.000156647560654,0.00015664750529981,-0.00015664756034981,0.00015664750520537,-0.00015664750521759,0.00015664756070788,-0.00015664750493407,0.00015664756060515,-0.00014986814784723,0.00014986831085811,-0.00014986831050729,0.00014986814812365,0.0012275291139967,0.0013772259410553,0.75384000141368,0.33983002347562,1368840,32768,0.0006410648042594,0.00064106480426113,0.00064106480442277,29.454549876312,29.414016464343,0.00015083639901049,0.00015083639901049,0.00015083639901049,859101.93060392,0.0019250507258621
15169359,0.098787003869006,0.0016374274489965,0.00054580914963579,0.00054580914964704,0.00054580914971367,-0.0001654430391842,0.00016544304183367,8.3940974454967e-11,-8.1292625816083e-11,-1.308001769385e-12,4.00735471777e-12,-0.00016881702643217,0.00016881708236415,-0.0001688170814494,0.00016881702740183,-0.00016881702473405,0.00016881708396587,-0.0001688170795869,0.00016881702914709,-0.00016061317981002,0.00016061334567639,-0.00016061334120045,0.00016061318384939,1.5770487376848e-12,-3.7306945077848e-12,-7.884891916082e-13,-1.0999334713169e-12,-0.0001654430416338,0.00016544303938443,-0.00016881705464343,0.00016881705421704,-0.00016881705459111,0.00016881705408891,-0.00016881705617132,0.00016881705245982,-0.00016881705639947,0.00016881705231938,-0.00016061326426639,0.00016061326127271,-0.0001606132647691,0.00016061326104467,-0.00016061326127822,0.00016061326453327,-0.00016061326653807,0.00016061325921773,-8.2574908069711e-11,8.2746546146138e-11,-0.00016544304044855,0.00016544304060903,-8.3956030789124e-14,2.2718730590728e-13,-0.00016881708202793,0.00016881702700051,-0.00016881708175385,0.0001688170269474,-0.00016881702691038,0.00016881708209238,-0.00016881702661482,0.0001688170820195,-0.00016061318193749,0.00016061334426287,-0.0001606133436701,0.00016061318225619,0.0011822258885195,0.0013266561851544,0.74445351823407,0.22324247826998,1368840,32768,0.00068910635338309,0.00068910635338384,0.00068910635346576,28.844296835769,28.803513718682,0.00014595437468615,0.00014595437468615,0.00014595437468615,1000829.2450899,0.0020694653819639
15255759,0.10834447105228,0.0017934174294744,0.00059780580979825,0.00059780580980418,0.00059780580987195,-0.00017648595114143,0.00017648595385172,8.3433393505335e-11,-8.0736232328228e-11,-1.1489280701538e-12,3.9196904767347e-12,-0.00018051563985554,0.00018051569552668,-0.00018051569448909,0.00018051564090061,-0.00018051563817662,0.00018051569707045,-0.00018051569271342,0.00018051564254417,-0.00017089992528879,0.00017090009015407,-0.00017090008575758,0.00017089992962006,1.4918347673837e-12,-3.56898738165e-12,-7.7602458709919e-13,-1.0317373524556e-12,-0.00017648595357415,0.00017648595142076,-0.00018051566790145,0.00018051566752497,-0.00018051566785239,0.0001805156674147,-0.00018051566940517,0.00018051566581795,-0.0001805156696081,0.00018051566572946,-0.00017090000932026,0.00017090000626886,-0.00017090000969422,0.00017090000605195,-0.00017090000624536,0.00017090000939295,-0.00017090001128569,0.00017090000432528,-8.205471928465e-11,8.2203177385387e-11,-0.00017648595244996,0.00017648595259308,-6.106320809032e-14,1.9430224434687e-13,-0.00018051569515569,0.00018051564046924,-0.00018051569488514,0.00018051564037279,-0.0001805156403971,0.00018051569521332,-0.0001805156401463,0.00018051569511458,-0.00017089992736065,0.00017090008835447,-0.00017090008805322,0.00017089992758583,0.0011389400345607,0.0012776361774634,0.7533812268239,0.37539255705787,1368840,32768,0.00073508518572093,0.00073508518572456,0.00073508518582477,28.23375405785,28.193010973021,0.00014107003246279,0.00014107003246279,0.00014107003246279,1133127.7111027,0.0022076989477836
15342159,0.1175152524722,0.0019445568744901,0.00064818562480255,0.00064818562480744,0.00064818562488009,-0.00018767050735098,0.00018767051004952,8.3081351848201e-11,-8.0378840981582e-11,-1.0833731683992e-12,3.8214918442826e-12,-0.00019204445041309,0.00019204450588547,-0.00019204450481181,0.00019204445149607,-0.00019204444878133,0.00019204450738572,-0.00019204450308707,0.00019204445309188,-0.00018167031513205,0.00018167047928973,-0.00018167047493333,0.0001816703194519,1.4181071777991e-12,-3.4788723257796e-12,-7.2191317398925e-13,-1.0594749572967e-12,-0.00018767050976437,0.00018767050763713,-0.00019204447835016,0.00019204447798993,-0.00019204447832945,0.000192044477848,-0.00019204447980986,0.00019204447632884,-0.00019204448003711,0.00019204447621463,-0.00018167039871534,0.0001816703958353,-0.00018167039913012,0.00018167039552569,-0.00018167039582629,0.00018167039876344,-0.00018167040072206,0.00018167039390678,-8.1681525494288e-11,8.1862653674182e-11,-0.00018767050863683,0.00018767050881322,-8.2495450408852e-14,2.5444928189616e-13,-0.00019204450549869,0.00019204445105382,-0.00019204450520355,0.00019204445099038,-0.00019204445097618,0.00019204450555723,-0.00019204445070274,0.00019204450549192,-0.00018167031712687,0.00018167047747757,-0.00018167047716767,0.00018167031743701,0.0010949641532508,0.0012301319383388,0.76197610291801,0.52170702859942,1368840,32768,0.00078165180998369,0.00078165180998575,0.00078165181008685,27.623178000551,27.582508227361,0.00013618542400441,0.00013618542400441,0.00013618542400441,1096997.9202023,0.0023477184125352
15428559,0.12632370236624,0.0020910290636559,0.00069700968785719,0.00069700968786066,0.00069700968793806,-0.00019846398860962,0.00019846399117723,8.2861574996056e-11,-8.0313673994448e-11,-1.1531539042927e-12,3.7738562259887e-12,-0.00020312192347737,0.00020312197872094,-0.00020312197790796,0.00020312192450183,-0.00020312192175419,0.00020312198032422,-0.00020312197611183,0.00020312192589395,-0.0001921453785495,0.00019214554240791,-0.00019214553788301,0.00019214538261356,1.4169111959532e-12,-3.4997990835403e-12,-7.4309027336693e-13,-1.0557106421469e-12,-0.00019846399098404,0.00019846398879426,-0.00020312195139857,0.00020312195090834,-0.0002031219512737,0.0002031219507646,-0.00020312195283661,0.00020312194926635,-0.00020312195306548,0.0002031219492485,-0.00019214546209218,0.00019214545902102,-0.00019214546243334,0.00019214545871453,-0.00019214545903282,0.00019214546221837,-0.00019214546397454,0.00019214545724677,-8.1508243787925e-11,8.1746048490066e-11,-0.00019846398980512,0.000198463990011,-8.4492312200213e-14,2.2774606457288e-13,-0.00020312197817223,0.00020312192419308,-0.00020312197816587,0.0002031219240416,-0.00020312192398329,0.00020312197852332,-0.0002031219236968,0.00020312197847137,-0.0001921453803817,0.00019214554068346,-0.00019214554017306,0.00019214538091691,0.0010525498561576,0.0011840881914502,0.76813388844524,0.62710753069502,1368840,32768,0.0008265882146142,0.00082658821459641,0.00082658821467513,27.012595832799,26.9720054817,0.00013130076666239,0.00013130076666239,0.00013130076666239,1045474.9549843,0.0024828543375109
15514959,0.13478020719589,0.00223199811016,0.00074399937002766,0.00074399937002997,0.00074399937010238,-0.00020873546841779,0.00020873547111873,8.2756237574336e-11,-8.007576616678e-11,-9.9739267004445e-13,3.7754396555571e-12,-0.00021369131608817,0.00021369137140029,-0.00021369137028837,0.00021369131721431,-0.00021369131449647,0.00021369137288471,-0.00021369136861754,0.00021369131874099,-0.0002020993825528,0.00020209954602257,-0.00020209954170765,0.00020209938670987,1.3563713799619e-12,-3.407214191357e-12,-6.6396601776451e-13,-1.0717898384385e-12,-0.00020873547083176,0.00020873546871008,-0.0002136913439728,0.00021369134357629,-0.00021369134398597,0.00021369134339522,-0.00021369134537261,0.00021369134194795,-0.0002136913456369,0.00021369134182545,-0.00020209946567929,0.00020209946298445,-0.00020209946618284,0.00020209946254115,-0.0002020994630197,0.00020209946581519,-0.0002020994676607,0.00020209946101627,-8.1331115441722e-11,8.1578787250518e-11,-0.0002087354696779,0.00020873546989973,-9.7695941926623e-14,3.0905302923033e-13,-0.00021369137095356,0.00021369131676583,-0.00021369137067243,0.0002136913167295,-0.00021369131667307,0.00021369137105282,-0.00021369131637669,0.0002136913710323,-0.00020209938441968,0.00020209954428554,-0.00020209954378111,0.00020209938478364,0.0010122700155048,0.001139830988857,0.76932129464585,0.64502787143686,1368840,32768,0.00086934949448386,0.00086934949449493,0.00086934949456945,26.402013814047,26.36150273604,0.00012641611051237,0.00012641611051237,0.00012641611051237,1012535.4826217,0.0026114660335565
15601359,0.14304448462155,0.0023700601262154,0.00079002004204532,0.00079002004204865,0.00079002004212139,-0.00021904113467296,0.00021904113737704,8.2600505699485e-11,-7.9909572618879e-11,-9.3402705434992e-13,3.6974633391507e-12,-0.0002243266775612,0.00022432673281084,-0.00022432673165301,0.0002243266787452,-0.00022432667601997,0.00022432673426513,-0.0002243267300462,0.00022432668023359,-0.00021206476829648,0.00021206493138813,-0.00021206492715201,0.00021206477242487,1.3080150851546e-12,-3.3135178257755e-12,-6.5602951021937e-13,-1.0548142577661e-12,-0.00021904113706388,0.00021904113498783,-0.0002243267054172,0.00022432670503386,-0.00022432670542794,0.00022432670486078,-0.00022432670678863,0.00022432670345963,-0.00022432670702845,0.00022432670334213,-0.00021206485122445,0.00021206484853369,-0.00021206485172034,0.00021206484813178,-0.00021206484859904,0.00021206485124104,-0.00021206485313032,0.00021206484664478,-8.1179543454495e-11,8.140555667127e-11,-0.00021904113593612,0.00021904113615229,-9.4690217572969e-14,3.0285372964409e-13,-0.00022432673234075,0.00022432667826559,-0.0002243267320709,0.00022432667822603,-0.00022432667816743,0.00022432673245061,-0.0002243266778769,0.00022432673241935,-0.00021206477018141,0.00021206492968594,-0.00021206492920494,0.00021206477050912,0.00097181882456536,0.001096500484936,0.77050218540504,0.6629482121786,1368840,32768,0.00091225125028554,0.0009122512502891,0.00091225125036549,25.999447477363,25.972307201561,0.0001231955798189,0.0001231955798189,0.0001231955798189,1007582.0941681,0.0027405168451963
15687759,0.15127123794991,0.0025085082133729,0.00083616940443104,0.00083616940443445,0.00083616940450742,-0.0002297950607526,0.00022979506347026,8.2530608621558e-11,-7.9798799539685e-11,-8.7747801717831e-13,3.6776387168381e-12,-0.00023537028796878,0.00023537034320631,-0.0002353703419864,0.00023537028919227,-0.00023537028650851,0.00023537034463873,-0.00023537034042139,0.00023537029075926,-0.00022254178176107,0.00022254194473397,-0.00022254194057657,0.00022254178587212,1.2763457879241e-12,-3.2691879447288e-12,-6.8504288123374e-13,-1.0763546695743e-12,-0.00022979506316138,0.00022979506105365,-0.00023537031585579,0.0002353703154252,-0.00023537031576309,0.00023537031518664,-0.00023537031722623,0.00023537031379598,-0.00023537031750926,0.00023537031370737,-0.00022254186470123,0.00022254186197214,-0.00022254186497348,0.0002225418613358,-0.00022254186218716,0.00022254186444269,-0.00022254186646475,0.00022254186004933,-8.1106109337562e-11,8.1296700625424e-11,-0.00022979506203157,0.00022979506224648,-6.9276762318935e-14,3.2081277659577e-13,-0.00023537034265244,0.00023537028879593,-0.0002353703424111,0.00023537028862822,-0.0002353702886676,0.00023537034281283,-0.00023537028835929,0.00023537034273981,-0.00022254178386055,0.00022254194299223,-0.00022254194252713,0.00022254178403756,0.00092944280628743,0.0010529527583197,0.77595083317196,0.75110919531944,1368840,32768,0.00095701720192233,0.00095701720190604,0.00095701720203723,25.812749216065,25.799880933273,0.00012170199372851,0.00012170199372851,0.00012170199372851,987440.77938448,0.0028751926519404
15774159,0.15946821176983,0.0026477962241975,0.00088259874137092,0.00088259874137269,0.00088259874145386,-0.00024073320141621,0.00024073320414098,8.2433701184955e-11,-7.9698398643628e-11,-8.2470701900196e-13,3.6240853455039e-12,-0.00024651644332002,0.00024651649863039,-0.00024651649730845,0.00024651644473278,-0.00024651644188731,0.0002465164998319,-0.00024651649573111,0.00024651644598446,-0.00023331331594141,0.00023331347835574,-0.00023331347445993,0.00023331332007804,1.261846091174e-12,-3.1763463912687e-12,-6.346409761244e-13,-1.0308454532319e-12,-0.00024073320375762,0.00024073320177916,-0.00024651647114719,0.00024651647077571,-0.00024651647101275,0.00024651647061842,-0.00024651647238643,0.00024651646926425,-0.00024651647256879,0.00024651646902525,-0.000233313398716,0.00023331339597657,-0.00023331339886191,0.00023331339554332,-0.00023331339606978,0.0002333133985509,-0.00023331340048148,0.00023331339424178,-8.1021050906627e-11,8.1184668411901e-11,-0.00024073320270449,0.00024073320287812,-1.0619536609858e-13,2.890833562019e-13,-0.00024651649797979,0.00024651644410147,-0.00024651649764396,0.0002465164439704,-0.00024651644402648,0.00024651649808409,-0.00024651644375017,0.00024651649809042,-0.00023331331798266,0.00023331347678365,-0.00023331347651561,0.00023331331806135,0.0008862224964726,0.0010090148041775,0.78306357375742,0.84963255143029,1368840,32768,0.0010025480505659,0.0010025480505235,0.0010025480506188,25.639003045992,25.627454664986,0.00012031202436794,0.00012031202436794,0.00012031202436794,930154.87830309,0.0030121877470665
15860559,0.16763601475899,0.0027869469631005,0.0009289823210084,0.00092898232100321,0.00092898232108891,-0.0002516617914127,0.00025166179409717,8.2275227776208e-11,-7.9591340877405e-11,-7.6337229714738e-13,3.5068953446956e-12,-0.00025763334015244,0.00025763339530012,-0.00025763339402837,0.0002576333414505,-0.00025763333873279,0.00025763339660526,-0.00025763339253534,0.0002576333428031,-0.00024409385058384,0.00024409401295185,-0.00024409400883768,0.00024409385463846,1.1440117240212e-12,-3.1157433455913e-12,-6.539391843715e-13,-1.0385725296751e-12,-0.00025166179377131,0.00025166179173588,-0.00025763336797662,0.00025763336752167,-0.00025763336795808,0.00025763336735366,-0.00025763336922857,0.00025763336606808,-0.00025763336946355,0.00025763336594464,-0.00024409393314637,0.00024409393053663,-0.00024409393355591,0.00024409393014544,-0.00024409393068509,0.0002440939329657,-0.00024409393493442,0.0002440939287522,-8.08606332411e-11,8.1077759541865e-11,-0.00025166179266944,0.00025166179288263,-8.8483925553283e-14,2.9516940189503e-13,-0.00025763339475134,0.00025763334092552,-0.00025763339448327,0.0002576333408573,-0.00025763334081492,0.00025763339486988,-0.00025763334052816,0.00025763339483754,-0.00024409385242967,0.00024409401125031,-0.00024409401086367,0.0002440938527746,0.00084300686331045,0.00096509062589487,0.7843945012132,0.83328783914782,1368840,32768,0.0010480370810875,0.0010480370810819,0.0010480370811753,25.466442121188,25.455028396697,0.0001189315369695,0.0001189315369695,0.0001189315369695,874636.00674386,0.0031490756701947
15946959,0.17577157879883,0.0029257807998511,0.00097526026659188,0.00097526026658619,0.00097526026667306,-0.00026243208990198,0.00026243209263515,8.2252065005874e-11,-7.950694522034e-11,-7.528652137198e-13,3.5214724802565e-12,-0.00026864046051353,0.00026864051575527,-0.00026864051447773,0.00026864046192465,-0.000268640459116,0.00026864051698477,-0.00026864051292964,0.00026864046313187,-0.00025466881769987,0.00025466898019101,-0.000254668976319,0.00025466882197484,1.1211484335085e-12,-3.1420161679746e-12,-6.6314271203358e-13,-1.063163447557e-12,-0.0002624320923042,0.00026243209022515,-0.00026864048846113,0.00026864048796978,-0.00026864048853381,0.0002686404878347,-0.00026864048967559,0.00026864048642502,-0.00026864048995546,0.00026864048639304,-0.00025466890047261,0.00025466889799716,-0.00025466890091047,0.00025466889738756,-0.00025466889803166,0.00025466890025042,-0.00025466890220253,0.0002546688960893,-8.0827835647456e-11,8.1003955127421e-11,-0.00026243209118923,0.00026243209137447,-1.0118674704963e-13,2.9790632931319e-13,-0.0002686405151401,0.00026864046138729,-0.00026864051474778,0.00026864046125322,-0.00026864046128286,0.00026864051529776,-0.00026864046105303,0.00026864051524011,-0.00025466881983244,0.00025466897851787,-0.00025466897828194,0.00025466881989814,0.00080043177396313,0.00092124846350358,0.78505320636943,0.81694312686537,1368840,32768,0.0010928651902446,0.0010928651902284,0.0010928651902999,25.293996937084,25.28260212841,0.00011755197549667,0.00011755197549667,0.00011755197549667,854484.43277838,0.0032839930740942
16033359,0.18386992654785,0.0030640466924793,0.0010213488974705,0.0010213488974623,0.0010213488975465,-0.00027315805777837,0.00027315806051468,8.2215479314718e-11,-7.9463413711963e-11,-7.1062680554477e-13,3.4727698798522e-12,-0.00027960152324956,0.00027960157836811,-0.00027960157705105,0.00027960152463676,-0.00027960152190167,0.00027960157968032,-0.00027960157556103,0.00027960152591237,-0.00026519996346675,0.00026520012575704,-0.00026520012180141,0.00026519996771269,1.1445522442734e-12,-3.0275333638751e-12,-5.8043787096265e-13,-9.9008418007851e-13,-0.00027315806008932,0.00027315805819364,-0.00027960155104351,0.00027960155067412,-0.00027960155098067,0.0002796015505012,-0.00027960155221768,0.00027960154924963,-0.0002796015524372,0.00027960154911171,-0.000265200046049,0.00026520004365599,-0.00026520004633765,0.00026520004317942,-0.00026520004337813,0.00026520004593735,-0.00026520004783626,0.00026520004176007,-8.0752908554074e-11,8.0996210643422e-11,-0.00027315805905234,0.00027315805929691,-7.8392700745038e-14,3.3042556013772e-13,-0.00027960157779055,0.00027960152411458,-0.00027960157750174,0.00027960152394442,-0.00027960152397721,0.00027960157796015,-0.00027960152356696,0.00027960157788964,-0.00026519996540825,0.00026520012391434,-0.00026520012370613,0.00026519996564206,0.00075801503276146,0.00087758036298181,0.78517914360661,0.8005984145829,1368840,32768,0.0011375067932378,0.0011375067932168,0.0011375067933547,25.121563377395,25.110175860122,0.00011617250701916,0.00011617250701916,0.00011617250701916,837516.64911501,0.0034183671736875
16119759,0.19192833648679,0.0032016162622323,0.0010672054207201,0.001067205420711,0.0010672054208012,-0.00028382881392205,0.00028382881664907,8.2147645225238e-11,-7.941307141165e-11,-6.7492402859304e-13,3.454317870019e-12,-0.0002905080466455,0.00029050810177957,-0.00029050810042727,0.00029050804803731,-0.00029050804526754,0.00029050810305681,-0.00029050809897738,0.00029050804932587,-0.00027567299767038,0.00027567315985696,-0.00027567315576907,0.00027567300186408,1.0373766765017e-12,-3.0803951313373e-12,-6.8065422118664e-13,-1.0624863358894e-12,-0.00028382881632482,0.00028382881424169,-0.00029050807451225,0.00029050807398713,-0.00029050807449567,0.00029050807381116,-0.00029050807571764,0.00029050807256069,-0.00029050807592648,0.00029050807244777,-0.00027567308018603,0.00027567307758921,-0.0002756730804648,0.000275673077175,-0.00027567307781987,0.00027567307984553,-0.00027567308190794,0.00027567307578073,-8.0710894087588e-11,8.0918260429159e-11,-0.00028382881519463,0.00028382881541439,-8.0365155193791e-14,3.0024907024406e-13,-0.00029050810118702,0.00029050804747453,-0.00029050810089899,0.00029050804740434,-0.00029050804735755,0.00029050810132642,-0.00029050804706175,0.00029050810128015,-0.00027567299953058,0.00027567315802664,-0.00027567315776043,0.00027567299986469,0.00071580900288281,0.00083413794537004,0.78488075150477,0.78425370230042,1368840,32768,0.0011819166252301,0.0011819166252205,0.001181916625309,24.949131081081,24.937749591834,0.00011479304864864,0.00011479304864864,0.00011479304864864,823836.08461411,0.0035520614907784
16206159,0.1999441963892,0.0033383793636006,0.0011127931211758,0.001112793121167,0.0011127931212578,-0.00029443523441474,0.00029443523715606,8.2101666497504e-11,-7.9360304405999e-11,-6.4699426418111e-13,3.4442705298995e-12,-0.00030134789855511,0.00030134795367949,-0.0003013479522947,0.00030134789997269,-0.00030134789719463,0.00030134795493064,-0.00030134795085749,0.0003013479012453,-0.00028607958121946,0.00028607974321485,-0.00028607973911402,0.0002860795852977,1.0377282098802e-12,-3.0417496060492e-12,-6.6989366756123e-13,-1.0575188773477e-12,-0.00029443523681728,0.00029443523474862,-0.00030134792641702,0.00030134792587588,-0.00030134792641111,0.00030134792571322,-0.00030134792761139,0.00030134792447171,-0.00030134792783464,0.00030134792435837,-0.00028607966358032,0.00028607966101649,-0.00028607966397336,0.0002860796606156,-0.00028607966120351,0.0002860796633279,-0.00028607966530885,0.0002860796592994,-8.0651332539505e-11,8.0879142749177e-11,-0.0002944352356921,0.00029443523591896,-8.1021017510589e-14,3.0532315052851e-13,-0.00030134795305875,0.00030134789938576,-0.00030134795278701,0.00030134789931081,-0.00030134789926686,0.00030134795320466,-0.0003013478989754,0.00030134795316503,-0.00028607958308488,0.00028607974151181,-0.00028607974113774,0.00028607958344177,0.00067385883721715,0.00079096738130473,0.78424582641954,0.76790899001795,1368840,32768,0.001226056742707,0.0012260567426969,0.0012260567427908,24.776698977743,24.765323323546,0.00011341359182194,0.00011341359182194,0.00011341359182194,812834.58840504,0.0036849615124014
16292559,0.2079149986952,0.0034742411256917,0.0011580803752061,0.0011580803751973,0.0011580803752883,-0.0003049695161057,0.00030496951885511,8.205281468107e-11,-7.9302604639275e-11,-6.1512295841586e-13,3.4193765992156e-12,-0.00031211654807375,0.00031211660318916,-0.00031211660178188,0.00031211654951606,-0.00031211654672904,0.00031211660442594,-0.00031211660036311,0.00031211655077659,-0.00029640888221861,0.00029640904411091,-0.00029640904003667,0.00029640888627841,1.0149676993158e-12,-3.0072688947054e-12,-6.5929718980576e-13,-1.0588875120075e-12,-0.00030496951850451,0.00030496951645185,-0.00031211657592502,0.0003121165753918,-0.00031211657592007,0.00031211657521833,-0.0003121165771037,0.00031211657400586,-0.00031211657733086,0.00031211657388381,-0.00029640896453581,0.00029640896198911,-0.00029640896491368,0.0002964089615459,-0.00029640896222199,0.00029640896424036,-0.00029640896622523,0.00029640896026159,-8.0592603039533e-11,8.0830734264788e-11,-0.00030496951738283,0.00030496951761908,-8.1140462391041e-14,3.1713580436593e-13,-0.00031211660255637,0.00031211654892165,-0.00031211660227168,0.0003121165488518,-0.00031211654879762,0.00031211660269718,-0.00031211654849981,0.0003121166026621,-0.00029640888405718,0.00029640904240677,-0.00029640904200591,0.0002964088844078,0.00063220623411648,0.00074811072778141,0.78334622728962,0.75156427773548,1368840,32768,0.0012698947058914,0.0012698947058822,0.001269894705977,24.604266927682,24.592897055258,0.00011203413542146,0.00011203413542146,0.00011203413542146,804825.97261572,0.0038169692435335
16378959,0.2158593460897,0.0036067957120745,0.0012022652373339,0.0012022652373246,0.001202265237416,-0.00031529851825852,0.00031529852101179,8.2009291672433e-11,-7.9256685792065e-11,-5.7911033798846e-13,3.3904848641912e-12,-0.00032275571501161,0.00032275577011131,-0.00032275576868203,0.0003227557164742,-0.00032275571368566,0.00032275577132963,-0.00032275576728384,0.00032275571771065,-0.00030639668043779,0.00030639684222244,-0.00030639683819212,0.0003063966844722,9.9479274947024e-13,-2.96208428977e-12,-6.466888470408e-13,-1.041043792415e-12,-0.00031529852064558,0.00031529851862074,-0.00032275574285412,0.0003227557423212,-0.00032275574283728,0.00032275574215499,-0.0003227557440123,0.00032275574095424,-0.00032275574423498,0.00032275574084417,-0.00030639676266864,0.00030639676017669,-0.00030639676305569,0.00030639675972582,-0.00030639676039602,0.00030639676238587,-0.00030639676435048,0.00030639675846776,-8.0550975546519e-11,8.0783683555096e-11,-0.00031529851953884,0.00031529851977266,-7.8699566370504e-14,3.1443255606595e-13,-0.0003227557694719,0.000322755715872,-0.00032275576919205,0.00032275571579682,-0.00032275571574403,0.00032275576960954,-0.00032275571545603,0.00032275576957227,-0.00030639668227477,0.00030639684052932,-0.0003063968401312,0.00030639668258772,0.00059155297313364,0.00070665159831458,0.76696823367635,0.51556760886332,1368840,32768,0.0013128763315371,0.0013128763315288,0.0013128763316228,24.463370342853,24.454011407944,0.00011090696274282,0.00011090696274282,0.00011090696274282,828837.76506439,0.0039464159727232
16465359,0.2237927262771,0.0037400841159932,0.0012466947053068,0.0012466947052973,0.001246694705389,-0.00032545622990488,0.00032545623265641,8.193723866772e-11,-7.9185128433975e-11,-5.3074605077835e-13,3.3372201678617e-12,-0.00033335899164015,0.00033335904673143,-0.0003333590452618,0.00033335899313843,-0.00033335899034905,0.00033335904790838,-0.00033335904390023,0.00033335899433947,-0.00031611509177526,0.00031611525338988,-0.00031611524937608,0.0003161150957738,9.7024793312106e-13,-2.8841299212224e-12,-6.3388912041661e-13,-1.0086903763779e-12,-0.00032545623226464,0.00032545623029236,-0.00033335901947191,0.00033335901895611,-0.00033335901945857,0.00033335901879311,-0.00033335902059557,0.00033335901763094,-0.00033335902081177,0.000333359017518,-0.00031611517386137,0.00031611517142958,-0.00031611517425454,0.00031611517102361,-0.00031611517164458,0.0003161151735825,-0.00031611517550698,0.00031611516977058,-8.0479141373356e-11,8.0712889283989e-11,-0.00032545623118524,0.00032545623141956,-7.1665626840764e-14,3.0188283651009e-13,-0.00033335904607128,0.00033335899252426,-0.00033335904579529,0.00033335899244499,-0.00033335899238811,0.00033335904622009,-0.0003333589921009,0.00033335904617577,-0.00031611509353909,0.0003161152516667,-0.00031611525127043,0.00031611509387479,0.00055162046137592,0.0006648934786391,0.77247311064761,0.62215834314859,1368840,32768,0.0013551433836832,0.0013551433836743,0.0013551433837737,24.352621236524,24.345252093811,0.00011002096989219,0.00011002096989219,0.00011002096989219,913457.68883296,0.0040737268439467
16551759,0.23171112738543,0.0038753622746851,0.0012917874248702,0.0012917874248612,0.0012917874249536,-0.00033623114363804,0.0003362311464127,8.1896349990371e-11,-7.9135883467787e-11,-5.1177705673868e-13,3.3339427238677e-12,-0.00034428550733772,0.00034428556247469,-0.0003442855609964,0.00034428550894002,-0.00034428550613437,0.00034428556369382,-0.00034428555962562,0.00034428551012399,-0.00032679332325399,0.00032679348480551,-0.00032679348080016,0.0003267933271907,9.5177706356991e-13,-2.8798800657585e-12,-6.1843765862463e-13,-1.0226861326406e-12,-0.00033623114600415,0.00033623114403377,-0.00034428553520709,0.00034428553474756,-0.00034428553518009,0.0003442855345243,-0.00034428553631228,0.00034428553331453,-0.00034428553658993,0.00034428553326035,-0.00032679340527641,0.0003267934029384,-0.00032679340576524,0.00032679340256175,-0.00032679340311376,0.0003267934050697,-0.0003267934069008,0.00032679340127584,-8.0419431035701e-11,8.0682110805132e-11,-0.00033623114492622,0.00033623114516497,-9.3116574470215e-14,3.0973311139547e-13,-0.00034428556181323,0.00034428550825149,-0.00034428556146187,0.00034428550816977,-0.00034428550812335,0.00034428556193396,-0.00034428550784593,0.00034428556192562,-0.000326793325069,0.00032679348320173,-0.00032679348271669,0.00032679332544162,0.00050895883754149,0.00062220782149811,0.7860980706936,0.87950225785718,1368840,32768,0.0013999770190717,0.001399977019045,0.0013999770191558,24.243673768583,24.236492779678,0.00010914939014866,0.00010914939014866,0.00010914939014866,854057.22281762,0.0042087849477609
16638159,0.23961994234639,0.0040116162431907,0.0013372054143732,0.0013372054143616,0.001337205414456,-0.00034721774343421,0.0003472177461696,8.1837398717762e-11,-7.9103855872678e-11,-4.9020056882676e-13,3.2871751084686e-12,-0.00035530739849122,0.00035530745354198,-0.0003553074520663,0.000355307400007,-0.00035530739723284,0.00035530745469225,-0.00035530745072928,0.00035530740118177,-0.00033781296974377,0.00033781313125271,-0.0003378131271956,0.00033781297375395,9.295239786805e-13,-2.8341166549757e-12,-6.3543320559881e-13,-1.0015564178448e-12,-0.00034721774578085,0.00034721774381669,-0.00035530742630442,0.00035530742578164,-0.00035530742629243,0.00035530742561235,-0.00035530742740318,0.00035530742447503,-0.00035530742763249,0.00035530742436102,-0.00033781305177772,0.00033781304933965,-0.00033781305217738,0.00033781304898941,-0.00033781304969848,0.00033781305142935,-0.00033781305334219,0.0003378130477542,-8.0378467890039e-11,8.063058738649e-11,-0.0003472177447027,0.00034721774494336,-6.9263803156005e-14,2.9560791055772e-13,-0.00035530745286978,0.00035530739937938,-0.00035530745259028,0.00035530739929957,-0.00035530739924077,0.00035530745302119,-0.00035530739895544,0.00035530745298044,-0.00033781297152502,0.00033781312953751,-0.00033781312918619,0.00033781297195217,0.00046538098484733,0.00057911404805466,0.79191615664852,0.93605137338775,1368840,32768,0.0014456894904005,0.0014456894903874,0.0014456894904884,24.134891722432,24.127733465545,0.00010827913377945,0.00010827913377945,0.00010827913377945,754603.27452699,0.0043465088427319
16724559,0.24751839364147,0.0041483046084753,0.0013827682028017,0.0013827682027895,0.0013827682028841,-0.00035800990506092,0.0003580099077801,8.1810515700785e-11,-7.909857166646e-11,-4.7256885746344e-13,3.2436199096383e-12,-0.00036622615937019,0.00036622621441954,-0.00036622621293301,0.0003662261609033,-0.00036622615813596,0.00036622621555702,-0.00036622621162793,0.00036622616205533,-0.0003485482202256,0.00034854838157616,-0.00034854837766798,0.00034854822416339,8.802122277677e-13,-2.822481260429e-12,-6.4166980183978e-13,-1.0372385263103e-12,-0.00035800990742422,0.00035800990540958,-0.00036622618724063,0.00036622618661675,-0.00036622618723569,0.0003662261864476,-0.00036622618831589,0.00036622618533913,-0.00036622618853279,0.00036622618522607,-0.00034854830212516,0.00034854829971967,-0.00034854830253152,0.00034854829929915,-0.00034854830005249,0.00034854830181556,-0.0003485483038205,0.0003485482981305,-8.0361279312197e-11,8.0614208239803e-11,-0.00035800990631738,0.00035800990656473,-7.5193849938323e-14,3.1896984392551e-13,-0.0003662262137411,0.00036622616026945,-0.00036622621346303,0.00036622616020715,-0.00036622616013353,0.00036622621389866,-0.00036622615984353,0.000366226213866,-0.00034854822193342,0.00034854837986203,-0.0003485483794762,0.00034854822226538,0.00042266674933096,0.00053588417248401,0.79431872604613,0.92159878986383,1368840,32768,0.0014905908914753,0.0014905908914602,0.0014905908915607,24.026127467166,24.018974151412,0.00010740901973732,0.00010740901973732,0.00010740901973732,711278.14335568,0.0044818075666401
16810959,0.25540106570354,0.0042850919191536,0.0014283639730276,0.0014283639730157,0.0014283639731102,-0.00036874788636636,0.00036874788909118,8.1793118202854e-11,-7.9072201619106e-11,-4.564599966369e-13,3.2343463694091e-12,-0.00037710988888449,0.00037710994392821,-0.00037710994242789,0.00037710989041949,-0.00037710988765709,0.00037710994505579,-0.00037710994112538,0.00037710989156449,-0.00035920719511393,0.00035920735644763,-0.00035920735249672,0.00035920719902136,8.5982985043534e-13,-2.81735609347e-12,-6.3589098573158e-13,-1.0481164439974e-12,-0.000368747888733,0.0003687478867184,-0.00037710991673694,0.000377109916141,-0.00037710991673697,0.00037710991595886,-0.00037710991780091,0.000377109914862,-0.00037710991803444,0.00037710991474191,-0.00035920727702727,0.00035920727461968,-0.00035920727744818,0.00035920727419619,-0.00035920727494946,0.00035920727663989,-0.00035920727864839,0.00035920727299934,-8.0332258845811e-11,8.0598671427678e-11,-0.00036874788762145,0.00036874788787825,-8.1807265550074e-14,3.2893831145449e-13,-0.00037710994324158,0.00037710988978518,-0.0003771099429474,0.00037710988972068,-0.00037710988964417,0.00037710994339495,-0.00037710988934488,0.00037710994336551,-0.00035920719681322,0.00035920735477488,-0.00035920735433804,0.00035920719720962,0.00038024323083934,0.00049265749850699,0.7959492155057,0.90642269806906,1368840,32768,0.0015352648734045,0.0015352648733917,0.0015352648734922,23.917365172011,23.910214837278,0.00010653892137609,0.00010653892137609,0.00010653892137609,684044.28884369,0.0046164390781129
16897359,0.26326465550577,0.0044217833993286,0.0014739277997525,0.0014739277997409,0.0014739277998352,-0.00037947830535913,0.0003794783080405,8.1754078233734e-11,-7.9086763424253e-11,-4.5513169898019e-13,3.2154710783893e-12,-0.00038797154194521,0.00038797159697327,-0.00038797159551542,0.00038797154341473,-0.00038797154064023,0.00038797159813667,-0.00038797159417628,0.00038797154463506,-0.0003698661666175,0.00036986632798146,-0.00036986632413933,0.00036986617065009,8.2386208157893e-13,-2.832350297172e-12,-6.5526911433129e-13,-1.0737409038348e-12,-0.00037947830772625,0.00037947830566205,-0.0003879715697856,0.00038797156912369,-0.00038797156985012,0.00038797156898853,-0.00038797157097024,0.00038797156791058,-0.00038797157111209,0.00038797156786829,-0.00036986624847606,0.00036986624619966,-0.00036986624910622,0.0003698662457486,-0.00036986624656608,0.0003698662483574,-0.00036986625023529,0.00036986624466518,-8.029300580967e-11,8.0613275812406e-11,-0.00037947830656983,0.00037947830685452,-7.1848797715607e-14,3.4504526057473e-13,-0.00038797159625281,0.00038797154279698,-0.00038797159603365,0.00038797154280672,-0.00038797154271919,0.00038797159643281,-0.00038797154244232,0.00038797159643347,-0.0003698661684511,0.00036986632635321,-0.00036986632606071,0.00036986616879587,0.0003379567810979,0.00044953238913875,0.79698033260913,0.89124660627431,1368840,32768,0.0015799054053097,0.0015799054052862,0.0015799054053611,23.808603248105,23.801455523145,0.00010566882598484,0.00010566882598484,0.00010566882598484,657830.52091272,0.0047509877703731
16983759,0.27110661833162,0.004557945648186,0.0015193152160391,0.0015193152160271,0.0015193152161198,-0.0003901676120647,0.00039016761480914,8.1777332611564e-11,-7.9043510275019e-11,-4.2731129887431e-13,3.2399496982313e-12,-0.00039879953330159,0.00039879958836833,-0.00039879958685292,0.00039879953487034,-0.00039879953201557,0.00039879958950964,-0.00039879958550843,0.00039879953595984,-0.00038046674801029,0.00038046690924645,-0.00038046690527529,0.00038046675205261,8.2073309628493e-13,-2.8323596498275e-12,-6.7111779928249e-13,-1.0726174234505e-12,-0.00039016761446924,0.00039016761240073,-0.00039879956116163,0.00039879956057566,-0.00039879956120192,0.00039879956038613,-0.00039879956229562,0.00039879955924671,-0.00039879956246379,0.000398799559208,-0.00038046682996377,0.00038046682728202,-0.00038046683030261,0.00038046682684994,-0.00038046682783902,0.00038046682931803,-0.00038046683144693,0.00038046682591162,-8.0301454286869e-11,8.0585013153752e-11,-0.00039016761332641,0.00039016761358955,-7.2558202514366e-14,3.27744899383e-13,-0.00039879958766848,0.00039879953427569,-0.00039879958737357,0.00039879953414214,-0.000398799534078,0.00039879958783137,-0.00039879953381034,0.00039879958778225,-0.00038046674969396,0.00038046690743662,-0.00038046690716357,0.00038046675008008,0.00029604635329682,0.0004067469759494,0.7958001239936,0.85075119777731,1368840,32768,0.001624372902575,0.0016243729025669,0.0016243729026626,23.699842334196,23.692696209012,0.00010479873867357,0.00010479873867357,0.00010479873867357,636589.26235161,0.0048850329151641
17070159,0.27892432477323,0.0046932352065311,0.0015644117354871,0.001564411735475,0.001564411735569,-0.00040076738313401,0.00040076738586719,8.1770169830382e-11,-7.9028611465461e-11,-4.1564527291046e-13,3.2222786939507e-12,-0.00040955771675471,0.0004095577717683,-0.00040955777032732,0.00040955771830883,-0.00040955771555648,0.00040955777291331,-0.00040955776905913,0.00040955771946342,-0.00039094337502289,0.00039094353643314,-0.00039094353236255,0.00039094337908149,8.2141533279601e-13,-2.8016130302921e-12,-6.4856940723804e-13,-1.0478068578668e-12,-0.00040076738550961,0.00040076738348351,-0.00040955774463983,0.00040955774399696,-0.00040955774465191,0.00040955774380236,-0.00040955774569947,0.0004095577427168,-0.00040955774590897,0.00040955774261611,-0.00039094345707203,0.00039094345440374,-0.00039094345731948,0.00039094345402147,-0.00039094345498297,0.00039094345648823,-0.00039094345850527,0.00039094345282349,-8.0285030759185e-11,8.0579062923763e-11,-0.00040076738437994,0.00040076738466175,-5.1861327436752e-14,3.4619945325611e-13,-0.0004095577710986,0.00040955771767594,-0.00040955777084958,0.0004095577176217,-0.00040955771753907,0.00040955777128622,-0.00040955771721983,0.00040955777124493,-0.00039094337663592,0.00039094353455937,-0.00039094353421163,0.0003909433772266,0.0002548590537195,0.00036452486260253,0.79295151149795,0.7987525685786,1368840,32768,0.0016684659372109,0.0016684659371941,0.0016684659372951,23.591081996933,23.583936894879,0.00010392865597546,0.00010392865597546,0.00010392865597546,626515.68060825,0.0050179670684455
17156559,0.28661060502615,0.0048258112695283,0.0016086037564864,0.0016086037564731,0.0016086037565688,-0.00041081314398681,0.00041081314672631,8.1750292378801e-11,-7.9009599369797e-11,-3.7891271859419e-13,3.1936808175962e-12,-0.00041978754727767,0.00041978760231768,-0.00041978760077682,0.0004197875488366,-0.00041978754607133,0.00041978760341167,-0.00041978759951024,0.00041978754995127,-0.00040083266087521,0.00040083282217529,-0.00040083281827099,0.00040083266498717,8.0610274176163e-13,-2.7515842939298e-12,-6.3875326593795e-13,-1.0362168589921e-12,-0.00041081314635481,0.00041081314435737,-0.00041978757514473,0.00041978757450106,-0.00041978757513803,0.00041978757432683,-0.00041978757617104,0.00041978757326882,-0.00041978757638506,0.00041978757316921,-0.00040083274286463,0.00040083274044423,-0.00040083274328995,0.00040083274001349,-0.00040083274086676,0.00040083274241873,-0.0004008327443802,0.0004008327387377,-8.0288424302573e-11,8.0535945483618e-11,-0.0004108131452538,0.00041081314551068,-7.2117399804116e-14,3.2430340892994e-13,-0.00041978760159348,0.00041978754821622,-0.00041978760133401,0.0004197875481507,-0.00041978754805701,0.00041978760176493,-0.00041978754777893,0.00041978760175832,-0.00040083266265683,0.00040083282038207,-0.00040083282016685,0.00040083266303837,0.00021644981171634,0.00032355671292512,0.7902626690991,0.76018439044827,1368840,32768,0.0017102525597423,0.0017102525597404,0.0017102525598492,23.313010131844,23.295127706728,0.00010170408105475,0.00010170408105475,0.00010170408105475,625973.19867078,0.0051439641125417
17242959,0.29407635563098,0.004953882429606,0.0016512941431783,0.0016512941431652,0.0016512941432625,-0.00042022009003068,0.00042022009275377,8.1734562682862e-11,-7.9022136530913e-11,-3.9086183885089e-13,3.1771315731642e-12,-0.00042938581471841,0.00042938586975489,-0.0004293858682123,0.00042938581629719,-0.00042938581353632,0.00042938587087931,-0.00042938586696239,0.00042938581738881,-0.00041005978796353,0.00041005994897495,-0.00041005994515787,0.00041005979183648,8.6355958208283e-13,-2.6893390043042e-12,-5.9064554441935e-13,-1.0145012944465e-12,-0.00042022009236429,0.00042022009040983,-0.00042938584256032,0.00042938584198679,-0.00042938584257385,0.00042938584176252,-0.00042938584358773,0.00042938584072099,-0.00042938584383949,0.00042938584061566,-0.00041005986980311,0.00041005986739745,-0.00041005987008226,0.00041005986692309,-0.00041005986761257,0.00041005986951992,-0.00041005987132217,0.00041005986595173,-8.0276070444681e-11,8.0544169232388e-11,-0.00042022009126833,0.00042022009155344,-6.7271981651844e-14,3.5555479980963e-13,-0.00042938586904228,0.0004293858156429,-0.00042938586872898,0.00042938581561255,-0.00042938581547236,0.00042938586920898,-0.00042938581518155,0.00042938586917095,-0.00041005978964495,0.00041005994736648,-0.0004100599469197,0.00041005979000682,0.00018142074841938,0.00028461116004302,0.78600266077022,0.70392071015391,1368840,32768,0.0017493803119293,0.0017493803119078,0.0017493803120069,22.885748532482,22.858078561334,9.8285988259853e-05,9.8285988259853e-05,9.8285988259853e-05,629721.65154448,0.0052619585363893
17329359,0.30132086919637,0.0050773990084115,0.0016924663361148,0.0016924663361001,0.0016924663361966,-0.00042922490976054,0.00042922491232338,8.1608325068746e-11,-7.909155391026e-11,-4.615285917948e-13,3.1167206686759e-12,-0.00043860224009622,0.00043860229473587,-0.0004386022933322,0.00043860224124564,-0.00043860223888961,0.00043860229585818,-0.00043860229215839,0.0004386022425241,-0.00041884858466348,0.00041884874545826,-0.00041884874226769,0.00041884858802876,7.2783255933256e-13,-2.8345081283106e-12,-7.2439334086891e-13,-1.1060627399543e-12,-0.00042922491208497,0.00042922490996825,-0.00043860226785589,0.000438602266981,-0.00043860226788153,0.00043860226687175,-0.0004386022689347,0.0004386022660239,-0.00043860226905608,0.00043860226583723,-0.00041884866649926,0.00041884866376455,-0.00041884866642035,0.00041884866329226,-0.00041884866443023,0.00041884866570133,-0.00041884866786479,0.00041884866203929,-8.013674584801e-11,8.06266285589e-11,-0.00042922491080966,0.00042922491131207,6.7596729083974e-14,4.48057900374e-13,-0.00043860229398205,0.00043860224083717,-0.00043860229385409,0.00043860224080709,-0.00043860224059065,0.00043860229454278,-0.00043860224025578,0.00043860229448846,-0.00041884858617514,0.00041884874401175,-0.00041884874305758,0.00041884858597391,0.00014928880811971,0.00024792923993434,0.78131674440676,0.64652527280633,1368840,32768,0.0017868339447733,0.0017868339447094,0.0017868339448519,22.449558522474,22.42102941594,9.4796468179789e-05,9.4796468179789e-05,9.4796468179789e-05,644169.76174675,0.005374917644308
17415759,0.30834831122425,0.0051964204731129,0.0017321401576814,0.0017321401576657,0.0017321401577658,-0.00043785946654154,0.0004378594692836,8.1759591506484e-11,-7.9009911301444e-11,-3.7794148355887e-13,3.2709616920126e-12,-0.00044747584979715,0.00044747590502233,-0.00044747590334384,0.00044747585132032,-0.00044747584863812,0.00044747590606853,-0.00044747590228496,0.00044747585261248,-0.00042722854926993,0.00042722871058136,-0.00042722870629348,0.00042722855298293,8.2192050118699e-13,-2.8124923449953e-12,-6.5589619811549e-13,-9.9213313954302e-13,-0.00043785946890937,0.00043785946690917,-0.00044747587793716,0.00044747587697984,-0.00044747587746116,0.00044747587671755,-0.00044747587904618,0.0004474758761639,-0.00044747587874457,0.00044747587614541,-0.00042722863119962,0.00042722862882823,-0.00042722863086008,0.00042722862741653,-0.00042722862867417,0.00042722862981154,-0.00042722863254205,0.00042722862649624,-8.0343805257782e-11,8.0488902435457e-11,-0.00043785946784697,0.00043785946801134,-2.4481178587387e-14,3.1330767866548e-13,-0.00044747590451617,0.00044747585064742,-0.00044747590396029,0.00044747585084151,-0.00044747585033741,0.00044747590426879,-0.00044747585049721,0.0004474759042321,-0.00042722855078108,0.00042722870887289,-0.00042722870833554,0.00042722855128396,0.00012081558684329,0.00021383701143745,0.7763942677311,0.58912983545876,1368840,32768,0.0018227461673744,0.0018227461673607,0.0018227461674434,22.01255885569,21.983980270545,9.1300470845521e-05,9.1300470845521e-05,9.1300470845521e-05,667882.00902674,0.0054832400723145
17502159,0.31516350498327,0.0053122687935287,0.0017707562644889,0.0017707562644747,0.0017707562645651,-0.00044623518752587,0.00044623519028219,8.1768374620519e-11,-7.9009555679955e-11,-4.4975270154016e-13,3.2347955909798e-12,-0.00045607179478175,0.00045607184992742,-0.00045607184806256,0.00045607179659486,-0.00045607179343412,0.00045607185089568,-0.00045607184705017,0.00045607179764927,-0.00043538135208669,0.00043538151338525,-0.00043538150966104,0.00043538135604413,8.4218602179513e-13,-2.8288905352183e-12,-6.5328818955307e-13,-1.0011898040446e-12,-0.00044623518987271,0.00044623518781579,-0.0004560718228632,0.00045607182188847,-0.00045607182276382,0.0004560718216867,-0.00045607182392072,0.00045607182039496,-0.00045607182394415,0.00045607182101841,-0.00043538143450458,0.0004353814316969,-0.00043538143398935,0.00043538143107272,-0.00043538143158131,0.00043538143344554,-0.00043538143571182,0.00043538143048016,-8.0454081477154e-11,8.0385928198896e-11,-0.0004462351888566,0.00044623518892219,-1.122892902275e-13,2.3770264275919e-13,-0.00045607184930988,0.00045607179550356,-0.00045607184921274,0.0004560717954433,-0.00045607179527609,0.00045607184921261,-0.00045607179523731,0.00045607184912954,-0.00043538135451668,0.00043538151168972,-0.00043538151206568,0.00043538135422169,9.6860375065591e-05,0.00018197242363755,0.77950351818063,0.65637026357131,1368840,32768,0.0018575806604388,0.0018575806601902,0.0018575806603779,21.575477567248,21.546931125151,8.7803820537984e-05,8.7803820537984e-05,8.7803820537984e-05,686879.07524197,0.0055883227400512
17588559,0.32177195013968,0.0054228476134132,0.0018076158711267,0.0018076158710975,0.0018076158711889,-0.00045432247828194,0.00045432248104997,8.1757779708892e-11,-7.8997008269152e-11,-3.9477785157233e-13,3.2467460641364e-12,-0.00046436657861043,0.00046436663367721,-0.00046436663209682,0.00046436658020088,-0.00046436657740146,0.00046436663478315,-0.00046436663087172,0.00046436658136345,-0.00044322739474271,0.00044322755608412,-0.00044322755208866,0.00044322739871889,8.5215030562839e-13,-2.7744433014851e-12,-6.3512804580358e-13,-9.906718680074e-13,-0.00045432248065008,0.00045432247866768,-0.00046436660651404,0.00046436660585287,-0.00046436660648176,0.0004643666056683,-0.00046436660759263,0.00046436660462591,-0.00046436660774509,0.0004643666045697,-0.00044322747671174,0.00044322747432843,-0.00044322747688359,0.00044322747380476,-0.00044322747455278,0.00044322747633775,-0.00044322747821796,0.00044322747267578,-8.029163868967e-11,8.0524990972683e-11,-0.00045432247955662,0.00045432247980769,-4.6848627630113e-14,3.1013049631445e-13,-0.00046436663297727,0.00046436657952652,-0.00046436663271504,0.00046436657948264,-0.00046436657936615,0.00046436663313721,-0.00046436657912231,0.00046436663309601,-0.00044322739650583,0.00044322755432559,-0.00044322755397437,0.0004432273968548,8.1163271637076e-05,0.00015463503111913,0.7676684785683,0.49448495227444,1368840,32768,0.0018912143092147,0.0018912143091853,0.0018912143092821,21.138392360082,21.109881979757,8.4307138880653e-05,8.4307138880653e-05,8.4307138880653e-05,691424.54391454,0.00568979384453
17674959,0.32817919949414,0.0055295243982639,0.0018431747994097,0.0018431747993817,0.0018431747994725,-0.00046181654854346,0.00046181655129706,8.1805632452906e-11,-7.9011859491928e-11,-4.0793274381704e-13,3.138106177128e-12,-0.00047221718358352,0.00047221723874421,-0.00047221723713443,0.00047221718519236,-0.0004722171825052,0.00047221723987056,-0.00047221723591751,0.00047221718634733,-0.00045032746042474,0.00045032762176679,-0.00045032761823178,0.00045032746438513,8.881639921997e-13,-2.6418468669211e-12,-5.7634176080188e-13,-9.3074139737155e-13,-0.00046181655084978,0.00046181654898319,-0.00047221721157147,0.00047221721093147,-0.00047221721147989,0.00047221721073995,-0.00047221721258472,0.00047221720969293,-0.00047221721274666,0.00047221720973889,-0.00045032754243675,0.00045032754008193,-0.00045032754298895,0.00045032753955658,-0.00045032754021245,0.00045032754183929,-0.00045032754375288,0.00045032753886913,-8.0342838257911e-11,8.0535163639856e-11,-0.00046181654981275,0.00046181655007248,-2.4755479031226e-14,3.3161203859749e-13,-0.00047221723797072,0.00047221718456403,-0.0004722172377553,0.00047221718451001,-0.00047221718439722,0.00047221723809514,-0.00047221718407696,0.00047221723812159,-0.00045032746276519,0.0004503276206614,-0.00045032762028646,0.00045032746270623,7.7055406208865e-05,0.00013226981831968,0.76396284337068,0.45884374202293,1368840,32768,0.0019223797323915,0.0019223797323758,0.0019223797324845,20.701303968281,20.672832834364,8.0810431746244e-05,8.0810431746244e-05,8.0810431746244e-05,763481.56840647,0.0057838279222373
17761359,0.33439346767088,0.0056323766784679,0.0018774588928103,0.0018774588927845,0.0018774588928732,-0.00046916449705979,0.00046916449980286,8.1776111898856e-11,-7.9032534845605e-11,-3.477016573648e-13,3.1450660527439e-12,-0.00047986415201771,0.00047986420712436,-0.00047986420553941,0.000479864153645,-0.00047986415089016,0.00047986420821414,-0.00047986420436377,0.00047986415475683,-0.00045733060409628,0.00045733076533589,-0.00045733076139885,0.0004573306079521,8.0361922939593e-13,-2.6723161272825e-12,-5.5891169769011e-13,-9.6357186501153e-13,-0.0004691644993716,0.00046916449747992,-0.00047986417992871,0.00047986417933301,-0.00047986417988703,0.00047986417913351,-0.00047986418093279,0.00047986417815099,-0.00047986418108717,0.0004798641780876,-0.00045733068604734,0.00045733068390871,-0.00045733068632567,0.00045733068326477,-0.00045733068407532,0.00045733068533985,-0.00045733068759559,0.00045733068207412,-8.0319821578702e-11,8.0549410204633e-11,-0.00046916449832006,0.00046916449858084,-6.9068794407506e-14,3.3742781681182e-13,-0.00047986420641067,0.00047986415296405,-0.00047986420611689,0.00047986415289443,-0.00047986415278362,0.00047986420658241,-0.00047986415250528,0.0004798642065397,-0.00045733060594328,0.00045733076380527,-0.00045733076338586,0.00045733060634405,8.4028113051279e-05,0.00011662179470179,0.76029863559496,0.42320253177143,1368840,32768,0.0019529365139488,0.0019529365139256,0.0019529365140283,20.274330056725,20.246533796662,7.73946404538e-05,7.73946404538e-05,7.73946404538e-05,805021.69614228,0.0058760342462219
17847759,0.34042000269852,0.0057315735398714,0.0019105245132781,0.0019105245132526,0.0019105245133407,-0.00047620845002723,0.00047620845272912,8.1769632346802e-11,-7.9068799840675e-11,-3.1590423169551e-13,3.1107955996827e-12,-0.00048721798728635,0.00048721804236347,-0.00048721804080756,0.00048721798888255,-0.00048721798616389,0.00048721804343917,-0.00048721803963773,0.00048721798998584,-0.00046401202687163,0.00046401218789201,-0.00046401218416767,0.00046401203063801,8.0061632113272e-13,-2.6085130176002e-12,-5.3760597356536e-13,-9.8752851550525e-13,-0.00047620845230056,0.00047620845044425,-0.00048721801513821,0.00048721801458548,-0.00048721801513374,0.00048721801437413,-0.0004872180161565,0.00048721801342209,-0.00048721801630737,0.00048721801335647,-0.00046401210861648,0.00046401210645531,-0.00046401210897118,0.00046401210582203,-0.00046401210672539,0.00046401210810827,-0.00046401210989373,0.00046401210486413,-8.0309710240538e-11,8.0588757098201e-11,-0.00047620845125391,0.00047620845153536,-7.4408932740534e-14,3.7710861929642e-13,-0.00048721804166741,0.00048721798820199,-0.00048721804138803,0.00048721798815914,-0.00048721798803942,0.00048721804183284,-0.00048721798776242,0.00048721804181925,-0.00046401202861262,0.0004640121863608,-0.00046401218590194,0.00046401202889231,9.8943555002845e-05,0.00010944949782126,0.75667242200925,0.3875613215199,1368840,32768,0.0019822281816953,0.0019822281816713,0.0019822281817638,19.846100974694,19.827089874111,7.3968807797549e-05,7.3968807797549e-05,7.3968807797549e-05,849913.98586637,0.005964431187942
17934159,0.34626744597336,0.005827372884115,0.0019424576280263,0.0019424576280001,0.0019424576280886,-0.00048298689665002,0.00048298689938982,8.1761457978876e-11,-7.9001031587419e-11,-3.1372165131302e-13,3.1192864579399e-12,-0.00049432334021903,0.00049432339529567,-0.00049432339371444,0.00049432334182512,-0.00049432333909416,0.00049432339634097,-0.00049432339253378,0.00049432334291174,-0.0004704089385563,0.00047040909977215,-0.0004704090960138,0.00047040894264475,8.0979712890064e-13,-2.6052367794517e-12,-5.339489602846e-13,-9.7623811777209e-13,-0.00048298689892976,0.00048298689709321,-0.00049432336804358,0.00049432336752855,-0.00049432336803028,0.00049432336729774,-0.00049432336908524,0.00049432336636024,-0.00049432336921073,0.00049432336626425,-0.00047040902056128,0.00047040901844677,-0.00047040902081591,0.00047040901780404,-0.00047040901861326,0.00047040902015562,-0.00047040902195228,0.00047040901695784,-8.0293737404967e-11,8.0527401737271e-11,-0.0004829868978947,0.00048298689817256,-6.926195762415e-14,3.7448619205683e-13,-0.00049432339453061,0.00049432334111832,-0.00049432339425054,0.00049432334108369,-0.00049432334095639,0.00049432339473278,-0.00049432334067006,0.00049432339471565,-0.0004704089406291,0.00047040909825734,-0.00047040909805985,0.00047040894091036,0.00011808720288661,0.00011133406869906,0.75370166424364,0.36090039244192,1368840,32768,0.0020104148969301,0.002010414896895,0.0020104148969871,19.426105700137,19.407645951561,7.0608845601094e-05,7.0608845601094e-05,7.0608845601094e-05,898069.06939254,0.006049501139548
18020559,0.3519406516869,0.0059205619192847,0.0019735206397508,0.0019735206397231,0.0019735206398108,-0.00048957176612165,0.00048957176889243,8.1750655235363e-11,-7.9002197154753e-11,-2.9380802436653e-13,3.1479433619029e-12,-0.00050121292995028,0.00050121298516345,-0.00050121298338922,0.00050121293164942,-0.00050121292898169,0.00050121298619915,-0.00050121298225194,0.00050121293270962,-0.00047664467054399,0.00047664483154804,-0.00047664482777442,0.0004766446747749,7.4458261380637e-13,-2.6814214667677e-12,-5.9502534444299e-13,-1.0553014818524e-12,-0.00048957176851835,0.00048957176648692,-0.00050121295807629,0.00050121295706101,-0.00050121295778142,0.00050121295712924,-0.000501212958868,0.00050121295615176,-0.00050121295917884,0.00050121295613842,-0.00047664475218127,0.00047664475003712,-0.00047664475270225,0.00047664474918857,-0.00047664475064634,0.00047664475177334,-0.00047664475397108,0.00047664474830435,-8.033595918865e-11,8.0473484075595e-11,-0.00048957176742425,0.00048957176762059,-1.3433540349858e-13,3.3050267542895e-13,-0.00050121298438349,0.00050121293089458,-0.00050121298405825,0.00050121293096931,-0.00050121293079015,0.00050121298453747,-0.0005012129305201,0.00050121298443358,-0.00047664467256278,0.00047664482982715,-0.00047664482971827,0.00047664467288103,0.0001391121235923,0.00012058427014259,0.75619841425614,0.41412767141838,1368840,32768,0.0020377959200623,0.002037795920044,0.0020377959201263,19.006625113065,18.98820202901,6.7253000904517e-05,6.7253000904517e-05,6.7253000904517e-05,936738.05876468,0.0061321462554163
18106959,0.35744454148388,0.0060111751224478,0.0020037250408054,0.0020037250407788,0.0020037250408636,-0.00049610487884797,0.00049610488155678,8.1709983992547e-11,-7.9064248523832e-11,-2.9841525126597e-13,3.0810074067504e-12,-0.0005079677853281,0.0005079678403858,-0.00050796783878327,0.0005079677869314,-0.00050796778420948,0.00050796784144665,-0.00050796783763901,0.00050796778796414,-0.00048291998002669,0.00048292014107161,-0.00048292013760005,0.00048291998389938,7.019128291037e-13,-2.6609595624531e-12,-5.794804810926e-13,-1.0360412246518e-12,-0.00049610488119477,0.00049610487920263,-0.0005079678132905,0.00050796781255009,-0.00050796781323827,0.0005079678124623,-0.0005079678142825,0.00050796781136987,-0.00050796781440889,0.00050796781133939,-0.00048292006163118,0.0004829200595335,-0.00048292006235018,0.00048292005880238,-0.00048292005987616,0.00048292006137599,-0.00048292006331116,0.00048292005782578,-8.0304936312848e-11,8.0526194428565e-11,-0.00049610488008633,0.00049610488034662,-1.0405911518311e-13,3.5451825059315e-13,-0.0005079678396212,0.00050796778627223,-0.00050796783942321,0.00050796778616444,-0.00050796778604097,0.00050796783989747,-0.00050796778585649,0.00050796783983803,-0.00048291998198222,0.00048292013952808,-0.00048292013908401,0.00048291998193264,0.00016133633474002,0.00013517210119357,0.75831893473163,0.45915912526608,1368840,32768,0.0020649610559199,0.0020649610559046,0.0020649610559785,18.587178853113,18.568758106459,6.38974308249e-05,6.38974308249e-05,6.38974308249e-05,938045.8281187,0.0062141462539933
18193359,0.3627845650178,0.0060991276988817,0.0020330425662824,0.0020330425662584,0.0020330425663409,-0.00050241394791894,0.00050241395064132,8.1775079298048e-11,-7.9042525599217e-11,-2.80972975292e-13,3.0677997808225e-12,-0.0005144928438045,0.00051449289892683,-0.00051449289731471,0.00051449284542875,-0.00051449284268903,0.00051449289997069,-0.00051449289615771,0.00051449284649051,-0.00048898059726557,0.0004889807584899,-0.00048898075462953,0.00048898060116987,6.9239903886111e-13,-2.6396960355687e-12,-6.0040732708594e-13,-1.0706927910702e-12,-0.00050241395027767,0.00050241394827449,-0.00051449287177219,0.00051449287105254,-0.00051449287175924,0.00051449287086878,-0.00051449287277402,0.00051449286991656,-0.00051449287295297,0.00051449286984175,-0.00048898067902368,0.00048898067674264,-0.00048898067941914,0.00048898067616063,-0.00048898067716666,0.00048898067840198,-0.00048898068047562,0.0004889806752443,-8.0301000903661e-11,8.0573760835738e-11,-0.00050241394915057,0.00050241394944155,-8.9047485542794e-14,3.8332614259065e-13,-0.00051449289820662,0.00051449284476232,-0.00051449289791863,0.00051449284474013,-0.00051449284457232,0.00051449289837794,-0.00051449284430384,0.00051449289836938,-0.00048898059886208,0.00048898075669578,-0.00048898075633193,0.00048898059928283,0.00018372740822198,0.00015322858935056,0.75863952731271,0.47449298444492,1368840,32768,0.00209119389849,0.0020911938984732,0.0020911938985563,18.167734806611,18.149314183908,6.0541878452884e-05,6.0541878452884e-05,6.0541878452884e-05,939755.49363418,0.0062933384108343
18279759,0.36796513716077,0.006184472439286,0.0020614908130826,0.0020614908130606,0.0020614908131428,-0.00050846256881752,0.00050846257150988,8.1757617934422e-11,-7.9080284122191e-11,-3.0180198603884e-13,3.038825636551e-12,-0.00052077485079714,0.00052077490595417,-0.00052077490431638,0.00052077485244135,-0.00052077484972104,0.00052077490696906,-0.00052077490319435,0.0005207748534846,-0.00049476751793348,0.00049476767906234,-0.00049476767525292,0.00049476752161914,6.9460675082879e-13,-2.6289005418342e-12,-5.4776107509868e-13,-1.0722428760691e-12,-0.00050846257114488,0.00050846256917119,-0.00052077487875171,0.00052077487805831,-0.00052077487876947,0.00052077487784332,-0.00052077487971612,0.00052077487694216,-0.000520774879922,0.00052077487684674,-0.00049476759951198,0.00049476759739045,-0.00049476760006729,0.00049476759679743,-0.00049476759784619,0.00049476759916064,-0.00049476760124747,0.00049476759583233,-8.0279377667177e-11,8.0614579184354e-11,-0.00050846257001716,0.00050846257034002,-1.0346836117141e-13,4.2261076600178e-13,-0.00052077490519685,0.00052077485174452,-0.00052077490489161,0.00052077485174896,-0.00052077485154758,0.00052077490537494,-0.00052077485125347,0.00052077490537338,-0.00049476751951131,0.00049476767751194,-0.00049476767692863,0.00049476751998048,0.00020578580892851,0.00017327932731057,0.75880650171251,0.4864733859211,1368840,32768,0.0021163431423531,0.0021163431423295,0.002116343142415,17.748290886695,17.729870261357,5.7186327093555e-05,5.7186327093555e-05,5.7186327093555e-05,950722.67729109,0.0063692652971767
18366159,0.37307110053386,0.0062685980261742,0.0020895326753788,0.0020895326753567,0.0020895326754387,-0.00051480331347897,0.00051480331618148,8.1761956640113e-11,-7.9058771249983e-11,-2.7609609486559e-13,3.0398274294763e-12,-0.00052734332440313,0.00052734337953358,-0.00052734337791403,0.00052734332603085,-0.00052734332331512,0.00052734338055748,-0.00052734337678499,0.00052734332708133,-0.00050085359962335,0.00050085376078033,-0.00050085375701735,0.00050085360340798,6.8821913714248e-13,-2.6103551377953e-12,-5.7640486181537e-13,-1.0540433879333e-12,-0.00051480331581185,0.00051480331383843,-0.00052734335235607,0.00052734335165416,-0.00052734335235524,0.00052734335145043,-0.00052734335332565,0.00052734335053549,-0.00052734335352382,0.00052734335044515,-0.00050085368135927,0.00050085367917213,-0.00050085368175635,0.00050085367861627,-0.00050085367956813,0.00050085368083488,-0.00050085368285828,0.00050085367761949,-8.0289611339839e-11,8.0586871920497e-11,-0.0005148033146922,0.0005148033149989,-8.0910329715554e-14,3.9876783262232e-13,-0.00052734337879012,0.00052734332535222,-0.00052734337848935,0.00052734332533548,-0.00052734332516734,0.00052734337897182,-0.00052734332488121,0.00052734337896198,-0.00050085360129767,0.00050085375920288,-0.0005008537587282,0.00050085360168552,0.00022935721131622,0.00019472633074281,0.75901919312229,0.49845378739728,1368840,32768,0.0021427063391778,0.0021427063391567,0.0021427063392415,17.533484645972,17.523846026441,5.5467877167771e-05,5.5467877167771e-05,5.5467877167771e-05,960637.820144,0.0064488632155206
18452559,0.37814525821719,0.006352216328913,0.0021174054429582,0.0021174054429366,0.0021174054430183,-0.00052131248286016,0.00052131248555583,8.1755537453862e-11,-7.9061094620182e-11,-2.7178310897729e-13,3.0266978305765e-12,-0.00053407894289681,0.00053407899803144,-0.00053407899641046,0.00053407894452954,-0.00053407894181671,0.00053407899904697,-0.00053407899528786,0.00053407894557098,-0.00050711220673098,0.00050711236788309,-0.00050711236413782,0.00050711221054699,6.8528365329008e-13,-2.595718790808e-12,-5.7755840745769e-13,-1.0533416814288e-12,-0.00052131248518491,0.00052131248322049,-0.00053407897085344,0.00053407897015026,-0.00053407897084872,0.00053407896995062,-0.00053407897181383,0.00053407896903752,-0.00053407897200375,0.00053407896895074,-0.00050711228849799,0.00050711228629883,-0.00050711228889133,0.00050711228571281,-0.00050711228668873,0.00050711228793976,-0.00050711228997808,0.00050711228475368,-8.0293147643572e-11,8.057907582778e-11,-0.00052131248407186,0.00052131248437462,-8.1093728524611e-14,3.9686719950889e-13,-0.00053407899728607,0.00053407894384669,-0.00053407899698803,0.00053407894382792,-0.00053407894366216,0.00053407899747002,-0.00053407894338017,0.00053407899745573,-0.00050711220841244,0.00050711236627533,-0.00050711236584952,0.00050711220878828,0.00025392680581868,0.00021721679406409,0.75927130580271,0.51043418887345,1368840,32768,0.0021697690915075,0.0021697690914854,0.0021697690915709,17.426433234172,17.421616675744,5.4611465873375e-05,5.4611465873375e-05,5.4611465873375e-05,969112.74987495,0.0065305797965186
18538959,0.38318894540271,0.0064353957402055,0.0021451319133888,0.0021451319133675,0.0021451319134491,-0.0005277969776404,0.00052779698033242,8.1752754377118e-11,-7.9063460900835e-11,-2.6500477193318e-13,3.0164832749771e-12,-0.00054078802699907,0.00054078808212892,-0.00054078808050421,0.00054078802862845,-0.00054078802591565,0.00054078808314178,-0.00054078807938219,0.00054078802966168,-0.00051335200774808,0.00051335216887312,-0.00051335216516453,0.00051335201153285,6.8115571321935e-13,-2.5826581898004e-12,-5.6935331252947e-13,-1.0555137180157e-12,-0.00052779697995993,0.00052779697800235,-0.00054078805494381,0.000540788054249,-0.00054078805494266,0.00054078805404782,-0.0005407880559029,0.00054078805313591,-0.00054078805609612,0.00054078805305099,-0.00051335208946651,0.00051335208730386,-0.00051335208986439,0.0005133520867181,-0.00051335208769536,0.000513352088934,-0.00051335209097539,0.00051335208578031,-8.0293253449164e-11,8.0578015257239e-11,-0.00052779697884885,0.00052779697915472,-8.6005688761715e-14,4.0225582165488e-13,-0.00054078808137259,0.00054078802794491,-0.00054078808107682,0.00054078802792874,-0.00054078802775192,0.0005407880815604,-0.00054078802747012,0.00054078808154946,-0.00051335200942465,0.00051335216729127,-0.00051335216683913,0.00051335200977628,0.00027867190154467,0.00024041037068134,0.75991186753633,0.52795656460336,1368840,32768,0.002196728532324,0.002196728532302,0.0021967285323879,17.323898944094,17.319387325046,5.3791191552747e-05,5.3791191552747e-05,5.3791191552747e-05,975866.4043233,0.0066119910099821
18625359,0.3882018426,0.0065177799722124,0.0021725933240578,0.0021725933240366,0.0021725933241181,-0.00053422862540491,0.00053422862809671,8.1750556576612e-11,-7.9062662469344e-11,-2.6503560922642e-13,3.0138595757176e-12,-0.0005474454851619,0.00054744554029775,-0.00054744553867029,0.0005474454867918,-0.00054744548408844,0.00054744554131797,-0.00054744553755248,0.0005474454878319,-0.0005195330451869,0.00051953320634662,-0.00051953320261967,0.00051953304897657,6.8603285834356e-13,-2.5749539545713e-12,-5.5493834113225e-13,-1.0495440106803e-12,-0.00053422862771977,0.0005342286257736,-0.00054744551311263,0.00054744551242862,-0.00054744551311104,0.00054744551222004,-0.00054744551406853,0.00054744551131762,-0.00054744551426677,0.00054744551122594,-0.0005195331269173,0.000519533124757,-0.00051953312734201,0.00051953312416764,-0.00051953312512615,0.00051953312638419,-0.00051953312840453,0.00051953312320128,-8.0285895820993e-11,8.0582115646681e-11,-0.00053422862661003,0.00053422862692179,-8.8027788752655e-14,4.0853260049184e-13,-0.0005474455395429,0.00054744548611675,-0.0005474455392427,0.00054744548610271,-0.00054744548592499,0.00054744553973429,-0.00054744548563326,0.00054744553973163,-0.00051953304684953,0.00051953320476026,-0.00051953320429407,0.00051953304723112,0.00030346580123112,0.00026412607447479,0.75736417734621,0.4951865551861,1368840,32768,0.002223467511951,0.0022234675119338,0.0022234675120137,17.2216491017,17.217157974349,5.2973192813601e-05,5.2973192813601e-05,5.2973192813601e-05,982426.19253961,0.0066927431104633
18711759,0.39318349051393,0.0066003729447613,0.0022001243149072,0.0022001243148866,0.0022001243149676,-0.0005405842824159,0.00054058428509213,8.1742218360751e-11,-7.9065690068029e-11,-2.5240981846507e-13,2.9814138022078e-12,-0.00055405506803464,0.00055405512316869,-0.00055405512153878,0.00055405506966679,-0.00055405506697268,0.00055405512416262,-0.00055405512043695,0.00055405507068456,-0.00052563127093435,0.00052563143203653,-0.00052563142834097,0.00052563127469148,6.6693995632449e-13,-2.5487868716047e-12,-5.5006438708702e-13,-1.0452440096895e-12,-0.00054058428471399,0.0005405842827845,-0.00055405509598067,0.00055405509529863,-0.00055405509598035,0.0005540550950968,-0.00055405509691827,0.00055405509420858,-0.00055405509711491,0.00055405509411328,-0.00052563135260291,0.00052563135048273,-0.0005256313530175,0.0005256313499121,-0.00052563135089084,0.00052563135206371,-0.00052563135412732,0.0005256313489508,-8.0284752826499e-11,8.0577678245475e-11,-0.00054058428361323,0.00054058428392501,-8.883841840024e-14,4.0836436298432e-13,-0.00055405512241659,0.00055405506899413,-0.000554055122113,0.0005540550689746,-0.0005540550687984,0.00055405512260811,-0.0005540550685095,0.00055405512259974,-0.00052563127255282,0.0005256314304382,-0.00052563142997984,0.0005256312729354,0.00032804220009306,0.00028807094763168,0.76397863601385,0.61218492632643,1368840,32768,0.0022498899135601,0.0022498899135402,0.0022498899136229,17.119418324855,17.114928623651,5.2155346598838e-05,5.2155346598838e-05,5.2155346598838e-05,999849.73079456,0.0067725452903632
18798159,0.39813331574866,0.0066827205916454,0.002227573530535,0.0022275735305149,0.0022275735305956,-0.00054720849726679,0.00054720849995785,8.1745738841438e-11,-7.9065737213648e-11,-2.459374867786e-13,2.9892885028176e-12,-0.00056077260169869,0.00056077265683318,-0.00056077265514279,0.00056077260336595,-0.0005607726005941,0.00056077265784194,-0.00056077265408448,0.00056077260432041,-0.00053215976730972,0.00053215992837661,-0.00053215992485187,0.00053215977096013,6.7848021407166e-13,-2.5388774978587e-12,-5.5102513714853e-13,-1.0400035521348e-12,-0.0005472084995698,0.00054720849764789,-0.00056077262961924,0.00056077262894162,-0.00056077262961468,0.00056077262877096,-0.00056077263056536,0.00056077262783361,-0.00056077263074679,0.00056077262777032,-0.0005321598490134,0.00053215984688039,-0.00053215984950339,0.00053215984625931,-0.00053215984726041,0.00053215984851097,-0.0005321598505436,0.00053215984525926,-8.0288392862357e-11,8.0577293257237e-11,-0.00054720849847079,0.00054720849878397,-8.1207798569262e-14,4.0984699416154e-13,-0.00056077265607888,0.00056077260264213,-0.000560772655786,0.00056077260261369,-0.00056077260244319,0.00056077265626997,-0.00056077260219717,0.00056077265629444,-0.00053215976902734,0.00053215992687091,-0.00053215992640777,0.00053215976928605,0.00035370344223723,0.00031222971398466,0.76671050755413,0.66004413400674,1368840,32768,0.002277428195182,0.0022774281951676,0.0022774281952446,17.017188821589,17.012699272954,5.1337510572707e-05,5.1337510572707e-05,5.1337510572707e-05,955670.33219162,0.0068557239641467
18884559,0.40305198116989,0.0067647805817263,0.0022549268605616,0.0022549268605419,0.0022549268606229,-0.00055367542057518,0.00055367542324712,8.17375379155e-11,-7.9072321218393e-11,-2.4361991052014e-13,2.9748622376477e-12,-0.00056739326892414,0.00056739332404703,-0.00056739332241803,0.00056739327055474,-0.00056739326786264,0.00056739332503868,-0.00056739332132624,0.00056739327156318,-0.00053847913911469,0.00053847930020911,-0.00053847929656108,0.0005384791428821,6.6978852371448e-13,-2.5304599314802e-12,-5.5584081356234e-13,-1.0372212106628e-12,-0.00055367542286382,0.00055367542094909,-0.00056739329685709,0.00056739329617674,-0.00056739329685284,0.00056739329598085,-0.00056739329779467,0.00056739329509151,-0.00056739329797962,0.00056739329500752,-0.00053847922082977,0.00053847921868869,-0.00053847922124833,0.00053847921809208,-0.00053847921907851,0.00053847922029534,-0.00053847922226003,0.0005384792171529,-8.0288218485331e-11,8.057584527206e-11,-0.00055367542177262,0.00055367542208024,-8.4953375320933e-14,3.985523392055e-13,-0.00056739332329056,0.00056739326987107,-0.00056739332299873,0.00056739326985093,-0.00056739326967849,0.00056739332348752,-0.00056739326939797,0.00056739332347477,-0.00053847914077314,0.00053847929862435,-0.00053847929819411,0.00053847914111182,0.00037889233680919,0.00033657166196791,0.76833227356098,0.68655841776329,1368840,32768,0.0023043118249285,0.0023043118249089,0.002304311824992,16.914959409107,16.910469922256,5.0519675272855e-05,5.0519675272855e-05,5.0519675272855e-05,937111.4956294,0.0069369319786741
18970959,0.40793862266976,0.0068465171968809,0.0022821723989463,0.0022821723989268,0.0022821723990077,-0.0005600781452134,0.00056007814787934,8.1734817410374e-11,-7.9071597152278e-11,-2.4334841881402e-13,2.9625502020073e-12,-0.00057395869427231,0.00057395874939913,-0.00057395874777223,0.00057395869590032,-0.00057395869321259,0.00057395875038278,-0.00057395874667894,0.00057395869691099,-0.00054473007849196,0.00054473023958167,-0.00054473023591277,0.00054473008223651,6.6462529174179e-13,-2.5229417199799e-12,-5.4795311334969e-13,-1.0197075545165e-12,-0.00056007814749334,0.00056007814558947,-0.00057395872220503,0.00057395872154131,-0.00057395872220122,0.00057395872133921,-0.00057395872313614,0.00057395872045125,-0.00057395872332969,0.00057395872036547,-0.0005447301601581,0.0005447301580582,-0.00054473016054739,0.00054473015749946,-0.00054473015842834,0.00054473015961927,-0.00054473016163713,0.00054473015653085,-8.0284370602881e-11,8.0576070441652e-11,-0.00056007814640722,0.00056007814671564,-7.863981819577e-14,3.9528368906051e-13,-0.00057395874864752,0.00057395869522446,-0.00057395874834922,0.00057395869520587,-0.0005739586950339,0.00057395874883673,-0.00057395869475372,0.00057395874882824,-0.00054473008011887,0.00054473023799193,-0.00054473023754884,0.00054473008048805,0.00040392248957882,0.00036102944574222,0.77005332286622,0.71307270151984,1368840,32768,0.0023309278710144,0.0023309278709937,0.002330927871077,16.812729983811,16.808240571559,4.9701839870489e-05,4.9701839870489e-05,4.9701839870489e-05,924176.88973101,0.0070173381058689
19057359,0.41279274615544,0.0069285563575574,0.0023095187858384,0.0023095187858192,0.0023095187858998,-0.00056650480133108,0.00056650480397645,8.173404211053e-11,-7.9086686544248e-11,-2.3939545133917e-13,2.960801784832e-12,-0.00058052019236748,0.00058052024748407,-0.00058052024593476,0.00058052019385054,-0.00058052019128379,0.00058052024858642,-0.00058052024479663,0.00058052019508366,-0.00055105280869596,0.0005510529703558,-0.00055105296664488,0.00055105281253215,6.8463968766867e-13,-2.4971124796337e-12,-5.2715792509901e-13,-1.0041925726062e-12,-0.00056650480359145,0.00056650480172007,-0.00058052022031327,0.00058052021957667,-0.00058052022045717,0.00058052021940368,-0.00058052022106657,0.00058052021853999,-0.00058052022151632,0.00058052021844888,-0.00055105289084521,0.00055105288834769,-0.00055105289092508,0.00055105288784482,-0.00055105288888663,0.00055105288983611,-0.00055105289161897,0.00055105288676236,-8.0268166539081e-11,8.0606481497909e-11,-0.00056650480250531,0.00056650480284445,-6.5857105757684e-14,4.1336644546825e-13,-0.00058052024661433,0.0005805201933461,-0.0005805202463904,0.00058052019325524,-0.00058052019299734,0.0005805202468192,-0.00058052019278084,0.00058052024692255,-0.00055105281015496,0.00055105296869392,-0.000551052968186,0.00055105281068331,0.00042904777767759,0.00038555712013932,0.77777936616581,0.84291508408553,1368840,32768,0.0023576427890594,0.0023576427890677,0.0023576427891472,16.710500033221,16.706011220863,4.8884000265766e-05,4.8884000265766e-05,4.8884000265766e-05,903111.39686849,0.0070980489878339
19143759,0.417694738928,0.0070121340662575,0.0023373780220718,0.0023373780220524,0.0023373780221334,-0.00057362829592195,0.00057362829855992,8.1706174403045e-11,-7.907745714973e-11,-2.4375705338934e-13,2.9377619004493e-12,-0.00058767503062115,0.00058767508576228,-0.00058767508409792,0.00058767503224358,-0.00058767502955485,0.00058767508675485,-0.00058767508301018,0.0005876750331928,-0.00055818708669076,0.00055818724793416,-0.00055818724422029,0.00055818709067608,6.6350109814395e-13,-2.4992353559578e-12,-5.575156300449e-13,-1.0033141288538e-12,-0.0005736282981924,0.00057362829627669,-0.00058767505861248,0.00058767505783734,-0.00058767505851654,0.0005876750576283,-0.00058767505951899,0.00058767505675338,-0.00058767505968708,0.00058767505674169,-0.00055818716841456,0.00055818716624608,-0.00055818716892782,0.00055818716590866,-0.00055818716664555,0.00055818716798242,-0.00055818716972703,0.0005581871648602,-8.0292104660729e-11,8.0545355777022e-11,-0.00057362829710964,0.00057362829739828,-1.0152339852986e-13,3.4628092135555e-13,-0.00058767508493706,0.00058767503161324,-0.00058767508468838,0.00058767503154539,-0.00058767503139016,0.00058767508510079,-0.00058767503112509,0.00058767508519348,-0.00055818708827681,0.00055818724605222,-0.00055818724596027,0.00055818708874216,0.00045699004455681,0.00041060450773682,0.78427281750048,0.93075947544679,1368840,32768,0.0023872537036457,0.0023872537036191,0.0023872537036998,16.826758888298,16.831644062688,4.9814071106386e-05,4.9814071106386e-05,4.9814071106386e-05,845934.82583792,0.0071875162664507
19230159,0.42268406238377,0.0070973672359391,0.0023657890786319,0.0023657890786133,0.0023657890786938,-0.00058100894830802,0.00058100895094926,8.1763760320306e-11,-7.9086933007307e-11,-2.281848526388e-13,2.8938978287019e-12,-0.00059511873551916,0.00059511879065153,-0.00059511878903541,0.00059511873713507,-0.00059511873449707,0.00059511879162745,-0.00059511878795301,0.00059511873812487,-0.00056554312525037,0.00056554328671218,-0.00056554328277378,0.00056554312915581,6.4058504821355e-13,-2.4628564084861e-12,-5.7513640056599e-13,-9.6498140283347e-13,-0.00058100895055855,0.0005810089486908,-0.00059511876345398,0.0005951187627746,-0.0005951187634415,0.00059511876261568,-0.0005951187643631,0.00059511876171256,-0.00059511876455148,0.00059511876166529,-0.00056554320712501,0.00056554320486819,-0.00056554320745885,0.00056554320433085,-0.00056554320540035,0.00056554320630409,-0.00056554320834487,0.0005655432036426,-8.028433830975e-11,8.0620002673081e-11,-0.00058100894949254,0.00058100894979777,-5.0718524113315e-14,3.4148790601417e-13,-0.00059511878989304,0.00059511873648491,-0.0005951187896232,0.00059511873644276,-0.00059511873628981,0.00059511879009678,-0.00059511873604418,0.00059511879007917,-0.00056554312670339,0.0005655432847288,-0.00056554328454841,0.00056554312733432,0.00048611901599507,0.00043640623809684,0.78516940568312,0.89225189368361,1368840,32768,0.0024179326082464,0.0024179326082299,0.002417932608315,17.047946510478,17.057544472469,5.1583572083826e-05,5.1583572083826e-05,5.1583572083826e-05,805116.11016062,0.0072802188867849
19316559,0.42776232328412,0.0071841467994623,0.0023947155998056,0.0023947155997879,0.0023947155998688,-0.00058835455309751,0.00058835455572503,8.1751967945261e-11,-7.9122428128838e-11,-1.9359532108995e-13,2.8855587893362e-12,-0.00060261468676906,0.00060261474190873,-0.00060261474029548,0.0006026146883972,-0.00060261468575061,0.00060261474287002,-0.00060261473924881,0.00060261468937036,-0.00057277461646671,0.00057277477749582,-0.00057277477387364,0.00057277462005508,6.3106454494074e-13,-2.4292902868493e-12,-5.8740848154469e-13,-9.2913413029598e-13,-0.00058835455533221,0.00058835455348138,-0.0006026147147273,0.00060261471402711,-0.00060261471468726,0.00060261471387258,-0.00060261471562697,0.00060261471298171,-0.00060261471577596,0.00060261471294071,-0.00057277469806031,0.00057277469594333,-0.00057277469837793,0.0005727746954919,-0.00057277469635351,0.0005727746976376,-0.00057277469939187,0.00057277469462461,-8.033347433809e-11,8.0594200681903e-11,-0.00058835455429053,0.00058835455456302,-2.9510539649741e-14,3.1490890916075e-13,-0.00060261474115244,0.00060261468771978,-0.00060261474090758,0.00060261468764908,-0.00060261468752055,0.00060261474134517,-0.00060261468728695,0.00060261474130007,-0.00057277461809825,0.00057277477598179,-0.0005727747755495,0.00057277461841891,0.00051525159756088,0.00046292330692179,0.78496349503567,0.85374431192041,1368840,32768,0.0024484648224181,0.0024484648223995,0.0024484648224826,17.273548384275,17.283444882251,5.3388387074195e-05,5.3388387074195e-05,5.3388387074195e-05,798325.2865729,0.0073724869366625
19402959,0.43292923596225,0.0072723247023671,0.0024241082341073,0.00242410823409,0.0024241082341698,-0.00059581239490359,0.0005958123974409,8.1681074611003e-11,-7.9195523425239e-11,-2.1189235036356e-13,2.8474731881193e-12,-0.00061022405783864,0.00061022411288798,-0.00061022411145211,0.00061022405938344,-0.00061022405689654,0.00061022411399792,-0.00061022411036527,0.00061022406049324,-0.00058011146772352,0.00058011162844047,-0.00058011162453964,0.00058011147087037,7.7327765631016e-13,-2.2666127271253e-12,-4.3181472012141e-13,-7.8622409904052e-13,-0.00059581239694451,0.00059581239541504,-0.00061022408563406,0.00061022408515754,-0.00061022408552569,0.00061022408501359,-0.00061022408625764,0.00061022408409289,-0.00061022408646881,0.00061022408400129,-0.00058011154883912,0.00058011154704225,-0.00058011154921884,0.0005801115467645,-0.00058011154707125,0.00058011154850494,-0.00058011155006619,0.00058011154580305,-8.0232147021805e-11,8.069716630108e-11,-0.00059581239593652,0.00059581239644995,7.0399055239539e-14,4.269287811482e-13,-0.0006102241121729,0.00061022405887221,-0.00061022411197492,0.00061022405895064,-0.00061022405846093,0.00061022411246288,-0.00061022405813644,0.00061022411246267,-0.0005801114687087,0.00058011162704955,-0.00058011162615282,0.00058011146965577,0.00054493621957317,0.00049009944518402,0.78385046178809,0.81523673015727,1368840,32768,0.0024794625849723,0.0024794625850036,0.0024794625850596,17.499428296251,17.509345292031,5.5195426370003e-05,5.5195426370003e-05,5.5195426370003e-05,793508.13002407,0.0074661705555768
19489359,0.43818483078274,0.0073618114760289,0.0024539371586603,0.0024539371586439,0.0024539371587248,-0.0006033738776871,0.00060337388030124,8.1759797706067e-11,-7.9127390330188e-11,-1.630061673323e-13,2.8839117808276e-12,-0.0006179519438952,0.00061795199896212,-0.00061795199749268,0.00061795194547015,-0.00061795194286527,0.00061795200001655,-0.00061795199650936,0.00061795194636238,-0.00058753403772455,0.00058753419910452,-0.00058753419510388,0.00058753404167505,6.8241235865322e-13,-2.3451944735657e-12,-5.6843282594382e-13,-9.0082434808157e-13,-0.00060337387987639,0.00060337387808047,-0.00061795197174112,0.00061795197111527,-0.00061795197182675,0.00061795197110681,-0.00061795197254867,0.00061795197014236,-0.0006179519728884,0.00061795197009231,-0.00058753411951537,0.00058753411702303,-0.00058753411969986,0.00058753411739818,-0.000587534117717,0.0005875341192755,-0.00058753412066036,0.00058753411622184,-8.0305689804536e-11,8.063440665952e-11,-0.00060337387885913,0.00060337387915387,-3.2084534545376e-14,3.0244105475103e-13,-0.00061795199834328,0.00061795194488669,-0.00061795199810988,0.00061795194485321,-0.00061795194452411,0.00061795199842529,-0.00061795194441589,0.00061795199850219,-0.0005875340393671,0.00058753419756695,-0.00058753419731555,0.00058753404035908,0.00057513807930773,0.0005178946042748,0.78202708261178,0.77672914839404,1368840,32768,0.0025108901197513,0.0025108901196858,0.0025108901198025,17.725326855292,17.735245701814,5.7002614842333e-05,5.7002614842333e-05,5.7002614842333e-05,791963.45683499,0.0075611620435851
19575759,0.44352903323696,0.0074525342421856,0.0024841780807145,0.0024841780806941,0.0024841780807769,-0.00061103240119012,0.00061103240378694,8.1737032813283e-11,-7.9154746876817e-11,-1.948676351628e-13,2.8548658446316e-12,-0.00062579139742575,0.00062579145256701,-0.0006257914509664,0.00062579139904294,-0.0006257913964417,0.00062579145351735,-0.00062579144994298,0.00062579140001377,-0.00059503446966676,0.00059503463069513,-0.00059503462705205,0.00059503447318982,6.5685197774061e-13,-2.3732800861577e-12,-5.8051738323948e-13,-9.1545928334729e-13,-0.00061103240339099,0.00061103240157465,-0.00062579142538545,0.0006257914246851,-0.00062579142532555,0.0006257914245318,-0.00062579142624322,0.00062579142365188,-0.00062579142642147,0.00062579142360396,-0.00059503455117963,0.00059503454898232,-0.0005950345513616,0.00059503454867911,-0.0005950345494048,0.00059503455083344,-0.00059503455242457,0.0005950345478314,-8.0323101419682e-11,8.0621394704085e-11,-0.00061103240235703,0.00061103240264627,-2.4779257716568e-14,3.1269650615991e-13,-0.0006257914518103,0.00062579139839239,-0.00062579145158435,0.00062579139833754,-0.00062579139816576,0.00062579145200773,-0.00062579139795643,0.00062579145199161,-0.00059503447107138,0.00059503462905228,-0.00059503462855623,0.0005950344714661,0.00060582644452546,0.00054627247234857,0.77968859156601,0.73822156663085,1368840,32768,0.0025427199460154,0.0025427199459916,0.0025427199460699,17.951226724923,17.961146111595,5.8809813799384e-05,5.8809813799384e-05,5.8809813799384e-05,793698.80677626,0.0076573787239174
19662159,0.44896166362958,0.0075444341155595,0.0025148113718394,0.0025148113718187,0.0025148113719014,-0.00061878282992892,0.00061878283252726,8.176963364088e-11,-7.9160723694229e-11,-1.901469558469e-13,2.8416877472135e-12,-0.0006337323604867,0.00063373241563937,-0.0006337324140268,0.0006337323620939,-0.00063373235948167,0.00063373241657762,-0.00063373241300903,0.0006337323630464,-0.00060260984103234,0.00060261000220561,-0.00060260999848154,0.00060260984472091,6.4009585727564e-13,-2.3720355653535e-12,-5.6887684179121e-13,-9.0223504028001e-13,-0.00061878283212255,0.00061878283032266,-0.00063373238842676,0.00063373238774267,-0.00063373238837668,0.00063373238760505,-0.00063373238928489,0.0006337323867193,-0.00063373238943739,0.00063373238667549,-0.0006026099226666,0.00060260992050755,-0.00060260992300011,0.00060260992020229,-0.00060260992100462,0.00060260992221625,-0.00060260992398205,0.00060260991916521,-8.0351596902105e-11,8.0631206713159e-11,-0.00061878283110356,0.00061878283138233,-3.6922210287114e-14,2.9898942490183e-13,-0.00063373241485882,0.00063373236143695,-0.00063373241463303,0.00063373236136384,-0.00063373236120515,0.00063373241507947,-0.00063373236098272,0.0006337324150407,-0.00060260984255057,0.0006026100004981,-0.00060261000019986,0.00060260984303129,0.00063697579631659,0.00057520074587498,0.77699614857868,0.69971398486767,1368840,32768,0.0025749306742747,0.0025749306742519,0.0025749306743364,18.177126750685,18.187046521376,6.0617014005479e-05,6.0617014005479e-05,6.0617014005479e-05,798334.23480996,0.0077547563016183
19748559,0.45448243542089,0.0076374612895937,0.0025458204298512,0.00254582042983,0.0025458204299126,-0.00062662054951743,0.0006266205521246,8.1749004241682e-11,-7.9154266391495e-11,-2.0598732487568e-13,2.8797341731566e-12,-0.00064177566348761,0.00064177571863392,-0.00064177571702511,0.00064177566509054,-0.00064177566247652,0.00064177571959054,-0.00064177571597723,0.00064177566607242,-0.00061025095120031,0.00061025111222133,-0.00061025110866109,0.00061025095476951,6.5916445121378e-13,-2.4065136297193e-12,-6.2050044119627e-13,-8.9109371887503e-13,-0.0006266205517255,0.00062662054990678,-0.00064177569144525,0.00064177569073289,-0.00064177569137138,0.00064177569061278,-0.00064177569231058,0.00064177568968812,-0.00064177569244408,0.00064177568966982,-0.00061025103294343,0.0006102510306251,-0.00061025103313231,0.00061025103032694,-0.00061025103111906,0.00061025103237944,-0.00061025103407835,0.00061025102943512,-8.0360575216059e-11,8.0594814795495e-11,-0.00062662055071262,0.00062662055096084,-1.7197915791948e-14,2.5626021554397e-13,-0.00064177571788013,0.00064177566445124,-0.00064177571765331,0.00064177566435551,-0.00064177566422598,0.00064177571807257,-0.00064177566402673,0.0006417757180103,-0.00061025095283669,0.00061025111069135,-0.00061025111030148,0.00061025095306825,0.00066856367947515,0.0006046506377532,0.77405814887282,0.66120640310447,1368840,32768,0.0026075030865042,0.0026075030864839,0.0026075030865695,18.403026849271,18.412946931157,6.2424214794168e-05,6.2424214794168e-05,6.2424214794168e-05,806352.82541661,0.0078532370297043
19834959,0.46009094958713,0.0077314652764227,0.0025771550921276,0.0025771550921058,0.0025771550921893,-0.00063453252999315,0.00063453253261514,8.1765124837444e-11,-7.9146086788435e-11,-1.8081306452029e-13,2.870933412602e-12,-0.00064991173481376,0.00064991178995552,-0.00064991178834787,0.00064991173636939,-0.00064991173377705,0.00064991179090046,-0.00064991178735313,0.00064991173738949,-0.00061793845046713,0.00061793861149943,-0.00061793860787536,0.00061793845395338,6.262447215948e-13,-2.4053723998772e-12,-6.1131744231882e-13,-8.7836428422111e-13,-0.00063453253220782,0.0006345325303894,-0.00064991176277023,0.00064991176200954,-0.00064991176266513,0.00064991176196962,-0.00064991176356213,0.00064991176105495,-0.00064991176378252,0.00064991176100241,-0.00061793853218599,0.00061793853000726,-0.00061793853247047,0.00061793852947185,-0.00061793853055172,0.00061793853167759,-0.00061793853313419,0.00061793852858824,-8.0354213498641e-11,8.0608271163824e-11,-0.0006345325311849,0.00063453253145427,4.9388050052502e-15,2.7481023708883e-13,-0.0006499117891984,0.00064991173576516,-0.00064991178898991,0.00064991173569076,-0.00064991173551743,0.00064991178940384,-0.00064991173533381,0.00064991178936607,-0.00061793845205585,0.00061793861010165,-0.00061793860960911,0.00061793845238919,0.0007005402496857,0.00063458100044448,0.77008834341269,0.60974573766279,1368840,32768,0.002640382980776,0.002640382980753,0.0026403829808402,18.628926961909,18.638847340939,6.423141569527e-05,6.423141569527e-05,6.423141569527e-05,818726.1015915,0.0079526574002377
19921359,0.46571787751593,0.0078262316902172,0.0026087438967258,0.0026087438967037,0.0026087438967877,-0.00064216265537336,0.00064216265796145,8.1738573972084e-11,-7.914758086044e-11,-1.8647156812747e-13,2.827033636063e-12,-0.00065777468574612,0.00065777474088516,-0.00065777473928211,0.00065777468735245,-0.00065777468475268,0.00065777474182399,-0.0006577747382583,0.00065777468830647,-0.00062535122406808,0.00062535138512214,-0.00062535138152871,0.00062535122767409,6.3795709908383e-13,-2.3552010208137e-12,-5.8911170892403e-13,-8.6447764962473e-13,-0.00064216265755072,0.0006421626557731,-0.00065777471368254,0.00065777471300538,-0.00065777471361953,0.00065777471288306,-0.00065777471453759,0.00065777471198956,-0.00065777471468227,0.00065777471196265,-0.00062535130571153,0.00062535130356326,-0.00062535130593494,0.00062535130322642,-0.00062535130397405,0.00062535130517372,-0.00062535130697585,0.00062535130229582,-8.0341769408211e-11,8.0595215724423e-11,-0.00064216265655189,0.00064216265681307,-1.0110264667766e-14,2.6808228085857e-13,-0.00065777474012815,0.00065777468670098,-0.00065777473990605,0.00065777468661755,-0.00065777468647834,0.00065777474032753,-0.00065777468627291,0.00065777474027311,-0.00062535122564528,0.00062535138352111,-0.00062535138318795,0.00062535122597462,0.00073136241395623,0.00066473306422325,0.77388392797075,0.68420771782491,1368840,32768,0.0026720905789583,0.0026720905789355,0.002672090579021,18.68894001126,18.691741607578,6.4711520090079e-05,6.4711520090079e-05,6.4711520090079e-05,831799.76035686,0.0080485421939117
20007759,0.47133223627288,0.0079210537137799,0.0026403512379134,0.0026403512378913,0.0026403512379752,-0.00064986260927507,0.00064986261185738,8.1735367158286e-11,-7.9154148953906e-11,-1.817205662085e-13,2.8226713575629e-12,-0.00066558902319798,0.00066558907833654,-0.00066558907673627,0.00066558902479932,-0.00066558902221152,0.00066558907926855,-0.00066558907571916,0.00066558902575244,-0.00063295501390947,0.00063295517494229,-0.00063295517135509,0.0006329550175273,6.3967020851422e-13,-2.3442414732674e-12,-5.8314075897951e-13,-8.612833207387e-13,-0.00064986261144471,0.00064986260967686,-0.00066558905113218,0.00066558905046364,-0.00066558905106972,0.00066558905034009,-0.00066558905198565,0.00066558904945355,-0.00066558905213101,0.00066558904942148,-0.00063295509555471,0.00063295509341005,-0.00063295509578083,0.00063295509308915,-0.00063295509384557,0.00063295509502542,-0.00063295509678895,0.00063295509210657,-8.0342529561459e-11,8.0597648208936e-11,-0.00064986261045042,0.00064986261071267,-1.108847007838e-14,2.6988490226032e-13,-0.00066558907758461,0.00066558902415426,-0.00066558907736119,0.00066558902407269,-0.00066558902393134,0.00066558907778264,-0.00066558902372267,0.00066558907773304,-0.00063295501549791,0.00063295517333855,-0.00063295517303076,0.00063295501583571,0.00076246704928898,0.00069491295022356,0.77617216646287,0.72742964901628,1368840,32768,0.0027040874378841,0.0027040874378615,0.0027040874379478,18.676501775191,18.676034025346,6.4612014201529e-05,6.4612014201529e-05,6.4612014201529e-05,803729.28377232,0.0081453106678559
20094159,0.47693238568761,0.008015935323823,0.0026719784412611,0.002671978441239,0.0026719784413229,-0.00065750990404152,0.00065750990662137,8.1735351423472e-11,-7.9155701230015e-11,-1.7809467697693e-13,2.819392457731e-12,-0.00067336601530973,0.00067336607044525,-0.00067336606884838,0.00067336601691039,-0.00067336601432372,0.00067336607137929,-0.00067336606783121,0.00067336601785908,-0.00064049808128094,0.00064049824230882,-0.00064049823873708,0.00064049808486238,6.4106410710804e-13,-2.3358035251586e-12,-5.7622277914257e-13,-8.5792380572252e-13,-0.00065750990620488,0.00065750990444698,-0.0006733660432392,0.00067336604257545,-0.00067336604317607,0.00067336604245127,-0.00067336604408909,0.00067336604156628,-0.00067336604423465,0.00067336604153764,-0.00064049816290568,0.00064049816079055,-0.00064049816313452,0.00064049816044215,-0.00064049816118293,0.00064049816239778,-0.00064049816413758,0.00064049815950173,-8.034490766528e-11,8.0596589211876e-11,-0.00065750990521572,0.00065750990547742,-1.1102896108263e-14,2.7345074920849e-13,-0.00067336606969274,0.00067336601626257,-0.00067336606947016,0.00067336601617909,-0.00067336601604075,0.00067336606989241,-0.00067336601583438,0.00067336606983899,-0.00064049808285896,0.00064049824073275,-0.00064049824038991,0.0006404980831827,0.00079337734963431,0.00072512727451355,0.77829860036142,0.76233728546957,1368840,32768,0.002735864478969,0.0027358644789461,0.0027358644790319,18.661001236454,18.660326443114,6.4488009891634e-05,6.4488009891634e-05,6.4488009891634e-05,783464.04283986,0.0082414234443803
20180559,0.48251711773433,0.0081108700762844,0.0027036233587482,0.0027036233587262,0.00270362335881,-0.00066514735209235,0.00066514735466781,8.1730022468621e-11,-7.9159022305029e-11,-1.7606653305298e-13,2.809847366974e-12,-0.00068112790062704,0.00068112795576636,-0.00068112795416764,0.00068112790223862,-0.00068112789964974,0.0006811279566963,-0.00068112795315653,0.00068112790318119,-0.00064804221191598,0.0006480423729434,-0.0006480423694134,0.00064804221547933,6.4110966453982e-13,-2.324030149533e-12,-5.6963984789366e-13,-8.5290432671122e-13,-0.00066514735424822,0.00066514735249995,-0.00068112792855793,0.00068112792790093,-0.00068112792849616,0.00068112792777738,-0.00068112792940194,0.00068112792689282,-0.00068112792955085,0.00068112792686197,-0.00064804229354086,0.00064804229143137,-0.0006480422937663,0.00064804229108022,-0.00064804229180903,0.0006480422930208,-0.00064804229476749,0.00064804229014689,-8.0344682613332e-11,8.0594590111182e-11,-0.00066514735326611,0.00066514735352398,-1.2615555779901e-14,2.7349810070311e-13,-0.00068112795501753,0.00068112790157952,-0.00068112795479401,0.0006811279014997,-0.00068112790136742,0.0006811279552069,-0.00068112790116073,0.00068112795515766,-0.00064804221349008,0.00064804237138122,-0.00064804237102447,0.00064804221377798,0.00082426599210396,0.00075537234951673,0.78062857202018,0.79477516630005,1368840,32768,0.0027675996253679,0.002767599625343,0.0027675996254301,18.645307547762,18.644618860883,6.436246038209e-05,6.436246038209e-05,6.436246038209e-05,763798.77607531,0.0083374185291146
20266959,0.48808541719515,0.0082058831917631,0.0027352943972412,0.0027352943972191,0.0027352943973029,-0.00067278615819023,0.00067278616077086,8.1734146548516e-11,-7.9154013016883e-11,-1.7049267391878e-13,2.8088164278803e-12,-0.00068887959671877,0.00068887965186173,-0.000688879650267,0.00068887959832947,-0.00068887959574702,0.00068887965279833,-0.00068887964926559,0.00068887959928401,-0.00065560427320417,0.00065560443425367,-0.00065560443072555,0.00065560427680108,6.3861174084968e-13,-2.3196966936818e-12,-5.7130854691605e-13,-8.6309033906494e-13,-0.00067278616035187,0.00067278615859909,-0.00068887962465321,0.00068887962398128,-0.00068887962460054,0.00068887962384644,-0.00068887962552526,0.00068887962298157,-0.00068887962564161,0.00068887962295589,-0.00065560435481823,0.00065560435272879,-0.00065560435508285,0.00065560435239853,-0.00065560435313328,0.00065560435430638,-0.00065560435604267,0.00065560435146154,-8.0343772847007e-11,8.0594455291772e-11,-0.00067278615936169,0.0006727861596264,-1.4597598171043e-14,2.8004548892019e-13,-0.00068887965110947,0.00068887959768276,-0.00068887965087239,0.00068887959758529,-0.00068887959744428,0.00068887965128015,-0.00068887959722848,0.00068887965121199,-0.00065560427480377,0.00065560443267803,-0.00065560443234672,0.00065560427510796,0.00085517608811583,0.00078565274633007,0.78332459184962,0.82721304713054,1368840,32768,0.0027993394427063,0.0027993394426853,0.0027993394427624,18.629600873055,18.628911278651,6.423680698444e-05,6.423680698444e-05,6.423680698444e-05,742923.36345306,0.0084334367398011
20353359,0.49363631004905,0.0083009218150267,0.0027669739383291,0.0027669739383072,0.0027669739383904,-0.00068042550366989,0.00068042550623898,8.1730780357233e-11,-7.9159314825504e-11,-1.7385330654788e-13,2.7985035664605e-12,-0.00069662243892557,0.00069662249403882,-0.00069662249246048,0.00069662244052249,-0.00069662243791268,0.00069662249498112,-0.00069662249143674,0.00069662244141874,-0.00066318032355218,0.00066318048463093,-0.00066318048101558,0.00066318032714975,6.4054674056029e-13,-2.3109010212071e-12,-5.6166434153991e-13,-8.5065423368531e-13,-0.00068042550581831,0.00068042550408582,-0.00069662246681017,0.0006966224661852,-0.00069662246677902,0.00069662246606792,-0.00069662246766863,0.00069662246519416,-0.00069662246783922,0.00069662246516598,-0.00066318040515811,0.00066318040305489,-0.00066318040543556,0.00066318040276527,-0.00066318040342202,0.00066318040464803,-0.00066318040643138,0.00066318040176531,-8.0340361539456e-11,8.0599626413209e-11,-0.0006804255048398,0.00068042550510025,-1.5730342978231e-14,2.7609858008378e-13,-0.00069662249330494,0.00069662243986532,-0.00069662249307299,0.00069662243979185,-0.00069662243965623,0.00069662249347401,-0.00069662243944808,0.00069662249344422,-0.00066318032508154,0.00066318048299256,-0.00066318048266023,0.00066318032545525,0.00088610726387262,0.00081596027243831,0.78572897974629,0.84906843824502,1368840,32768,0.0028310805240124,0.0028310805240026,0.0028310805240772,18.613893316997,18.613203696419,6.4111146535972e-05,6.4111146535972e-05,6.4111146535972e-05,720975.73777116,0.0085294677978951
20439759,0.49916883152919,0.0083951462604588,0.0027983820868062,0.0027983820867851,0.0027983820868675,-0.00068798592542141,0.00068798592798198,8.172154472761e-11,-7.9158846104529e-11,-1.6618636429712e-13,2.7870437989015e-12,-0.00070430618902394,0.00070430624415303,-0.00070430624255988,0.00070430619062273,-0.00070430618805247,0.0007043062450703,-0.00070430624155897,0.00070430619155403,-0.00067064335143426,0.00067064351241973,-0.00067064350887795,0.00067064335498831,6.332603896239e-13,-2.2988247136594e-12,-5.500550932533e-13,-8.4736877523028e-13,-0.00068798592755667,0.00068798592583615,-0.00070430621693246,0.00070430621630228,-0.00070430621687851,0.00070430621616964,-0.0007043062177693,0.00070430621530972,-0.00070430621792323,0.00070430621527356,-0.0006706434330244,0.00067064343097437,-0.00067064343325483,0.00067064343059134,-0.00067064343133539,0.00067064343251426,-0.00067064343426194,0.000670643429647,-8.0335236637194e-11,8.0594839824142e-11,-0.00068798592658304,0.00068798592685013,-1.632033966012e-14,2.8376808107991e-13,-0.00070430624340482,0.00070430618997499,-0.00070430624317347,0.00070430618989944,-0.0007043061897566,0.00070430624359903,-0.00070430618954259,0.00070430624355311,-0.00067064335299209,0.00067064351086286,-0.00067064351051201,0.00067064335333404,0.00091677629466778,0.0008461337416347,0.78136856195146,0.76619250500925,1368840,32768,0.0028624926190703,0.0028624926190483,0.0028624926191322,18.598185814168,18.597496114187,6.3985486513344e-05,6.3985486513344e-05,6.3985486513344e-05,706328.17979847,0.0086245127961291
20526159,0.50468188834806,0.0084879087071419,0.0028293029023673,0.0028293029023461,0.0028293029024285,-0.00069528848994834,0.00069528849250099,8.1715474589519e-11,-7.9161201209053e-11,-1.6490190353651e-13,2.7735312411126e-12,-0.00071183481639583,0.00071183487152088,-0.00071183486992938,0.00071183481799109,-0.00071183481542812,0.00071183487243519,-0.00071183486893265,0.00071183481891911,-0.00067772263097234,0.00067772279195374,-0.00067772278842868,0.00067772263451706,6.369750261443e-13,-2.2800544929592e-12,-5.3334414787885e-13,-8.5002414999275e-13,-0.00069528849207226,0.0006952884903665,-0.00071183484429347,0.00071183484367779,-0.00071183484424642,0.00071183484353967,-0.00071183484512673,0.00071183484268797,-0.00071183484528557,0.00071183484264612,-0.00067772271252145,0.00067772271050675,-0.00067772271278052,0.00067772271012563,-0.00067772271085633,0.00067772271205329,-0.00067772271376561,0.00067772270922463,-8.0331880886769e-11,8.0594112331661e-11,-0.00069528849110372,0.00069528849137553,-2.3481326779232e-14,2.9591162186778e-13,-0.00071183487077221,0.00071183481734403,-0.00071183487053562,0.00071183481727458,-0.00071183481712513,0.00071183487096596,-0.00071183481690651,0.00071183487092667,-0.0006777226325163,0.00067772279040064,-0.00067772279004196,0.00067772263286181,0.00094647490111564,0.00087602399068254,0.77187667268753,0.62379282771645,1368840,32768,0.0028928322513081,0.0028928322512861,0.0028928322513702,18.582478309077,18.581788531955,6.3859826472611e-05,6.3859826472611e-05,6.3859826472611e-05,725126.90524037,0.0087163219212361
20612559,0.51017405923532,0.0085790243614016,0.0028596747871205,0.0028596747870993,0.0028596747871817,-0.00070234800411882,0.00070234800666982,8.1712389507296e-11,-7.9158584406642e-11,-1.6637727022978e-13,2.7734727723106e-12,-0.00071921632649313,0.00071921638161192,-0.00071921638002483,0.00071921632808394,-0.00071921632552391,0.00071921638252755,-0.00071921637902758,0.00071921632901351,-0.00068444081146666,0.00068444097243494,-0.00068444096891438,0.00068444081500496,6.4337025724497e-13,-2.274725538108e-12,-5.4161160119618e-13,-8.3163178539628e-13,-0.00070234800623603,0.00070234800454202,-0.00071921635438697,0.00071921635377387,-0.00071921635432983,0.00071921635364595,-0.00071921635522362,0.00071921635278428,-0.00071921635536956,0.00071921635275107,-0.00068444089300449,0.00068444089098389,-0.00068444089324829,0.00068444089064543,-0.00068444089134392,0.00068444089253866,-0.0006844408942555,0.00068444088971879,-8.0334053496868e-11,8.0585500668271e-11,-0.00070234800527928,0.00070234800553978,-1.8410569922668e-14,2.7447618847026e-13,-0.00071921638086388,0.00071921632743742,-0.00071921638063901,0.00071921632735929,-0.00071921632721838,0.00071921638105972,-0.00071921632701289,0.00071921638101095,-0.00068444081302161,0.00068444097087809,-0.00068444097053409,0.00068444081334474,0.00097526141666696,0.00090556518406282,0.76135496619427,0.48139315042365,1368840,32768,0.0029221610265045,0.0029221610264825,0.0029221610265677,18.56677075332,18.566080949724,6.3734166026561e-05,6.3734166026561e-05,6.3734166026561e-05,772116.98713219,0.0088050807840318
20698959,0.51554006154893,0.0086689294829463,0.0028896431609688,0.0028896431609476,0.0028896431610299,-0.00070875773751333,0.0007087577400709,8.1732679446276e-11,-7.9152692292524e-11,-1.6683131518254e-13,2.7546699643705e-12,-0.0007259500775764,0.0007259501327495,-0.00072595013113716,0.0007259500791677,-0.00072595007662845,0.00072595013368442,-0.00072595013016809,0.00072595008013988,-0.00069053607629625,0.00069053623738928,-0.0006905362337719,0.00069053607974075,6.6825457057569e-13,-2.2311749861945e-12,-5.8889002451986e-13,-7.5905692897891e-13,-0.00070875773962668,0.00070875773795272,-0.00072595010554253,0.0007259501048806,-0.00072595010544445,0.00072595010483483,-0.00072595010640611,0.00072595010389943,-0.00072595010650782,0.00072595010390569,-0.00069053615796071,0.00069053615574835,-0.00069053615789363,0.00069053615553386,-0.00069053615608887,0.0006905361573497,-0.00069053615889885,0.00069053615473416,-8.0342082516293e-11,8.0590985662472e-11,-0.0007087577386926,0.00070875773892347,2.171329255617e-14,1.9539858953075e-13,-0.00072595013201611,0.00072595007857643,-0.00072595013182462,0.00072595007843183,-0.00072595007834309,0.00072595013219965,-0.00072595007816567,0.00072595013211672,-0.00069053607787988,0.00069053623586703,-0.00069053623550556,0.00069053607821837,0.0010013170123431,0.00093459444260545,0.76935284778669,0.62832091350214,1368840,32768,0.002948789604066,0.002948789604056,0.0029487896041322,18.283166481183,18.270980393778,6.1465331849463e-05,6.1465331849463e-05,6.1465331849463e-05,818160.67051807,0.0088856744148095
20785359,0.52074289457713,0.0087565978600971,0.0029188659533515,0.0029188659533325,0.0029188659534131,-0.00071529465052612,0.0007152946531429,8.1720777133413e-11,-7.9118905677623e-11,-1.2306624041083e-13,2.7839275705707e-12,-0.00073252289826185,0.00073252295332671,-0.00073252295173583,0.00073252289989251,-0.00073252289717999,0.00073252295419486,-0.00073252295083265,0.00073252290068622,-0.00069705098906425,0.00069705114971142,-0.00069705114609151,0.00069705099241488,6.2710163659311e-13,-2.2585271506047e-12,-5.9877619309243e-13,-7.1791361234958e-13,-0.0007152946526965,0.00071529465100683,-0.00073252292613125,0.00073252292550685,-0.00073252292611755,0.00073252292555911,-0.00073252292717887,0.00073252292458162,-0.00073252292718272,0.00073252292461467,-0.00069705107010228,0.00069705106824479,-0.0006970510702534,0.00069705106803085,-0.00069705106823546,0.00069705106939875,-0.00069705107108285,0.00069705106704372,-8.0325224413649e-11,8.0562869403758e-11,-0.00071529465178159,0.00071529465197638,-1.781538222289e-14,1.0579097404071e-13,-0.00073252295262005,0.00073252289950621,-0.00073252295250496,0.00073252289912484,-0.00073252289905812,0.00073252295285462,-0.00073252289876508,0.00073252295279022,-0.00069705099050775,0.00069705114793006,-0.00069705114731975,0.00069705099028763,0.0010278489734081,0.00096283176586447,0.77417779297124,0.71777783357454,1368840,32768,0.0029759460528147,0.002975946052886,0.0029759460529995,17.893530366777,17.876535925137,5.8348242934211e-05,5.8348242934211e-05,5.8348242934211e-05,769867.48627591,0.0089678716551621
20871759,0.5257868728416,0.0088412244662308,0.0029470748220578,0.0029470748220475,0.0029470748221255,-0.00072146670884966,0.00072146671114599,8.1558066104123e-11,-7.9253755969804e-11,-3.1376094423029e-13,2.526352704012e-12,-0.00073878675606954,0.00073878681065578,-0.00073878680942516,0.00073878675717213,-0.00073878675513755,0.00073878681172196,-0.00073878680831449,0.00073878675819069,-0.00070313675633087,0.00070313691677135,-0.00070313691328522,0.00070313675915199,7.5837919968308e-13,-2.0602624721604e-12,-5.2323220679171e-13,-6.7936315768657e-13,-0.00072146671073163,0.00072146670927345,-0.00073878678367925,0.00073878678322792,-0.00073878678355329,0.00073878678320275,-0.00073878678452911,0.0007387867822296,-0.00073878678466733,0.00073878678223169,-0.00070313683790159,0.00070313683580401,-0.00070313683782274,0.00070313683512858,-0.0007031368356803,0.0007031368373301,-0.00070313683894678,0.00070313683496357,-8.0349356794068e-11,8.0510909491097e-11,-0.00072146670999718,0.00072146671009506,-8.7266407600561e-14,7.2013064756186e-14,-0.00073878681026288,0.00073878675673552,-0.00073878680965478,0.0007387867564872,-0.00073878675659828,0.00073878681016985,-0.0007387867563116,0.00073878681004513,-0.0007031367576688,0.00070313691571638,-0.00070313691485623,0.00070313675808811,0.0010529101394659,0.0009901432926469,0.77036384840171,0.65853817617802,1368840,32768,0.0030015860163322,0.0030015860163518,0.0030015860165329,17.499391225192,17.482091456503,5.5195129801533e-05,5.5195129801533e-05,5.5195129801533e-05,744699.45907351,0.0090454852105732
20958159,0.53067638035714,0.0089228383594137,0.0029742794531172,0.0029742794531081,0.0029742794531885,-0.00072715988083912,0.00072715988337461,8.1661796905806e-11,-7.9148918643101e-11,-6.2568500339969e-14,2.6884332819734e-12,-0.00074469851440598,0.0007446985697008,-0.0007446985679604,0.00074469851611335,-0.00074469851371316,0.00074469857067307,-0.000744698566997,0.00074469851700478,-0.00070861094020462,0.0007086111007549,-0.00070861109767629,0.0007086109435073,5.8232250456485e-13,-2.1457158910289e-12,-6.0720559734463e-13,-7.8443350668306e-13,-0.00072715988293838,0.00072715988125769,-0.00074469854236932,0.0007446985416688,-0.00074469854210358,0.00074469854181021,-0.00074469854330078,0.00074469854076126,-0.00074469854327792,0.00074469854069493,-0.00070861102123297,0.00070861102038336,-0.00070861102302261,0.00070861102025661,-0.00070861102044996,0.00070861102177092,-0.00070861102232439,0.00070861101881028,-8.0308314400827e-11,8.0550119602079e-11,-0.00072715988199934,0.00072715988226533,2.8692829336112e-14,2.0896418981685e-13,-0.00074469856895554,0.00074469851551191,-0.00074469856878194,0.00074469851546105,-0.00074469851523677,0.00074469856920386,-0.00074469851504184,0.00074469856897117,-0.00070861094295887,0.00070861110048138,-0.00070861110008384,0.00070861094266261,0.0010760348868769,0.0010165336473637,0.76617236400671,0.59929851878145,1368840,32768,0.0030252358669258,0.0030252358668891,0.0030252358670316,17.104967577358,17.087646987865,5.203974061886e-05,5.203974061886e-05,5.203974061886e-05,762585.81531466,0.0091170803000752
21044559,0.53541563540846,0.0090018656180558,0.003000621872664,0.0030006218726535,0.0030006218727383,-0.00073263720405321,0.00073263720653892,8.165200635196e-11,-7.9178466563961e-11,-1.2091471790307e-13,2.6693380417904e-12,-0.00075040501534731,0.00075040507043573,-0.00075040506886175,0.00075040501689896,-0.00075040501443083,0.00075040507131181,-0.00075040506791406,0.00075040501779483,-0.00071386170856911,0.00071386186924922,-0.00071386186599795,0.0007138617119496,6.4246227027747e-13,-2.125326808019e-12,-5.7463640113474e-13,-7.0481926237299e-13,-0.0007326372060898,0.00073263720449821,-0.00075040504325004,0.00075040504261784,-0.00075040504312806,0.00075040504255338,-0.00075040504405815,0.00075040504167239,-0.00075040504414,0.00075040504168412,-0.00071386178995494,0.00071386178800922,-0.00071386179016465,0.00071386178781184,-0.00071386178829197,0.00071386178957971,-0.00071386179097423,0.00071386178696319,-8.0348934395208e-11,8.0529090391566e-11,-0.00073263720521659,0.00073263720541448,3.5573986768535e-14,1.6898483762921e-13,-0.00075040506972118,0.00075040501630355,-0.00075040506954081,0.00075040501617197,-0.00075040501607074,0.00075040506990895,-0.00075040501592345,0.00075040506979766,-0.00071386171024126,0.00071386186783225,-0.00071386186756206,0.00071386171026481,0.001098277631262,0.0010420893019904,0.76560801253016,0.59996005990451,1368840,32768,0.0030479885269094,0.0030479885269008,0.0030479885269903,16.710524524622,16.693202519227,4.8884196196975e-05,4.8884196196975e-05,4.8884196196975e-05,782193.36921538,0.0091859641732479
21130959,0.54000922998828,0.0090784456314601,0.0030261485437983,0.0030261485437886,0.0030261485438733,-0.00073801898516078,0.00073801898765111,8.1677635216074e-11,-7.9181779521576e-11,-1.1517915782638e-13,2.6779239265564e-12,-0.00075595495735772,0.00075595501246855,-0.00075595501089273,0.00075595495894086,-0.00075595495645923,0.00075595501334633,-0.00075595500996758,0.00075595495981014,-0.00071907635924987,0.00071907652006539,-0.00071907651668684,0.00071907636282309,6.5912129076759e-13,-2.1116945480046e-12,-5.7543150919768e-13,-6.6369781272269e-13,-0.00073801898719103,0.00073801898561824,-0.0007559549852764,0.00075595498464815,-0.00075595498516747,0.00075595498458772,-0.00075595498609825,0.0007559549837156,-0.00075595498615858,0.00075595498374626,-0.0007190764408515,0.00071907643871328,-0.00071907644076966,0.00071907643855387,-0.00071907643901047,0.00071907644053143,-0.00071907644177966,0.00071907643769707,-8.0366916845856e-11,8.0539646951423e-11,-0.00073801898632769,0.00073801898651786,5.8725470683064e-14,1.5036300945445e-13,-0.00075595501174601,0.00075595495831694,-0.0007559550115733,0.00075595495816478,-0.00075595495808763,0.00075595501192075,-0.0007559549579468,0.00075595501180912,-0.0007190763609506,0.00071907651846103,-0.00071907651840017,0.00071907636109064,0.0011201263804479,0.0010668476737693,0.76562773213782,0.60913972784272,1368840,32768,0.003070343839471,0.0030703438394655,0.0030703438395409,16.316080116316,16.298758050589,4.5728640930523e-05,4.5728640930523e-05,4.5728640930523e-05,783916.04417299,0.009253649562321
21217359,0.54446180329553,0.0091526815046974,0.0030508938348773,0.0030508938348681,0.003050893834952,-0.00074322848941176,0.00074322849192745,8.1725870536636e-11,-7.918537152949e-11,-1.5613420079558e-13,2.708719956347e-12,-0.00076131886050948,0.00076131891561613,-0.00076131891407838,0.00076131886208306,-0.00076131885957581,0.00076131891653005,-0.00076131891306736,0.00076131886300394,-0.00072413369962561,0.00072413386049327,-0.00072413385700855,0.00072413370307926,6.5551568032828e-13,-2.1862832399595e-12,-6.0048599380037e-13,-6.9494462285998e-13,-0.00074322849146952,0.00074322848986408,-0.00076131888840692,0.00076131888779436,-0.00076131888829324,0.00076131888774833,-0.00076131888925245,0.00076131888683763,-0.00076131888931871,0.00076131888685379,-0.00072413378108524,0.00072413377908837,-0.00072413378119751,0.00072413377878085,-0.0007241337795506,0.00072413378072215,-0.00072413378237507,0.00072413377821367,-8.038049407814e-11,8.0577751110897e-11,-0.00074322849058866,0.00074322849078696,5.3682610033113e-14,1.5243776960136e-13,-0.00076131891490362,0.00076131886146256,-0.00076131891473756,0.00076131886130055,-0.0007613188612443,0.00076131891506793,-0.00076131886108028,0.00076131891496703,-0.00072413370129851,0.00072413385900944,-0.00072413385875957,0.00072413370150299,0.0011412680037244,0.0010908416150792,0.76571416537454,0.61831939578092,1368840,32768,0.0030919830645137,0.003091983064502,0.0030919830645893,15.92163560259,15.904313581951,4.2573084820715e-05,4.2573084820715e-05,4.2573084820715e-05,782575.97934879,0.0093191711541331
21303759,0.54880332026367,0.0092250806049127,0.0030750268682826,0.0030750268682738,0.0030750268683564,-0.00074845063099772,0.00074845063350868,8.173337357213e-11,-7.9199576272015e-11,-1.599472607798e-13,2.6962522784025e-12,-0.0007666883559358,0.00076668841105409,-0.00076668840948832,0.00076668835750701,-0.00076668835497868,0.00076668841194719,-0.00076668840848625,0.00076668835840223,-0.00072921152832692,0.00072921168926762,-0.00072921168584024,0.00072921153181599,6.4427028857316e-13,-2.1891460642669e-12,-5.760656221789e-13,-7.2788366071263e-13,-0.00074845063305117,0.00074845063145065,-0.0007666883837991,0.00076668838323861,-0.00076668838369368,0.00076668838316943,-0.00076668838463337,0.00076668838227413,-0.00076668838472595,0.00076668838228128,-0.00072921160988049,0.0007292116077841,-0.00072921160998865,0.00072921160751618,-0.00072921160813192,0.00072921160935421,-0.00072921161101327,0.00072921160672581,-8.0394820758117e-11,8.0585065269807e-11,-0.00074845063217027,0.00074845063237305,2.3766362189243e-14,1.7928484650042e-13,-0.00076668841032456,0.00076668835686961,-0.00076668841013298,0.0007666883567354,-0.00076668835665236,0.00076668841049806,-0.00076668835647816,0.00076668841039288,-0.00072921152990317,0.00072921168766939,-0.0007292116874385,0.00072921153007575,0.0011624714897933,0.0011142379111911,0.76585751372585,0.62749906371913,1368840,32768,0.0031136743255348,0.0031136743255253,0.0031136743256115,15.609826213272,15.596050364834,4.0078609706175e-05,4.0078609706175e-05,4.0078609706175e-05,780520.12977692,0.00938485452279
21390159,0.55304376545694,0.0092958145751473,0.0030986048583609,0.0030986048583522,0.0030986048584343,-0.00075358604216999,0.00075358604468817,8.1731125111407e-11,-7.9207450560873e-11,-1.5399214858674e-13,2.7359611535589e-12,-0.0007719670235694,0.00077196707868194,-0.00077196707712063,0.00077196702513277,-0.00077196702262927,0.00077196707958867,-0.0007719670761358,0.000771967026041,-0.00073420832940775,0.00073420849040936,-0.00073420848695911,0.0007342083329857,6.9853079271671e-13,-2.1691031471525e-12,-5.3307839129165e-13,-7.3115201674895e-13,-0.00075358604421823,0.00075358604263605,-0.00077196705143395,0.00077196705087715,-0.0007719670513523,0.00077196705079301,-0.00077196705228294,0.0007719670499147,-0.00077196705239392,0.00077196704989804,-0.00073420841098948,0.00073420840901438,-0.00073420841123709,0.00073420840877272,-0.00073420840924547,0.0007342084106775,-0.00073420841207341,0.00073420840791297,-8.038032467155e-11,8.060550216018e-11,-0.00075358604333447,0.00075358604356076,6.8353058919793e-15,2.0850065985973e-13,-0.00077196707795742,0.00077196702450027,-0.00077196707775147,0.0007719670243934,-0.00077196702428266,0.00077196707813417,-0.00077196702410519,0.00077196707806505,-0.0007342083311038,0.00073420848889042,-0.00073420848869311,0.00073420833131675,0.0011833252605364,0.0011370929693748,0.76605134164176,0.63667873165733,1368840,32768,0.0031350048793452,0.0031350048793371,0.0031350048794222,15.322016135464,15.309350075024,3.7776129083708e-05,3.7776129083708e-05,3.7776129083708e-05,778066.33623858,0.0094494497875789
21476559,0.55718572757291,0.0093656841725548,0.0031218947241634,0.0031218947241548,0.0031218947242366,-0.00075865675440395,0.00075865675690824,8.1715548234328e-11,-7.9207226861825e-11,-1.4142323844067e-13,2.7155396891853e-12,-0.00077715480061561,0.00077715485574231,-0.0007771548541776,0.00077715480217595,-0.00077715479970398,0.00077715485665538,-0.00077715485320255,0.00077715480307387,-0.00073918690431602,0.0007391870651715,-0.00073918706167134,0.0007391869076913,6.7863001831877e-13,-2.1551744550174e-12,-5.1148463920125e-13,-7.2314614367581e-13,-0.00075865675643214,0.00075865675487555,-0.00077715482846498,0.00077715482793216,-0.00077715482841666,0.00077715482786436,-0.00077715482929205,0.00077715482699962,-0.00077715482943072,0.00077715482699266,-0.00073918698587699,0.00073918698378645,-0.00073918698575607,0.00073918698355399,-0.0007391869841349,0.00073918698537928,-0.00073918698685453,0.00073918698263823,-8.0364759235299e-11,8.060459884954e-11,-0.00075865675555813,0.00075865675579065,1.4060776335288e-14,2.2889433096472e-13,-0.00077715485501329,0.00077715480153889,-0.00077715485480147,0.00077715480142279,-0.0007771548013515,0.0007771548551818,-0.00077715480114608,0.00077715485511647,-0.00073918690580774,0.00073918706364996,-0.00073918706325814,0.00073918690611069,0.0012038817165532,0.001159580352768,0.77458194359731,0.79270060545507,1368840,32768,0.0031560663657158,0.0031560663657064,0.0031560663657918,15.035244068559,15.022649785215,3.5481952548472e-05,3.5481952548472e-05,3.5481952548472e-05,769436.3252084,0.0095132338524381
21562959,0.56123151536005,0.0094337355544202,0.0031445785181186,0.00314457851811,0.0031445785181917,-0.00076381974173221,0.00076381974422334,8.1685316128487e-11,-7.9245743861627e-11,-1.0483979721616e-13,2.7513354485906e-12,-0.0007823113888986,0.0007823114440399,-0.00078231144216961,0.00078231139030379,-0.00078231138829712,0.00078231144481218,-0.0007823114416279,0.00078231139135292,-0.00074437144539452,0.00074437160560169,-0.00074437160145872,0.00074437144808896,6.8775888649694e-13,-2.1456123647798e-12,-4.122263920608e-13,-5.9706090725794e-13,-0.00076381974371327,0.00076381974225091,-0.00078231141667776,0.00078231141621545,-0.0007823114166467,0.00078231141637017,-0.00078231141751144,0.00078231141518549,-0.00078231141769939,0.0007823114154999,-0.00074437152635766,0.00074437152436281,-0.00074437152646597,0.00074437152402213,-0.00074437152442938,0.00074437152577464,-0.00074437152681838,0.00074437152290002,-8.0427582639617e-11,8.0550091073539e-11,-0.00076381974290144,0.00076381974309956,4.3626784878727e-14,2.3302358717172e-13,-0.00078231144351407,0.00078231138988246,-0.00078231144300289,0.0007823113897315,-0.00078231138953742,0.00078231144340932,-0.00078231138937498,0.00078231144338622,-0.00074437144607186,0.00074437160419737,-0.00074437160324985,0.00074437144722378,0.001224829512169,0.0011815093331373,0.77225770452201,0.74237168962419,1368840,32768,0.0031775107300306,0.0031775107300485,0.003177510730125,14.748539442068,14.735949495405,3.3188315536538e-05,3.3188315536538e-05,3.3188315536538e-05,725064.28503036,0.0095781814992162
21649359,0.56518354503926,0.0094998172029068,0.0031666057342804,0.0031666057342726,0.0031666057343538,-0.00076849424848085,0.00076849425084762,8.1633160545333e-11,-7.9334203188667e-11,-2.2785333335472e-13,2.6186287968054e-12,-0.00078715295249338,0.00078715300767063,-0.00078715300590557,0.00078715295389572,-0.00078715295149583,0.00078715300848226,-0.00078715300512002,0.00078715295480495,-0.00074888646120742,0.00074888662165733,-0.00074888661748479,0.00074888646408488,6.8139978664542e-13,-2.1407828946697e-12,-4.6582218121682e-13,-6.564206085657e-13,-0.00076849425036243,0.00076849424887284,-0.00078715298018442,0.00078715297961201,-0.00078715298017092,0.00078715297974516,-0.0007871529810755,0.00078715297875277,-0.00078715298098501,0.00078715297887755,-0.00074888654173666,0.00074888654016579,-0.00074888654238394,0.00074888654003392,-0.00074888654030073,0.00074888654157818,-0.00074888654348363,0.00074888653905238,-8.0315685263887e-11,8.0698954055289e-11,-0.00076849424950123,0.00076849424983542,4.4070153687056e-14,2.3754446376792e-13,-0.00078715300677274,0.00078715295345204,-0.00078715300636967,0.00078715295342104,-0.00078715295321018,0.00078715300709097,-0.00078715295300987,0.00078715300685848,-0.00074888646195944,0.00074888662037856,-0.0007488866194425,0.00074888646315958,0.0012438014921128,0.0012028506833219,0.76724433277759,0.65904094014977,1368840,32768,0.0031969256176471,0.0031969256174535,0.0031969256176641,14.461839347643,14.449249205596,3.0894714781141e-05,3.0894714781141e-05,3.0894714781141e-05,735579.34755058,0.0096369866804272
21735759,0.56904356604477,0.009564227740294,0.0031880759134129,0.0031880759133982,0.0031880759134829,-0.00077297283450745,0.00077297283697679,8.1705976173807e-11,-7.9253915788451e-11,-1.3738415594952e-13,2.680401733214e-12,-0.00079183973835452,0.00079183979347338,-0.00079183979190336,0.00079183973988949,-0.00079183973744606,0.0007918397943571,-0.00079183979096314,0.00079183974077723,-0.00075316608170522,0.00075316624249866,-0.00075316623926687,0.00075316608512669,6.7094741478174e-13,-2.1225190996749e-12,-5.2211177043204e-13,-6.6357784579937e-13,-0.00077297283649721,0.00077297283497953,-0.00079183976620459,0.00079183976567124,-0.00079183976610772,0.00079183976561553,-0.00079183976702046,0.00079183976471945,-0.0007918397670924,0.00079183976475124,-0.00075316616305396,0.00075316616128087,-0.00075316616330456,0.00075316616108238,-0.00075316616156896,0.00075316616291771,-0.0007531661642409,0.00075316616010019,-8.0428714840323e-11,8.057794986953e-11,-0.00077297283566722,0.00077297283585156,1.5342457769035e-14,1.6026758922928e-13,-0.00079183979274045,0.00079183973926442,-0.00079183979255305,0.00079183973912397,-0.00079183973905098,0.00079183979292297,-0.00079183973889375,0.00079183979281336,-0.0007531660834669,0.00075316624113447,-0.00075316624091244,0.00075316608347561,0.0012619778814522,0.001223664125331,0.76578094678926,0.63992766930566,1368840,32768,0.0032155263853526,0.003215526385337,0.0032155263854243,14.175139116051,14.162548915787,2.8601112928402e-05,2.8601112928402e-05,2.8601112928402e-05,756915.31812118,0.009693329335661
21822159,0.57281363237509,0.0096269928558685,0.0032089976186045,0.0032089976185901,0.0032089976186739,-0.00077742242354527,0.00077742242602204,8.1689837343308e-11,-7.9214675487215e-11,-1.5185277276673e-13,2.6761574805201e-12,-0.00079644234940492,0.00079644240449822,-0.00079644240293478,0.00079644235095527,-0.00079644234850181,0.00079644240540401,-0.0007964424019897,0.00079644235186844,-0.00075746709302812,0.00075746725388778,-0.0007574672504215,0.00075746709636745,6.9276833640286e-13,-2.1108263686445e-12,-4.8912639575965e-13,-6.8621286019757e-13,-0.00077742242553227,0.00077742242402718,-0.00079644237723133,0.00079644237673495,-0.0007964423771554,0.00079644237664638,-0.00079644237805678,0.00079644237577916,-0.00079644237816197,0.00079644237577861,-0.00075746717436993,0.00075746717249772,-0.00075746717456378,0.00075746717224846,-0.00075746717278717,0.00075746717403552,-0.00075746717556208,0.00075746717139613,-8.0362817265213e-11,8.0588121588203e-11,-0.00077742242468862,0.00077742242491309,1.2192039306274e-14,2.1239864372017e-13,-0.00079644240378938,0.00079644235034267,-0.00079644240357146,0.00079644235023365,-0.00079644235011858,0.00079644240395723,-0.0007964423499347,0.0007964424038778,-0.00075746709450109,0.00075746725238431,-0.00075746725200498,0.0007574670947981,0.0012800418652119,0.0012439571309713,0.76424797416847,0.62081439846153,1368840,32768,0.0032340064019364,0.0032340064019201,0.0032340064020079,13.888438875685,13.875848625977,2.6307511005479e-05,2.6307511005479e-05,2.6307511005479e-05,762400.88496589,0.0097493093082974
21908559,0.57659204791188,0.0096897581497694,0.0032299193832383,0.0032299193832237,0.0032299193833074,-0.00078256725125141,0.00078256725371962,8.1693449027091e-11,-7.9226083932813e-11,-1.3549580187273e-13,2.6636111873301e-12,-0.00080173769992236,0.00080173775502409,-0.00080173775346058,0.00080173770147049,-0.00080173769902173,0.00080173775589734,-0.00080173775252387,0.00080173770235355,-0.00076246134942287,0.00076246151030544,-0.00076246150687412,0.00076246135282239,6.7606437610914e-13,-2.0985125389412e-12,-4.8584876059504e-13,-6.7932890873285e-13,-0.0007825672532289,0.0007825672517349,-0.00080173772774596,0.00080173772725528,-0.00080173772766861,0.00080173772717371,-0.0008017377285606,0.00080173772631681,-0.00080173772866316,0.00080173772631683,-0.00076246143084317,0.00076246142896988,-0.00076246143099005,0.0007624614287332,-0.00076246142919955,0.00076246143050864,-0.00076246143194792,0.00076246142782121,-8.0378235911831e-11,8.0587574060812e-11,-0.00078256725239503,0.00078256725261112,7.2772923895952e-15,2.0389878573794e-13,-0.00080173775431608,0.00080173770085571,-0.00080173775410088,0.00080173770073957,-0.00080173770063885,0.00080173775448351,-0.00080173770045949,0.00080173775440196,-0.00076246135093698,0.00076246150877155,-0.00076246150848647,0.00076246135121009,0.0013010136427147,0.0012642739435344,0.76265256948992,0.60170112761739,1368840,32768,0.0032553734864096,0.0032553734863946,0.0032553734864825,13.963368311879,13.966296524307,2.6906946495029e-05,2.6906946495029e-05,2.6906946495029e-05,767944.62766538,0.0098140385667265
21994959,0.58039786897574,0.0097528354533283,0.0032509451510912,0.0032509451510768,0.0032509451511603,-0.00078787480937817,0.0007878748118342,8.1683758617244e-11,-7.9224915792028e-11,-1.3099573346438e-13,2.636709273871e-12,-0.00080720650719618,0.0008072065622846,-0.00080720656072684,0.00080720650873678,-0.0008072065062972,0.00080720656314979,-0.00080720655979138,0.000807206509614,-0.00076760706065687,0.00076760722151493,-0.00076760721810585,0.00076760706397437,6.7261323153924e-13,-2.0703386349288e-12,-4.806696982236e-13,-6.6321197462354e-13,-0.00078787481133938,0.00078787480986509,-0.00080720653500217,0.0008072065345162,-0.0008072065349223,0.00080720653444404,-0.00080720653580365,0.00080720653358656,-0.00080720653590678,0.00080720653359188,-0.00076760714203222,0.00076760714018436,-0.00076760714214789,0.00076760713994534,-0.00076760714040636,0.0007676071416826,-0.00076760714309847,0.00076760713906373,-8.0364059639024e-11,8.0590703538738e-11,-0.00078787481051519,0.00078787481073223,1.0920401683342e-14,1.9663177244609e-13,-0.00080720656157841,0.00080720650812276,-0.00080720656137003,0.00080720650800926,-0.00080720650791227,0.00080720656174711,-0.00080720650773887,0.00080720656166118,-0.00076760706211355,0.00076760722000242,-0.00076760721965743,0.00076760706237783,0.0013226850706977,0.0012847191700532,0.76100305791939,0.58258785677326,1368840,32768,0.0032774159120318,0.0032774159120154,0.0032774159121045,14.110717093182,14.1171025745,2.8085736745452e-05,2.8085736745452e-05,2.8085736745452e-05,774860.99693164,0.0098808181313262
22081359,0.58423151542089,0.0098162251467513,0.0032720750488988,0.0032720750488844,0.0032720750489681,-0.00079321176336497,0.00079321176581266,8.1676083175253e-11,-7.9213408231811e-11,-1.2606414882679e-13,2.6117965055272e-12,-0.00081271251165747,0.00081271256674096,-0.00081271256517738,0.00081271251319823,-0.00081271251076454,0.00081271256759252,-0.00081271256425267,0.00081271251406334,-0.00077277277348198,0.00077277293432823,-0.00077277293094434,0.00077277277686735,6.6943285810923e-13,-2.0434629853732e-12,-4.8038172172697e-13,-6.7216999507981e-13,-0.00079321176531585,0.00079321176385416,-0.00081271253945097,0.00081271253898051,-0.0008127125393729,0.00081271253890449,-0.00081271254025245,0.00081271253806101,-0.000812712540351,0.00081271253805924,-0.00077277285482868,0.00077277285296842,-0.00077277285504219,0.00077277285276311,-0.00077277285323294,0.00077277285456586,-0.00077277285594693,0.00077277285194933,-8.0361247930802e-11,8.0574282099225e-11,-0.00079321176450021,0.00079321176471238,2.2890918345216e-15,1.9719799044264e-13,-0.00081271256603103,0.00081271251258228,-0.00081271256582431,0.00081271251245987,-0.00081271251236818,0.00081271256620132,-0.00081271251218848,0.00081271256611569,-0.00077277277497022,0.00077277293278408,-0.00077277293252462,0.00077277277522751,0.0013444987476881,0.001305293119914,0.75930699761964,0.56347458592913,1368840,32768,0.003299579907172,0.0032995799071562,0.0032995799072446,14.261301939222,14.267908624692,2.9290415513773e-05,2.9290415513773e-05,2.9290415513773e-05,782813.99799909,0.0099479705456828
22167759,0.58809256485718,0.0098799138003879,0.003293304600111,0.0032933046000966,0.0032933046001802,-0.000798571049006,0.0007985710514412,8.1660530650372e-11,-7.9222156464559e-11,-1.2398453588695e-13,2.5991307159878e-12,-0.00081824769181195,0.0008182477469001,-0.00081824774533612,0.00081824769335281,-0.00081824769093016,0.00081824774774347,-0.00081824774441865,0.00081824769420768,-0.00077795193891754,0.00077795209969211,-0.00077795209629838,0.00077795194224134,6.6562750377196e-13,-2.0323218845497e-12,-4.5916345816565e-13,-6.5124867832932e-13,-0.00079857105093831,0.00079857104950205,-0.00081824771960652,0.00081824771914639,-0.00081824771952713,0.00081824771907001,-0.00081824772039234,0.00081824771823119,-0.00081824772049321,0.00081824771823707,-0.00077795202019157,0.00077795201841871,-0.0007779520203717,0.00077795201816992,-0.00077795201860722,0.0007779520198962,-0.00077795202129965,0.00077795201731524,-8.0359538806544e-11,8.0568965276357e-11,-0.00079857105013413,0.00079857105034853,6.9094653911634e-15,2.0213307497331e-13,-0.0008182477461853,0.00081824769273601,-0.00081824774597845,0.00081824769262435,-0.00081824769251921,0.00081824774635505,-0.00081824769234819,0.00081824774627143,-0.00077795194036216,0.00077795209815704,-0.00077795209785857,0.00077795194064872,0.0013664243177361,0.0013259912247787,0.75757067935273,0.544361315085,1368840,32768,0.0033218361276763,0.0033218361276621,0.00332183612775,14.412093035701,14.418714674884,3.0496744285603e-05,3.0496744285603e-05,3.0496744285603e-05,791689.14200545,0.010015406964886
22254159,0.59198051676171,0.0099444255192947,0.0033148085064132,0.003314808506399,0.0033148085064825,-0.00080399692749289,0.00080399692992764,8.1665710756829e-11,-7.9231816345927e-11,-1.2173357524048e-13,2.6128892956726e-12,-0.00082384057788246,0.00082384063296267,-0.00082384063140729,0.00082384057941809,-0.00082384057700083,0.00082384063381285,-0.00082384063049213,0.00082384058027659,-0.00078321694124084,0.00078321710203401,-0.00078321709867671,0.00078321694454957,6.7214002540713e-13,-2.0371085030277e-12,-4.5081450733802e-13,-6.5146637756111e-13,-0.00080399692942026,0.00080399692799342,-0.00082384060566811,0.00082384060522551,-0.00082384060559117,0.0008238406051479,-0.00082384060645868,0.00082384060430778,-0.00082384060655818,0.00082384060431198,-0.00078321702255151,0.00078321702080196,-0.0007832170227348,0.00078321702053965,-0.00078321702097181,0.00078321702226305,-0.0007832170236629,0.00078321701962895,-8.0367137897927e-11,8.0576033428076e-11,-0.00080399692862123,0.00080399692883497,1.236109296533e-15,2.0501595749146e-13,-0.00082384063226038,0.00082384057880919,-0.00082384063204843,0.00082384057869089,-0.00082384057859461,0.00082384063243035,-0.00082384057841768,0.00082384063234386,-0.00078321694272674,0.00078321710055748,-0.00078321710023942,0.00078321694297621,0.0013886211947077,0.001346929930906,0.76211129491979,0.62802909705675,1368840,32768,0.0033443684508298,0.0033443684508156,0.0033443684509039,14.562898105746,14.569520725077,3.1703184845968e-05,3.1703184845968e-05,3.1703184845968e-05,797622.73102982,0.010083684334847
22340559,0.59589487355202,0.010009512614376,0.0033365042047735,0.0033365042047594,0.0033365042048429,-0.00080967038309907,0.00080967038551615,8.163982845928e-11,-7.9229332186522e-11,-1.3555788821133e-13,2.5962497157651e-12,-0.00082957273428277,0.00082957278934259,-0.00082957278783808,0.00082957273584208,-0.00082957273346529,0.00082957279021472,-0.00082957278694225,0.00082957273669631,-0.00078883831396565,0.00078883847469068,-0.00078883847140129,0.00078883831692744,6.9366469137277e-13,-2.0129113010591e-12,-4.3914479031045e-13,-6.4822735886385e-13,-0.00080967038501102,0.00080967038359673,-0.00082957276212764,0.00082957276167692,-0.00082957276203554,0.0008295727615568,-0.00082957276282767,0.00082957276078982,-0.00082957276297323,0.00082957276070194,-0.00078883839517017,0.00078883839342392,-0.00078883839527759,0.00078883839327492,-0.00078883839332139,0.00078883839501984,-0.00078883839624583,0.00078883839216932,-8.0337503920871e-11,8.0577137497289e-11,-0.00080967038420833,0.00080967038444093,6.7419705080171e-15,2.1861798313539e-13,-0.0008295727886836,0.00082957273524463,-0.00082957278844332,0.0008295727351309,-0.00082957273500081,0.00082957278882876,-0.0008295727348402,0.00082957278872921,-0.00078883831528802,0.00078883847338568,-0.00078883847272425,0.00078883831550598,0.0014118421885177,0.001368054020838,0.76376231919246,0.65964184230087,1368840,32768,0.0033679284665637,0.0033679284665482,0.0033679284666344,14.713704124858,14.720326775269,3.2909632998858e-05,3.2909632998858e-05,3.2909632998858e-05,772399.24672298,0.010155080463294
22426959,0.59983527615914,0.01007520198459,0.0033584006615115,0.0033584006614976,0.0033584006615806,-0.00081529105057979,0.00081529105299814,8.1646120090605e-11,-7.9223104406188e-11,-1.0710411039589e-13,2.5838850052632e-12,-0.00083529934579957,0.00083529940087253,-0.00083529939932557,0.00083529934735554,-0.00083529934495909,0.00083529940169794,-0.00083529939839003,0.00083529934819375,-0.00079436538687162,0.00079436554755328,-0.00079436554415955,0.00079436539009485,6.4320070360119e-13,-2.0221696652813e-12,-4.629196816509e-13,-6.4697869112744e-13,-0.00081529105249831,0.00081529105107296,-0.00083529937361721,0.00083529937314962,-0.00083529937352385,0.00083529937307937,-0.0008352993743388,0.00083529937223509,-0.00083529937445441,0.00083529937224969,-0.00079436546800473,0.0007943654662475,-0.00079436546818972,0.00079436546595165,-0.00079436546660357,0.00079436546770956,-0.00079436546910229,0.00079436546509324,-8.0345455766183e-11,8.0569162579153e-11,-0.00081529105170036,0.00081529105191377,8.4195074957077e-15,1.9552833556709e-13,-0.00083529940016373,0.0008352993467486,-0.00083529939998466,0.00083529934660703,-0.00083529934651528,0.00083529940033568,-0.00083529934635465,0.00083529940027066,-0.0007943653881343,0.00079436554595122,-0.00079436554558089,0.00079436538844765,0.0014348555801276,0.0013893725119919,0.76544533335636,0.68996616293488,1368840,32768,0.0033912687033917,0.0033912687033779,0.0033912687034669,14.864510234217,14.871132825462,3.4116081873734e-05,3.4116081873734e-05,3.4116081873734e-05,761429.05623464,0.010225815565072
22513359,0.60380106068279,0.010141394209916,0.00338046473662,0.0033804647366064,0.0033804647366893,-0.00082094920716407,0.00082094920959035,8.1654476511792e-11,-7.9227679589949e-11,-1.1856767195666e-13,2.5987283753378e-12,-0.00084106285280835,0.00084106290787845,-0.00084106290632945,0.00084106285434217,-0.00084106285193162,0.00084106290872513,-0.00084106290541439,0.00084106285519437,-0.00079993251635151,0.0007999326771251,-0.00079993267380367,0.0007999325196592,6.7723825201274e-13,-2.0144701357907e-12,-4.4581863054686e-13,-6.2970082189566e-13,-0.00082094920907183,0.00082094920767522,-0.000841062880573,0.00084106288015584,-0.00084106288049407,0.00084106288007868,-0.00084106288135671,0.0008410628792431,-0.00084106288145742,0.0008410628792474,-0.00079993259766037,0.00079993259589515,-0.00079993259780788,0.00079993259567348,-0.00079993259606555,0.00079993259735423,-0.00079993259874031,0.00079993259476541,-8.0360682065736e-11,8.0566872457938e-11,-0.00082094920828915,0.00082094920850017,1.0201879516054e-14,1.9717232946186e-13,-0.00084106290717509,0.00084106285372647,-0.00084106290696481,0.00084106285360813,-0.00084106285351298,0.00084106290734028,-0.00084106285333854,0.0008410629072547,-0.00079993251783812,0.00079993267564273,-0.00079993267534409,0.00079993251805982,0.0014580344181336,0.0014108610363104,0.76623197879463,0.70284638599777,1368840,32768,0.0034147640761205,0.0034147640761052,0.003414764076193,15.015316322305,15.021938875654,3.5322530578438e-05,3.5322530578438e-05,3.5322530578438e-05,750507.44818044,0.010297025787887
22599759,0.60779162046853,0.010208085282776,0.0034026950942403,0.0034026950942266,0.0034026950943095,-0.0008266162617099,0.00082661626412879,8.1644872628714e-11,-7.9221130260615e-11,-1.1177790879103e-13,2.5858038878191e-12,-0.00084684851295428,0.00084684856801598,-0.00084684856647057,0.00084684851448581,-0.0008468485120842,0.00084684856885461,-0.00084684856556297,0.00084684851532974,-0.00080549749818466,0.00080549765893916,-0.00080549765560046,0.00080549750150192,6.7801194896507e-13,-1.9938110316181e-12,-4.460459912482e-13,-6.2556369828195e-13,-0.00082661626360748,0.00082661626222428,-0.00084684854071514,0.00084684854030606,-0.00084684854063264,0.00084684854022845,-0.00084684854149416,0.00084684853940054,-0.00084684854159076,0.00084684853940532,-0.00080549757947257,0.00080549757772082,-0.00080549757964939,0.00080549757750272,-0.00080549757788902,0.00080549757920454,-0.0008054975805402,0.00080549757660208,-8.035423758614e-11,8.0557018773667e-11,-0.00082661626283306,0.00082661626304113,7.8460985423694e-15,1.9049540108449e-13,-0.00084684856732113,0.00084684851387801,-0.00084684856711025,0.00084684851375694,-0.00084684851366449,0.00084684856748713,-0.0008468485134921,0.00084684856739934,-0.00080549749965604,0.00080549765742868,-0.0008054976571568,0.00080549749990673,0.0014812611045012,0.0014325179332521,0.76707660716346,0.71572660906066,1368840,32768,0.0034382958416831,0.0034382958416688,0.0034382958417568,15.1661224194,15.172744925847,3.6528979355199e-05,3.6528979355199e-05,3.6528979355199e-05,743625.49898823,0.010368351330739
22686159,0.61178187700892,0.010274859196687,0.0034249530655438,0.0034249530655302,0.0034249530656131,-0.00083212214117686,0.00083212214358713,8.1633119517175e-11,-7.9222247755888e-11,-1.0847548026619e-13,2.5735523797414e-12,-0.0008524716240375,0.00085247167909613,-0.00085247167755168,0.00085247162556526,-0.00085247162317254,0.00085247167993103,-0.000852471676649,0.00085247162640756,-0.0008109051139744,0.00081090527467493,-0.00081090527137462,0.0008109051172513,6.8027730623055e-13,-1.9758609917442e-12,-4.3296483204511e-13,-6.1557756217508e-13,-0.00083212214306096,0.00083212214169614,-0.00085247165179218,0.00085247165139324,-0.00085247165171034,0.00085247165131648,-0.00085247165256376,0.00085247165049202,-0.00085247165266236,0.00085247165049586,-0.00081090519521321,0.00081090519350292,-0.00081090519538778,0.00081090519327514,-0.00081090519364873,0.00081090519496192,-0.00081090519628612,0.0008109051924029,-8.0349638932508e-11,8.0550917533585e-11,-0.00083212214229572,0.00083212214250357,7.3237909690955e-15,1.9305404350796e-13,-0.0008524716783982,0.00085247162495633,-0.000852471678189,0.00085247162483573,-0.00085247162474364,0.00085247167856535,-0.00085247162456957,0.00085247167847718,-0.00081090511544854,0.00081090527320852,-0.00081090527290886,0.00081090511567251,0.0015038248650568,0.0014542053074788,0.7679878315528,0.72860683212355,1368840,32768,0.003461157820576,0.0034611578205617,0.0034611578206493,15.229784897788,15.232667854022,3.7038279182304e-05,3.7038279182304e-05,3.7038279182304e-05,736434.41490379,0.010437651542397
22772559,0.61576706394953,0.010341642709975,0.0034472142366397,0.0034472142366261,0.0034472142367089,-0.00083760002954157,0.0008376000319452,8.1627321164899e-11,-7.9221992822499e-11,-1.1036739305778e-13,2.5624203374647e-12,-0.0008580620333692,0.00085806208842745,-0.00085806208688403,0.00085806203489885,-0.00085806203251047,0.00085806208925993,-0.00085806208598692,0.00085806203573772,-0.00081629089826469,0.00081629105894629,-0.00081629105565249,0.00081629090154564,6.8391515097924e-13,-1.9628650358205e-12,-4.192445894244e-13,-6.1059964071775e-13,-0.00083760003141483,0.00083760003006507,-0.00085806206111741,0.00085806206073271,-0.00085806206104125,0.00085806206065101,-0.0008580620618854,0.00085806205983517,-0.00085806206198954,0.00085806205983451,-0.00081629097947635,0.00081629097780897,-0.00081629097963304,0.0008162909775522,-0.00081629097792086,0.00081629097924815,-0.00081629098057252,0.00081629097670545,-8.0345307741294e-11,8.0549085207208e-11,-0.00083760003065507,0.00083760003086699,8.3226133969324e-15,2.0276782028816e-13,-0.00085806208773286,0.00085806203428784,-0.00085806208751894,0.00085806203417404,-0.00085806203407671,0.00085806208789426,-0.0008580620338989,0.00085806208781273,-0.00081629089973743,0.00081629105748264,-0.00081629105718815,0.00081629089997413,0.0015262785650976,0.001475898288067,0.76897515062734,0.74148705518643,1368840,32768,0.0034839030675016,0.0034839030674873,0.0034839030675748,15.278471188104,15.280627239108,3.7427769504828e-05,3.7427769504828e-05,3.7427769504828e-05,728635.59450918,0.010506602572406
22858959,0.61974643959213,0.01040691811826,0.0034689727060682,0.0034689727060548,0.0034689727061374,-0.00084295595620793,0.00084295595861615,8.1626694566394e-11,-7.9208072865391e-11,-8.8467826780383e-14,2.5565294880143e-12,-0.00086356696967205,0.000863567024737,-0.00086356702324057,0.00086356697121011,-0.00086356696877765,0.00086356702554481,-0.00086356702228486,0.00086356697202157,-0.0008214870308369,0.00082148719135935,-0.00082148718794309,0.0008214870339857,6.7430028294215e-13,-1.9443796005379e-12,-4.0065184859634e-13,-6.1566669180517e-13,-0.00084295595809107,0.00084295595673241,-0.00086356699741223,0.00086356699704309,-0.00086356699730093,0.00086356699692097,-0.00086356699818567,0.00086356699603954,-0.00086356699826039,0.00086356699614027,-0.00082148711196201,0.0008214871104583,-0.0008214871120049,0.00082148710992488,-0.00082148711039541,0.00082148711170189,-0.00082148711303786,0.00082148710902824,-8.0325677399811e-11,8.0554118200513e-11,-0.00084295595733085,0.00084295595753005,-7.9079201831725e-15,2.1020962235798e-13,-0.00086356702404728,0.00086356697054631,-0.00086356702383817,0.00086356697043756,-0.00086356697038817,0.00086356702420826,-0.0008635669702198,0.00086356702413355,-0.0008214870321374,0.00082148718978597,-0.00082148718941573,0.00082148703239248,0.001548290931355,0.0014972366802401,0.75269252381784,0.49263459155055,1368840,32768,0.0035061412050123,0.0035061412050111,0.0035061412050888,15.326477051929,15.328586624193,3.7811816415431e-05,3.7811816415431e-05,3.7811816415431e-05,729134.08271305,0.010574021673965
22945359,0.62371937332974,0.010472227301428,0.0034907424337905,0.0034907424337771,0.0034907424338604,-0.00084780486653367,0.00084780486891117,8.1610384829351e-11,-7.9221692831664e-11,-1.0286403404496e-13,2.5253386467554e-12,-0.00086882680176504,0.00086882685680508,-0.00086882685527687,0.00086882680327827,-0.0008688268009179,0.00086882685762666,-0.00086882685440009,0.00086882680411112,-0.00082593021133632,0.00082593037201488,-0.00082593036868509,0.00082593021461119,6.8190662410306e-13,-1.9195375947382e-12,-3.7756339216813e-13,-6.0194003761563e-13,-0.00084780486837043,0.00084780486706732,-0.00086882682949115,0.00086882682914394,-0.00086882682942244,0.00086882682904456,-0.00086882683024028,0.00086882682824764,-0.00086882683034718,0.00086882682824803,-0.00082593029251773,0.0008259302909321,-0.00082593029269046,0.00082593029067517,-0.00082593029097824,0.00082593029227708,-0.00082593029364038,0.00082593028980497,-8.0327046769742e-11,8.054963392574e-11,-0.00084780486762937,0.00084780486784974,-1.066135077364e-14,2.166566165832e-13,-0.00086882685611493,0.00086882680268123,-0.00086882685589365,0.00086882680256509,-0.00086882680246892,0.0008688268562836,-0.00086882680227938,0.00086882685620986,-0.00082593021277741,0.00082593037054536,-0.00082593037026622,0.00082593021310806,0.0015682204928346,0.0015185792300882,0.7543083180372,0.52944636729687,1368840,32768,0.0035262735414966,0.0035262735414819,0.0035262735415678,15.374439566311,15.376546009279,3.8195516530482e-05,3.8195516530482e-05,3.8195516530482e-05,800079.6624629,0.01063506098591
23031759,0.62768492264462,0.0105374563361,0.0035124854453477,0.0035124854453344,0.0035124854454176,-0.00085320322209762,0.00085320322447243,8.1605798292996e-11,-7.9226633798368e-11,-9.3838515650701e-14,2.5229890420637e-12,-0.0008743516880224,0.00087435174305428,-0.00087435174153097,0.00087435168953366,-0.00087435168718853,0.0008743517438676,-0.00087435174064931,0.00087435169035758,-0.00083120038255156,0.00083120054317707,-0.00083120053992182,0.00083120038576491,6.8831373719369e-13,-1.9016024955844e-12,-3.5833227378324e-13,-5.9856599363153e-13,-0.00085320322392007,0.00085320322264377,-0.0008743517157221,0.00087435171540552,-0.00087435171566535,0.00087435171531526,-0.00087435171647473,0.00087435171453299,-0.00087435171659468,0.00087435171451944,-0.00083120046364052,0.0008312004620978,-0.00083120046391512,0.00083120046184876,-0.00083120046219906,0.00083120046346744,-0.00083120046475099,0.00083120046098191,-8.032462754953e-11,8.0552261933691e-11,-0.00085320322318802,0.00085320322341844,-1.1245038824724e-14,2.3194795826674e-13,-0.0008743517423754,0.00087435168894453,-0.0008743517421352,0.00087435168883479,-0.00087435168873485,0.00087435174254207,-0.00087435168853552,0.00087435174246471,-0.00083120038394405,0.00083120054173063,-0.00083120054138133,0.00083120038421698,0.0015904146681758,0.0015398912543779,0.75552546737718,0.55806468405883,1368840,32768,0.0035486869518127,0.0035486869517998,0.0035486869518883,15.422399161027,15.424505394365,3.8579193288213e-05,3.8579193288213e-05,3.8579193288213e-05,791442.3078214,0.010703019926404
23118159,0.63164299521409,0.010602514082879,0.0035341713609406,0.0035341713609274,0.0035341713610106,-0.00085857137265463,0.00085857137501905,8.1596913829116e-11,-7.9232820844652e-11,-9.0680023905162e-14,2.5073555784788e-12,-0.00087985436161698,0.00087985441665066,-0.00087985441512452,0.00087985436312989,-0.00087985436078023,0.00087985441745864,-0.00087985441425026,0.00087985436394415,-0.00083643220073478,0.0008364323613394,-0.00083643235810191,0.00083643220393539,6.8796379200192e-13,-1.8830704146679e-12,-3.5192758708908e-13,-5.9516993561407e-13,-0.00085857137446509,0.00085857137320195,-0.00087985438931212,0.00087985438900898,-0.00087985438925092,0.00087985438890997,-0.00087985439005765,0.0008798543881326,-0.00087985439017483,0.00087985438811996,-0.00083643228184029,0.00083643228031429,-0.00083643228205584,0.000836432280023,-0.00083643228036069,0.00083643228166396,-0.00083643228291916,0.00083643227919462,-8.0325723751336e-11,8.0548546738364e-11,-0.00085857137374171,0.00085857137396792,-1.3151745282033e-14,2.329737063426e-13,-0.00087985441596596,0.00087985436252783,-0.00087985441573698,0.00087985436242717,-0.00087985436231854,0.00087985441612879,-0.00087985436212587,0.00087985441606038,-0.00083643220214891,0.00083643235992376,-0.00083643235958381,0.00083643220242127,0.0016124948782864,0.0015611583790638,0.75487771089182,0.55520159440022,1368840,32768,0.0035709744406046,0.0035709744405909,0.0035709744406793,15.470358553665,15.472464779451,3.8962868429321e-05,3.8962868429321e-05,3.8962868429321e-05,785361.20170876,0.010770601646083
23204559,0.63559302877879,0.010667737400554,0.0035559124668322,0.0035559124668191,0.0035559124669023,-0.00086388919215298,0.00086388919454889,8.1614635493614e-11,-7.921752125322e-11,-8.8786905268049e-14,2.5160330486821e-12,-0.00088532632132997,0.00088532637649953,-0.00088532637492108,0.00088532632300062,-0.00088532632049967,0.00088532637722563,-0.00088532637408424,0.00088532632374608,-0.00084160159417227,0.00084160175485821,-0.00084160175153265,0.00084160159733216,5.2365026754966e-13,-2.0565305273452e-12,-5.3093589791983e-13,-7.6696952548982e-13,-0.00086388919414845,0.00086388919254824,-0.00088532634920569,0.00088532634860443,-0.00088532634928249,0.00088532634855754,-0.00088532635001399,0.00088532634779824,-0.00088532635011965,0.0008853263477206,-0.00084160167548441,0.00084160167352473,-0.0008416016756672,0.00084160167322974,-0.00084160167399195,0.00084160167492571,-0.00084160167649612,0.00084160167250407,-8.031368111923e-11,8.0561662970025e-11,-0.00086388919324431,0.00086388919348073,-1.9274705288631e-15,2.3677361966962e-13,-0.00088532637568638,0.00088532632232604,-0.000885326375514,0.00088532632219057,-0.00088532632210366,0.00088532637589985,-0.00088532632189857,0.00088532637585771,-0.00084160159551149,0.00084160175341001,-0.00084160175306148,0.00084160159589714,0.0016343647956696,0.0015824583353565,0.7582546653855,0.61828843915688,1368840,32768,0.0035930524916139,0.0035930524916031,0.003593052491662,15.518317951697,15.520424164537,3.9346543613576e-05,3.9346543613576e-05,3.9346543613576e-05,785888.57581506,0.010837552628094
23290959,0.63953444517853,0.010733119088778,0.0035777063629071,0.0035777063628943,0.0035777063629765,-0.00086935730040197,0.00086935730271509,8.1565922128833e-11,-7.9268416286647e-11,-1.0824257561656e-13,2.486404100885e-12,-0.00089087494739973,0.00089087500239291,-0.0008908750009568,0.00089087494890657,-0.00089087494659926,0.00089087500319885,-0.00089087500007436,0.00089087494968402,-0.0008470026044486,0.00084700276479048,-0.00084700276176833,0.00084700260744826,5.1742631062844e-13,-2.0521536022337e-12,-5.3190400069789e-13,-7.6612330134138e-13,-0.00086935730235853,0.00086935730075005,-0.00089087497524993,0.00089087497461603,-0.00089087497524523,0.00089087497453121,-0.00089087497599562,0.00089087497377438,-0.00089087497611741,0.00089087497375164,-0.00084700268555437,0.00084700268365854,-0.00084700268585294,0.00084700268342683,-0.00084700268407796,0.00084700268497047,-0.00084700268660174,0.00084700268252907,-8.0314333305188e-11,8.0563393108347e-11,-0.00086935730145721,0.0008693573016895,-6.337232872474e-15,2.3056952978855e-13,-0.00089087500168966,0.00089087494831083,-0.00089087500150282,0.00089087494818258,-0.00089087494812969,0.00089087500193751,-0.00089087494793258,0.00089087500181306,-0.00084700260584823,0.00084700276360218,-0.00084700276313596,0.00084700260603559,0.0016568504781776,0.0016037883314272,0.76173771711095,0.68137528391353,1368840,32768,0.0036157541058324,0.0036157541058148,0.003615754105894,15.566277372231,15.568383549622,3.9730218977847e-05,3.9730218977847e-05,3.9730218977847e-05,766301.50358726,0.010906398836332
23377359,0.64346681385868,0.010798165776779,0.0035993885922408,0.0035993885922283,0.0035993885923098,-0.00087479348416428,0.00087479348651782,8.1592042360289e-11,-7.9244414666939e-11,-1.0107320640057e-13,2.4992570905879e-12,-0.0008963952090726,0.00089639526409925,-0.00089639526257984,0.00089639521057708,-0.00089639520820795,0.00089639526490562,-0.00089639526172794,0.00089639521140664,-0.00085236324623452,0.00085236340670871,-0.00085236340347638,0.00085236324927249,5.1881850339203e-13,-2.0564911461953e-12,-5.2907429302587e-13,-7.6565560974669e-13,-0.00087479348614616,0.00087479348453002,-0.00089639523697055,0.00089639523627808,-0.00089639523690538,0.00089639523617882,-0.0008963952377135,0.00089639523539649,-0.00089639523782399,0.00089639523539985,-0.00085236332732841,0.00085236332541455,-0.00085236332758911,0.00085236332526008,-0.00085236332589786,0.00085236332681229,-0.00085236332851403,0.00085236332442162,-8.032761439946e-11,8.0552074130605e-11,-0.00087479348525034,0.00087479348546595,-1.7578727687818e-14,2.2174110831429e-13,-0.00089639526341116,0.0008963952099463,-0.0008963952631904,0.00089639520985345,-0.00089639520975189,0.00089639526357654,-0.00089639520954235,0.00089639526348581,-0.00085236324754507,0.00085236340533458,-0.00085236340483946,0.00085236324780074,0.0016792203627229,0.0016250343428394,0.75936796638061,0.64196265062838,1368840,32768,0.0036383226378129,0.0036383226378006,0.0036383226378839,15.614236731745,15.616342934708,4.0113893853957e-05,4.0113893853957e-05,4.0113893853957e-05,748744.97179298,0.010974846226074
23463759,0.64743164151674,0.010863279987329,0.0036210933290909,0.0036210933290785,0.0036210933291596,-0.00088033349980315,0.00088033350209807,8.1566470141503e-11,-7.9237397440134e-11,-1.4363811195428e-13,2.4468566031515e-12,-0.00090212794667853,0.00090212800151582,-0.00090212800018167,0.00090212794808759,-0.00090212794558898,0.0009021280022882,-0.00090212799924729,0.00090212794867207,-0.00085770961447443,0.00085770977537811,-0.00085770977171744,0.00085770961738866,5.1982567850587e-13,-2.0460599648608e-12,-4.4820338122377e-13,-7.2221099577335e-13,-0.00088033350170704,0.00088033350016821,-0.00090212797420061,0.00090212797378603,-0.00090212797437411,0.00090212797344105,-0.00090212797499782,0.00090212797286432,-0.00090212797517609,0.00090212797282897,-0.00085770969560512,0.00085770969360352,-0.00085770969599756,0.00085770969352175,-0.00085770969470668,0.00085770969511492,-0.00085770969684835,0.00085770969311848,-8.0296976041323e-11,8.0550467267929e-11,-0.00088033350083841,0.00088033350109097,-1.9487522316629e-14,2.5709420477205e-13,-0.00090212800081318,0.00090212794737698,-0.00090212800058097,0.00090212794736311,-0.00090212794727016,0.00090212800106369,-0.00090212794678931,0.00090212800096689,-0.00085770961545567,0.0008577097737484,-0.00085770977333502,0.00085770961615299,0.0017020616167728,0.0016463546941233,0.75377827735241,0.55608924686761,1368840,32768,0.0036613215559707,0.0036613215559168,0.0036613215560291,15.816659067294,15.825394141812,4.1733272538352e-05,4.1733272538352e-05,4.1733272538352e-05,759723.28907,0.011044604115457
23550159,0.65143420694629,0.01092912004478,0.0036430400149085,0.0036430400148949,0.0036430400149769,-0.00088587145254872,0.000885871454861,8.1535731786421e-11,-7.9248968586643e-11,-1.1520980394898e-13,2.477055562947e-12,-0.00090792103628154,0.00090792109124647,-0.00090792108974681,0.00090792103778704,-0.00090792103541455,0.00090792109200533,-0.00090792108891791,0.00090792103856869,-0.00086300085176596,0.0008630010122237,-0.00086300100907399,0.00086300085475444,5.2136488148428e-13,-2.0453629273313e-12,-4.9116665696049e-13,-7.7309063261184e-13,-0.00088587145449471,0.00088587145290133,-0.00090792106411639,0.00090792106346491,-0.00090792106406856,0.00090792106336421,-0.00090792106482738,0.00090792106260798,-0.0009079210649438,0.00090792106260658,-0.00086300093284005,0.00086300093118739,-0.00086300093342135,0.00086300093073397,-0.00086300093143321,0.00086300093258313,-0.00086300093401804,0.00086300093005685,-8.0282923323565e-11,8.0544666489256e-11,-0.00088587145360126,0.00088587145384373,-3.1505949279582e-14,2.5366717711245e-13,-0.00090792109059136,0.00090792103717115,-0.0009079210903487,0.00090792103706841,-0.00090792103695251,0.00090792109076789,-0.00090792103676432,0.00090792109068943,-0.00086300085313791,0.00086300101100543,-0.00086300101047896,0.00086300085337371,0.0017249061512368,0.0016679114736538,0.75510676269021,0.58489638815406,1368840,32768,0.003684311352471,0.0036843113524426,0.0036843113525442,16.041450196636,16.051294551594,4.3531601573086e-05,4.3531601573086e-05,4.3531601573086e-05,783906.69916084,0.011114339208758
23636559,0.6554740022507,0.010996060671483,0.0036653535571429,0.0036653535571289,0.003665353557211,-0.00089173983848435,0.00089173984083327,8.1549635361676e-11,-7.9210142125706e-11,-9.5856953988795e-14,2.5069872956119e-12,-0.00091390707572124,0.00091390713070815,-0.0009139071292098,0.0009139070772159,-0.0009139070748825,0.00091390713152917,-0.00091390712833896,0.00091390707803718,-0.00086876783247304,0.00086876799296991,-0.0008687679897669,0.00086876783562185,5.2853833881067e-13,-2.049220515367e-12,-5.0895467237235e-13,-7.8661835170225e-13,-0.00089173984046185,0.00089173983884848,-0.00091390710356444,0.00091390710291611,-0.00091390710351925,0.00091390710279865,-0.00091390710431962,0.0009139071020385,-0.00091390710444449,0.00091390710201011,-0.00086876791363378,0.00086876791177556,-0.00086876791393796,0.00086876791148945,-0.00086876791221691,0.00086876791321237,-0.00086876791477037,0.00086876791072344,-8.027908952892e-11,8.0523430064485e-11,-0.00089173983955613,0.00089173983979503,-3.0583815685424e-14,2.4963331505005e-13,-0.00091390713002982,0.00091390707661669,-0.00091390712979213,0.00091390707652883,-0.00091390707640665,0.00091390713020126,-0.00091390707619792,0.00091390713014122,-0.00086876783383712,0.0008687679915743,-0.00086876799117765,0.00086876783411445,0.0017491039313826,0.0016897912288228,0.76086960510681,0.68992504921912,1368840,32768,0.0037086725093685,0.0037086725093533,0.0037086725094381,16.267279415527,16.277194961375,4.5338235324214e-05,4.5338235324214e-05,4.5338235324214e-05,773140.39440927,0.011188238685418
23722959,0.6595504535792,0.0110640410696,0.0036880136898488,0.0036880136898348,0.0036880136899167,-0.00089784323497937,0.00089784323722742,8.1514485935467e-11,-7.9263382146319e-11,-1.7030829719842e-13,2.4382413369302e-12,-0.00092003734098045,0.00092003739583346,-0.00092003739441514,0.00092003734241001,-0.00092003734006039,0.00092003739661976,-0.00092003739358405,0.00092003734326053,-0.00087486806760676,0.00087486822810372,-0.00087486822509537,0.00087486807044779,4.55733033551e-13,-2.1279624627957e-12,-5.6405913602764e-13,-8.324898621238e-13,-0.00089784323693025,0.00089784323523899,-0.00092003736872264,0.0009200373679101,-0.00092003736865612,0.00092003736794827,-0.00092003736920037,0.00092003736719613,-0.00092003736958205,0.00092003736713807,-0.00087486814867217,0.0008748681469642,-0.00087486814925252,0.00087486814658991,-0.00087486814719624,0.00087486814809449,-0.000874868150286,0.00087486814583759,-8.024632491221e-11,8.0573805702014e-11,-0.0008978432359521,0.00089784323626025,1.5345384150224e-14,2.8607806933488e-13,-0.00092003739508798,0.00092003734174707,-0.00092003739475983,0.00092003734162128,-0.00092003734158521,0.00092003739538046,-0.00092003734135048,0.00092003739533365,-0.00087486806872127,0.00087486822666666,-0.00087486822615874,0.00087486806910951,0.0017742666527839,0.0017119840089056,0.76558529770359,0.7687537279696,1368840,32768,0.0037340087665951,0.0037340087665171,0.0037340087666066,16.493175521508,16.503095371156,4.7145404172064e-05,4.7145404172064e-05,4.7145404172064e-05,740678.89653642,0.011265101417639
23809359,0.66366284153267,0.011132987076547,0.0037109956921651,0.00371099569215,0.0037109956922316,-0.00090396113262492,0.00090396113488777,8.1532717849083e-11,-7.9205309420401e-11,-1.2581686226357e-13,2.4541019112241e-12,-0.00092620288942721,0.00092620294381987,-0.00092620294277052,0.00092620289046056,-0.00092620288844356,0.00092620294516599,-0.00092620294176957,0.00092620289141166,-0.00088096976863015,0.00088096992862244,-0.00088096992541338,0.00088096977116268,5.4257688053109e-13,-2.0124245218122e-12,-4.4910722125914e-13,-6.4874407837254e-13,-0.00090396113448458,0.00090396113305753,-0.00092620291705356,0.00092620291633187,-0.00092620291702012,0.00092620291633233,-0.0009262029173349,0.00092620291565551,-0.00092620291764653,0.00092620291587043,-0.00088096984960505,0.00088096984757386,-0.00088096984973034,0.00088096984741606,-0.00088096984756443,0.00088096984917434,-0.00088096985075647,0.00088096984684899,-8.0218285768787e-11,8.0562956356984e-11,-0.00090396113363512,0.00090396113389479,8.6167220591735e-15,2.10520156989e-13,-0.00092620294342235,0.00092620289013703,-0.00092620294321234,0.00092620288995758,-0.00092620289008551,0.00092620294362052,-0.00092620288953604,0.00092620294326063,-0.00088096977000352,0.00088096992786724,-0.00088096992678601,0.00088096977015359,0.0017994922029858,0.0017344767779923,0.76929252209242,0.81636548286578,1368840,32768,0.0037594045946932,0.0037594045947543,0.003759404594729,16.719076219782,16.728995780938,4.895260975825e-05,4.895260975825e-05,4.895260975825e-05,715002.91354094,0.011342150614683
23895759,0.66781023558959,0.011202933392259,0.0037343111307354,0.0037343111307222,0.0037343111308012,-0.00091009808240565,0.00091009808473927,8.152088785754e-11,-7.9195329725274e-11,-1.1529550721316e-13,2.5087068607274e-12,-0.00093240637611935,0.00093240643060421,-0.00093240642949222,0.00093240637766603,-0.00093240637525451,0.00093240643151757,-0.0009324064284318,0.00093240637803251,-0.00088707848745534,0.00088707864815069,-0.00088707864446368,0.00088707849057869,4.6186008166801e-13,-2.1361612711512e-12,-6.098608838745e-13,-7.4503816606603e-13,-0.0009100980844398,0.00091009808272034,-0.00093240640369634,0.00093240640301015,-0.00093240640389645,0.0009324064029809,-0.00093240640476546,0.00093240640198857,-0.00093240640485996,0.0009324064022328,-0.00088707856909732,0.00088707856663122,-0.00088707856906175,0.00088707856672907,-0.00088707856737363,0.00088707856830599,-0.00088707857013329,0.0008870785659963,-8.0341589266655e-11,8.0417809776406e-11,-0.00091009808354383,0.00091009808362436,-2.5959559894441e-14,1.1138130325999e-13,-0.00093240643023225,0.00093240637687983,-0.00093240643016159,0.0009324063768405,-0.00093240637680195,0.0009324064304353,-0.00093240637652457,0.0009324064304256,-0.00088707848920848,0.00088707864720151,-0.00088707864653913,0.00088707848930701,0.0018247983794967,0.0017572788624339,0.7735515827026,0.86397723776199,1368840,32768,0.0037848788830871,0.0037848788831186,0.0037848788831354,16.944977433205,16.954896190718,5.0759819465636e-05,5.0759819465636e-05,5.0759819465636e-05,695332.43550966,0.011419443611524
23982159,0.67199165115578,0.011273831704385,0.0037579439014437,0.0037579439014313,0.0037579439015096,-0.00091630808271941,0.00091630808529575,8.1714342741744e-11,-7.9088523282255e-11,-7.4525223305584e-14,2.6985716781347e-12,-0.00093867378671351,0.00093867384222301,-0.00093867384056827,0.00093867378881916,-0.00093867378574287,0.00093867384287002,-0.00093867383955025,0.00093867378953923,-0.00089327392149506,0.00089327408299685,-0.00089327407834355,0.00089327392456811,6.744835420496e-13,-2.0717726499441e-12,-5.7819554240542e-13,-7.3097655152105e-13,-0.00091630808479519,0.00091630808317231,-0.00093867381458445,0.00093867381412664,-0.00093867381477473,0.0009386738139532,-0.00093867381559802,0.00093867381318762,-0.00093867381562886,0.00093867381330064,-0.00089327400317572,0.00089327400084686,-0.00089327400320601,0.00089327400046977,-0.00089327400030342,0.00089327400299126,-0.00089327400331363,0.00089327399936079,-8.0304309523173e-11,8.0541241064489e-11,-0.00091630808398721,0.00091630808411552,-5.6722090708476e-14,9.7871451270816e-14,-0.00093867384144643,0.00093867378791507,-0.00093867384144717,0.00093867378785538,-0.00093867378760254,0.00093867384136378,-0.00093867378757128,0.00093867384121281,-0.00089327392226781,0.00089327408056123,-0.00089327407992264,0.00089327392298901,0.0018504088973582,0.0017803798411241,0.7774500419324,0.89626151917402,1368840,32768,0.0038106557832081,0.0038106557831091,0.0038106557833898,17.170878614274,17.1807966005,5.2567028914189e-05,5.2567028914189e-05,5.2567028914189e-05,674679.94784885,0.011497660616566
24068559,0.67620608107812,0.011344013583718,0.0037813378612207,0.0037813378612054,0.0037813378612915,-0.00092243942547994,0.0009224394279175,8.1644844129584e-11,-7.9175770881607e-11,-1.9213730680775e-13,2.6598313616247e-12,-0.00094490850566737,0.00094490856068002,-0.00094490855920748,0.00094490850719602,-0.00094490850475189,0.00094490856162024,-0.00094490855819885,0.00094490850807473,-0.00089931393916888,0.00089931409999901,-0.00089931409644819,0.00089931394275598,6.0130602757243e-13,-2.2245871580364e-12,-6.0345427076861e-13,-7.9908179448204e-13,-0.00092243942754492,0.00092243942584561,-0.0009449085335338,0.0009449085328699,-0.00094490853345033,0.00094490853281626,-0.00094490853438792,0.0009449085319115,-0.00094490853446092,0.0009449085319332,-0.00089931402046795,0.00089931401865488,-0.00089931402118711,0.00089931401841602,-0.00089931401915144,0.0008993140200731,-0.00089931402173099,0.00089931401759375,-8.0320238360087e-11,8.0543223400988e-11,-0.00092243942661438,0.00092243942681924,-1.5467395128755e-14,1.8173559516114e-13,-0.00094490856005055,0.00094490850660955,-0.00094490855984498,0.0009449085064735,-0.00094490850640848,0.00094490856021372,-0.00094490850619862,0.00094490856009635,-0.00089931394070651,0.00089931409823175,-0.00089931409818726,0.000899313941031,0.0018757488771762,0.0018033665315725,0.76336476153178,0.65727747441473,1368840,32768,0.0038361053240595,0.0038361053240452,0.0038361053241346,17.396776552702,17.406697010282,5.4374212421611e-05,5.4374212421611e-05,5.4374212421611e-05,663781.69803839,0.011574891032497
24154959,0.68045239447696,0.011414823139526,0.0038049410464901,0.0038049410464748,0.0038049410465614,-0.00092814921623794,0.00092814921866652,8.1648164204629e-11,-7.9173178107873e-11,-1.9055932560223e-13,2.6403411335084e-12,-0.0009509638252108,0.00095096388021198,-0.00095096387872049,0.00095096382670192,-0.00095096382428828,0.00095096388111377,-0.00095096387774838,0.00095096382759096,-0.00090470438004869,0.00090470454080732,-0.00090470453722133,0.00090470438322937,5.7200752556273e-13,-2.2326944397763e-12,-5.9008691442629e-13,-7.493416816554e-13,-0.00092814921829247,0.00092814921660332,-0.00095096385304726,0.00095096385238785,-0.00095096385298931,0.00095096385231962,-0.00095096385388601,0.00095096385143583,-0.00095096385398995,0.00095096385146385,-0.00090470446143282,0.00090470445941437,-0.00090470446157225,0.00090470445918593,-0.00090470445981709,0.00090470446080859,-0.00090470446259711,0.00090470445819715,-8.0323043715562e-11,8.0540739520987e-11,-0.00092814921737014,0.00092814921757396,1.3154745190388e-14,1.7428213168286e-13,-0.0009509638795432,0.00095096382609419,-0.00095096387933171,0.00095096382598956,-0.0009509638259238,0.00095096387969819,-0.00095096382572214,0.00095096387961165,-0.00090470438139829,0.00090470453928617,-0.00090470453882487,0.0009047043817987,0.0018993540640639,0.0018265608225307,0.76429279002465,0.67952367528865,1368840,32768,0.0038598043411754,0.0038598043411574,0.0038598043412577,17.622676888662,17.632597420063,5.6181415109294e-05,5.6181415109294e-05,5.6181415109294e-05,710391.1261121,0.011646814897207
24241359,0.68469205881954,0.011485576973281,0.0038285256577418,0.0038285256577262,0.003828525657813,-0.00093405719863373,0.00093405720104235,8.1621197234334e-11,-7.9201651914488e-11,-1.8802078550583e-13,2.6291810332653e-12,-0.00095698734162431,0.00095698739660342,-0.00095698739512993,0.00095698734311808,-0.00095698734069998,0.00095698739750213,-0.00095698739417735,0.00095698734400884,-0.00091051837807717,0.00091051853885145,-0.00091051853538501,0.00091051838130834,5.8246413259116e-13,-2.2085217076484e-12,-5.9275312709297e-13,-7.541291089322e-13,-0.00093405720067653,0.00093405719899155,-0.00095698736949544,0.00095698736880428,-0.00095698736942799,0.00095698736872169,-0.00095698737030205,0.00095698736784653,-0.00095698737040168,0.00095698736787435,-0.00091051845956094,0.00091051845746555,-0.00091051845970538,0.00091051845723203,-0.00091051845778199,0.00091051845892479,-0.00091051846063394,0.00091051845623373,-8.0324597785733e-11,8.0540655655902e-11,-0.00093405719975478,0.00093405719995537,1.5921057740262e-14,1.7943043028823e-13,-0.00095698739595788,0.00095698734252298,-0.00095698739577113,0.00095698734240092,-0.00095698734234468,0.00095698739612388,-0.00095698734214659,0.0009569873960103,-0.00091051837945384,0.00091051853729957,-0.00091051853691779,0.00091051837974667,0.0019237707264428,0.0018497350935376,0.76536234017897,0.70176987616257,1368840,32768,0.0038843255985586,0.003884325598542,0.0038843255986294,17.719442048589,17.723820889573,5.6955536388709e-05,5.6955536388709e-05,5.6955536388709e-05,700939.92841959,0.011721239093846
24327759,0.68892008966133,0.011556259659877,0.0038520865532737,0.0038520865532583,0.0038520865533451,-0.00093993053498545,0.00093993053739088,8.1615815692854e-11,-7.9202421655679e-11,-1.7536461331967e-13,2.6290194499663e-12,-0.00096296953435924,0.0009629695893558,-0.00096296958787282,0.00096296953584973,-0.00096296953344604,0.00096296959023831,-0.00096296958691382,0.00096296953672713,-0.00091630673326613,0.00091630689395751,-0.00091630689054979,0.00091630673653168,5.7462329859384e-13,-2.2033645710777e-12,-6.0538324125165e-13,-7.5482260245233e-13,-0.00093993053702793,0.00093993053533909,-0.00096296956221844,0.00096296956152767,-0.00096296956214747,0.00096296956146213,-0.00096296956303718,0.00096296956058663,-0.00096296956313113,0.00096296956061906,-0.00091630681466424,0.00091630681257705,-0.00091630681478614,0.00091630681240145,-0.0009163068130127,0.00091630681408838,-0.00091630681576147,0.00091630681139854,-8.0330578073628e-11,8.0529844236183e-11,-0.00093993053611022,0.00093993053630132,1.1967281466589e-14,1.6329321738665e-13,-0.00096296958868978,0.00096296953525063,-0.00096296958849646,0.00096296953512928,-0.00096296953505452,0.00096296958884703,-0.00096296953487365,0.00096296958874501,-0.00091630673471565,0.00091630689242792,-0.00091630689210564,0.00091630673495197,0.0019480454405562,0.001872883125031,0.76658846035067,0.72401607703649,1368840,32768,0.0039087024818655,0.0039087024818462,0.0039087024819386,17.800835694836,17.804430024264,5.7606685558682e-05,5.7606685558682e-05,5.7606685558682e-05,690767.65945906,0.011795230443455
24414159,0.69313546400867,0.011626572668365,0.0038755242227696,0.0038755242227542,0.003875524222841,-0.00094577301880997,0.0009457730212053,8.1610978311221e-11,-7.9213906922459e-11,-1.6427704027271e-13,2.6109161206577e-12,-0.00096892315329781,0.0009689232082839,-0.00096892320680341,0.00096892315478716,-0.00096892315238424,0.00096892320915598,-0.00096892320584991,0.00096892315565217,-0.00092205774700635,0.00092205790771699,-0.00092205790432796,0.00092205775024182,5.6724990619886e-13,-2.1814565932926e-12,-6.1061094919582e-13,-7.6049466446885e-13,-0.00094577302084672,0.00094577301915888,-0.00096892318114094,0.00096892318044018,-0.00096892318107025,0.00096892318038593,-0.00096892318195513,0.00096892317951345,-0.00096892318204159,0.00096892317954563,-0.00092205782843353,0.00092205782630749,-0.00092205782855397,0.0009220578261204,-0.00092205782678211,0.0009220578278614,-0.0009220578295021,0.0009220578252392,-8.0332184436319e-11,8.0534871788477e-11,-0.00094577301992836,0.00094577302011979,1.4896971378338e-14,1.6669370173948e-13,-0.00096892320760604,0.00096892315417421,-0.00096892320742118,0.00096892315404178,-0.00096892315397943,0.00096892320776732,-0.00096892315380396,0.00096892320765957,-0.00092205774845561,0.00092205790621888,-0.00092205790588582,0.00092205774869021,0.0019722049583005,0.0018959299354911,0.76475896288699,0.69420677859292,1368840,32768,0.0039329506978859,0.0039329506978658,0.0039329506979541,17.881495500843,17.885039158954,5.825196400674e-05,5.825196400674e-05,5.825196400674e-05,681450.56909854,0.011868836722328
24500559,0.69733735053297,0.01169689453407,0.0038989648446716,0.003898964844656,0.0038989648447428,-0.00095152151246436,0.0009515215148539,8.1611306036503e-11,-7.9206712289309e-11,-1.5773218139013e-13,2.603886511878e-12,-0.00097482408865725,0.00097482414364023,-0.00097482414216731,0.00097482409015165,-0.0009748240877629,0.00097482414450886,-0.00097482414124167,0.0009748240910107,-0.00092768075676449,0.00092768091753957,-0.00092768091409538,0.00092768076004767,5.6609807373949e-13,-2.1690605308073e-12,-5.9910935938502e-13,-7.4206755093393e-13,-0.00095152151449129,0.00095152151282054,-0.00097482411650545,0.00097482411582306,-0.00097482411643804,0.00097482411575427,-0.00097482411732215,0.00097482411488503,-0.00097482411739669,0.00097482411491596,-0.00092768083818989,0.00092768083614135,-0.00092768083837632,0.00092768083592012,-0.00092768083658525,0.00092768083763852,-0.00092768083927509,0.00092768083505255,-8.0333522777787e-11,8.0526475368512e-11,-0.00095152151358469,0.00095152151377111,1.3160068557174e-14,1.5803848085642e-13,-0.00097482414297698,0.0009748240895524,-0.00097482414279047,0.00097482408942032,-0.00097482408935122,0.0009748241431472,-0.00097482408918117,0.00097482414303025,-0.00092768075822729,0.00092768091598661,-0.00092768091571877,0.00092768075851165,0.0019959751516853,0.0019189672216306,0.76720563654625,0.73750027762936,1368840,32768,0.0039568082443521,0.0039568082443388,0.00395680824443,17.962108161181,17.965648293645,5.8896865289449e-05,5.8896865289449e-05,5.8896865289449e-05,682245.30523482,0.01194126227568
24586959,0.70152489636562,0.011767350737019,0.0039224502456544,0.0039224502456387,0.0039224502457257,-0.00095741370806025,0.00095741371042512,8.1598569366776e-11,-7.9218921828081e-11,-1.6771990568377e-13,2.5865862462716e-12,-0.00098078813850357,0.00098078819353593,-0.00098078819204161,0.00098078814004474,-0.00098078813759651,0.00098078819434963,-0.00098078819110389,0.00098078814086097,-0.00093353369508218,0.00093353385582775,-0.00093353385236876,0.00093353369850173,5.3365963824084e-13,-2.1938287447436e-12,-6.2098045594392e-13,-7.8514248502426e-13,-0.00095741371009447,0.00095741370837343,-0.00098078816643796,0.0009807881656819,-0.00098078816638578,0.00098078816560969,-0.00098078816712648,0.00098078816479716,-0.00098078816728677,0.00098078816476131,-0.00093353377644199,0.00093353377444916,-0.00093353377674148,0.00093353377427958,-0.00093353377490485,0.00093353377579171,-0.00093353377762214,0.00093353377323733,-8.0373468233951e-11,8.048598063501e-11,-0.00095741370920122,0.00095741370932635,-2.1178220666955e-14,1.4516922694447e-13,-0.00098078819292262,0.00098078813929634,-0.00098078819270487,0.00098078813926793,-0.00098078813922485,0.00098078819290722,-0.00098078813915427,0.00098078819295345,-0.00093353369648697,0.00093353385408188,-0.00093353385401406,0.00093353369680529,0.0020203344532501,0.0019420255555361,0.77129657500664,0.80158603877072,1368840,32768,0.003981261716909,0.0039812617168728,0.0039812617169966,18.042717790138,18.046257428336,5.9541742321103e-05,5.9541742321103e-05,5.9541742321103e-05,665616.59707564,0.012015501928375
24673359,0.70569738267218,0.011838008241343,0.0039460027470958,0.0039460027470798,0.0039460027471678,-0.00096335507593834,0.00096335507833559,8.1623199231998e-11,-7.9219862416993e-11,-1.7317876833103e-13,2.6207842309584e-12,-0.00098677216013732,0.00098677221513094,-0.0009867722136551,0.00098677216162254,-0.00098677215922493,0.00098677221601263,-0.00098677221270611,0.0009867721624919,-0.00093947365659134,0.00093947381733873,-0.00093947381396255,0.00093947365990501,5.7279342802454e-13,-2.1946193088277e-12,-6.0442347645416e-13,-7.6584853032368e-13,-0.00096335507797698,0.00096335507628871,-0.00098677218799486,0.0009867721873053,-0.00098677218792511,0.00098677218723484,-0.00098677218880869,0.00098677218636449,-0.00098677218890339,0.0009867721863893,-0.00093947373803071,0.00093947373593103,-0.00093947373815991,0.00093947373570646,-0.00093947373638255,0.00093947373749193,-0.0009394737391372,0.0009394737348383,-8.0347866016081e-11,8.0537096558748e-11,-0.00096335507706006,0.0009633550772496,1.0855403668987e-14,1.7418428173093e-13,-0.00098677221446995,0.00098677216101826,-0.00098677221427388,0.00098677216089653,-0.00098677216083104,0.00098677221462471,-0.00098677216065121,0.00098677221452829,-0.00093947365805603,0.00093947381577926,-0.00093947381551398,0.00093947365827347,0.0020448921467099,0.0019651249584844,0.77609620284858,0.86567179991208,1368840,32768,0.0040059187351142,0.0040059187350971,0.0040059187351883,18.123327338499,18.126866563026,6.0186618707987e-05,6.0186618707987e-05,6.0186618707987e-05,643554.49579867,0.012090364771534
24759759,0.70985403575248,0.011907057444404,0.0039690191481161,0.0039690191481,0.003969019148188,-0.00096916684468446,0.00096916684707603,8.1586964191894e-11,-7.9232410327781e-11,-1.6906624690691e-13,2.6197462626676e-12,-0.00099265981142829,0.00099265986645141,-0.00099265986489269,0.00099265981291251,-0.00099265981043815,0.00099265986725913,-0.00099265986399879,0.00099265981374086,-0.00094521721125694,0.00094521737182795,-0.00094521736839315,0.0009452172144976,5.7099513002013e-13,-2.1910492708311e-12,-5.6582968487976e-13,-7.597088796505e-13,-0.00096916684670805,0.00096916684504268,-0.00099265983923984,0.00099265983865228,-0.00099265983923684,0.00099265983850646,-0.00099265984007189,0.00099265983768841,-0.000992659840174,0.00099265983764494,-0.00094521729247687,0.00094521729041179,-0.0009452172926126,0.0009452172900877,-0.00094521729087713,0.00094521729186478,-0.00094521729357388,0.0009452172893331,-8.0316789553681e-11,8.0544434114002e-11,-0.00096916684578932,0.00096916684600394,2.3661041877295e-15,1.9776245849264e-13,-0.00099265986581518,0.00099265981221336,-0.00099265986541319,0.00099265981223658,-0.00099265981208836,0.00099265986589685,-0.0009926598119152,0.00099265986580938,-0.00094521721247444,0.00094521737016181,-0.00094521736974859,0.00094521721287128,0.0020689622297741,0.0019878079431195,0.76108864800359,0.62165263085071,1368840,32768,0.004030037106898,0.0040300371068777,0.004030037106966,18.203935678026,18.207475697718,6.0831485424202e-05,6.0831485424202e-05,6.0831485424202e-05,628203.87581987,0.012163598404451
24846159,0.7139940214576,0.011975343818761,0.0039917812729014,0.0039917812728857,0.0039917812729735,-0.00097437352288832,0.00097437352533252,8.1626609451347e-11,-7.9197817296339e-11,-1.3932944946331e-13,2.6446967945636e-12,-0.00099823010424175,0.00099823015933518,-0.00099823015781524,0.00099823010588832,-0.00099823010337716,0.00099823016027979,-0.00099823015682548,0.00099823010682246,-0.00095006764432059,0.00095006780511208,-0.00095006780179498,0.00095006764769769,5.7687096522329e-13,-2.1802070432302e-12,-5.6560867692552e-13,-7.5971423242816e-13,-0.00097437352491775,0.00097437352328346,-0.00099823013211647,0.0009982301315502,-0.00099823013196292,0.00099823013154309,-0.000998230132953,0.00099823013042705,-0.00099823013300853,0.00099823013050772,-0.00095006772576683,0.00095006772365853,-0.0009500677259976,0.00095006772347111,-0.00095006772415144,0.0009500677252577,-0.0009500677266202,0.0009500677223815,-8.0321008130689e-11,8.0544844924981e-11,-0.00097437352401767,0.00097437352425508,3.3923846002732e-14,2.3005273675269e-13,-0.0009982301585867,0.00099823010525928,-0.00099823015841266,0.00099823010512009,-0.00099823010496847,0.00099823015871098,-0.00099823010483636,0.00099823015878505,-0.00095006764556461,0.00095006780339013,-0.00095006780306012,0.00095006764578139,0.0020905460326763,0.0020102819675633,0.75556356890019,0.54630241722969,1368840,32768,0.0040516435828593,0.0040516435828185,0.004051643582967,18.284544704659,18.288084832408,6.1476357637273e-05,6.1476357637273e-05,6.1476357637273e-05,676557.47290315,0.012229210140005
24932559,0.71811627943395,0.012043044172415,0.0040143480574529,0.0040143480574362,0.0040143480575261,-0.00097980248863577,0.00097980249101869,8.1610297096737e-11,-7.924492806302e-11,-1.5290279951267e-13,2.6070035931239e-12,-0.0010039050197186,0.0010039050747054,-0.0010039050732554,0.0010039050212044,-0.0010039050188089,0.0010039050755968,-0.0010039050722942,0.0010039050220749,-0.00095525272791039,0.00095525288868322,-0.00095525288532775,0.00095525273120073,5.5300041504044e-13,-2.1799536392068e-12,-5.746437979676e-13,-7.8967489068002e-13,-0.0009798024906665,0.00097980248898035,-0.0010039050475663,0.0010039050468963,-0.0010039050474939,0.0010039050467904,-0.0010039050483791,0.0010039050459628,-0.0010039050484724,0.0010039050459305,-0.00095525280937157,0.00095525280731457,-0.00095525280960177,0.00095525280709519,-0.00095525280791492,0.00095525280883529,-0.00095525281056051,0.00095525280613113,-8.0357880180744e-11,8.0538622953294e-11,-0.00097980248974912,0.00097980248994176,-1.1702039569547e-14,2.0482021347131e-13,-0.001003905074079,0.0010039050206049,-0.0010039050738327,0.0010039050204995,-0.0010039050204214,0.0010039050742282,-0.0010039050202289,0.0010039050741377,-0.00095525272942501,0.00095525288723938,-0.00095525288692457,0.00095525272966186,0.002113062962987,0.0020325845040266,0.75281953776302,0.51694326775483,1368840,32768,0.0040741721054899,0.0040741721054741,0.0040741721055655,18.365153803899,18.368693967098,6.2121230431193e-05,6.2121230431193e-05,6.2121230431193e-05,695205.38124277,0.012297626248563
25018959,0.72226985315287,0.012111422988863,0.004037140996269,0.004037140996252,0.0040371409963424,-0.00098572493573142,0.00098572493814524,8.1678264638023e-11,-7.9193408431027e-11,-1.2385771623179e-13,2.5997456972005e-12,-0.0010100126093383,0.0010100126643546,-0.0010100126628601,0.001010012610914,-0.0010100126085686,0.0010100126651651,-0.0010100126619736,0.0010100126115235,-0.0009609922256312,0.00096099238670148,-0.00096099238290504,0.00096099222866115,5.9836713205956e-13,-2.0988635282187e-12,-5.1586647592738e-13,-7.3226796795152e-13,-0.0009857249377337,0.0009857249361457,-0.0010100126372351,0.0010100126365898,-0.001010012637183,0.001010012636428,-0.0010100126379656,0.0010100126357952,-0.0010100126381002,0.0010100126356078,-0.00096099230712354,0.00096099230514662,-0.00096099230730686,0.00096099230492459,-0.00096099230550324,0.00096099230651099,-0.00096099230769447,0.00096099230377919,-8.0301769894874e-11,8.0609847395083e-11,-0.00098572493682483,0.00098572493710095,6.3643643965658e-15,2.2340311636462e-13,-0.0010100126637912,0.0010100126102459,-0.0010100126633429,0.0010100126101949,-0.0010100126099955,0.0010100126637286,-0.0010100126096927,0.0010100126637546,-0.00096099222678909,0.00096099238510798,-0.0009609923843947,0.00096099222759394,0.0021376370153999,0.0020551013531731,0.75485125754124,0.56223035038236,1368840,32768,0.0040987479518349,0.0040987479518407,0.0040987479519369,18.626911090542,18.638225424412,6.4215288724337e-05,6.4215288724337e-05,6.4215288724337e-05,701699.3068579,0.012372264707094
25105359,0.72645816004663,0.012180564806908,0.0040601882689504,0.0040601882689342,0.0040601882690233,-0.00099190718539953,0.00099190718774736,8.1672682161505e-11,-7.9223264754231e-11,-1.6138654034021e-13,2.5414905356793e-12,-0.0010162966480442,0.0010162967029589,-0.0010162967015167,0.0010162966495856,-0.0010162966475134,0.0010162967037416,-0.0010162967008384,0.0010162966508405,-0.00096707921418664,0.00096707937522633,-0.00096707937197026,0.00096707921757238,5.4270886179327e-13,-2.1354389108659e-12,-5.3658038724926e-13,-7.3673937547074e-13,-0.00099190718737451,0.00099190718567556,-0.0010162966759639,0.0010162966754783,-0.0010162966757208,0.0010162966746267,-0.0010162966770271,0.0010162966744821,-0.0010162966767947,0.0010162966742777,-0.0009670792954109,0.00096707929398591,-0.00096707929566747,0.00096707929315678,-0.00096707929468139,0.00096707929518456,-0.00096707929722227,0.00096707929274148,-8.0586929183454e-11,8.0349658637789e-11,-0.00099190718657716,0.00099190718649699,-1.1056443115605e-13,9.0273036338353e-14,-0.0010162967023313,0.0010162966489193,-0.0010162967022575,0.0010162966486197,-0.0010162966490766,0.0010162967024145,-0.0010162966488797,0.0010162967021337,-0.00096707921576357,0.00096707937372564,-0.00096707937381826,0.00096707921621459,0.0021632921276822,0.0020778597983201,0.75702363280086,0.60751743300992,1368840,32768,0.0041244013475558,0.004124401347355,0.0041244013474048,18.905774329204,18.917997887746,6.644619463363e-05,6.644619463363e-05,6.644619463363e-05,689004.8222345,0.012450181341038
25191759,0.73068006494237,0.012250486099409,0.004083495366454,0.0040834953664345,0.0040834953665202,-0.00099815447071415,0.00099815447313454,8.166767396156e-11,-7.9198084758757e-11,-8.9785933571949e-14,2.5488750159708e-12,-0.0010226412721132,0.0010226413271329,-0.0010226413255224,0.0010226412735694,-0.0010226412712803,0.0010226413280048,-0.0010226413249813,0.0010226412742538,-0.00097324341946543,0.00097324358062138,-0.00097324357732371,0.00097324342306978,6.0735221051275e-13,-2.0062939738022e-12,-5.3011051137011e-13,-6.8594567718335e-13,-0.00099815447269666,0.00099815447114918,-0.0010226412998577,0.0010226412992932,-0.001022641300058,0.0010226412991646,-0.0010226413009661,0.0010226412984252,-0.0010226413009515,0.0010226412984614,-0.00097324350084788,0.00097324349955444,-0.00097324350171186,0.00097324349919586,-0.00097324349970761,0.000973243501222,-0.00097324350281956,0.00097324349817971,-8.0480106093885e-11,8.0426377485257e-11,-0.00099815447195172,0.00099815447194895,-8.1820750432238e-14,7.329496677143e-14,-0.001022641326562,0.0010226412725704,-0.0010226413264364,0.0010226412725817,-0.0010226412728706,0.0010226413264679,-0.0010226412728346,0.0010226413262103,-0.00097324342145564,0.00097324357911725,-0.00097324357909756,0.00097324342123048,0.0021892194996201,0.0021008642408854,0.75933542594136,0.65280451563745,1368840,32768,0.0041503239790758,0.0041503239790699,0.0041503239791837,19.185487694826,19.19777035108,6.8683901558609e-05,6.8683901558609e-05,6.8683901558609e-05,675611.07865312,0.012528921679798
25278159,0.73493405016432,0.012321183209311,0.0041070610697543,0.0041070610697358,0.0041070610698214,-0.0010044634095664,0.0010044634119882,8.1665425294962e-11,-7.9242261262136e-11,-8.383161547228e-14,2.5485644666344e-12,-0.0010290405576977,0.0010290406127863,-0.0010290406111521,0.0010290405590938,-0.0010290405566536,0.0010290406135967,-0.0010290406103483,0.0010290405600617,-0.00097948210751303,0.00097948226848793,-0.00097948226519468,0.00097948211104328,5.3031621096848e-13,-2.0762841297686e-12,-5.7902860519122e-13,-6.8722219701008e-13,-0.0010044634115969,0.001004463409973,-0.0010290405856305,0.0010290405848398,-0.0010290405857499,0.0010290405846813,-0.0010290405866128,0.0010290405839668,-0.0010290405865318,0.0010290405838746,-0.00097948218890226,0.00097948218713422,-0.00097948218913731,0.00097948218693296,-0.00097948218787275,0.00097948218829499,-0.00097948219044603,0.0009794821860767,-8.0364057021457e-11,8.058431110167e-11,-0.0010044634106883,0.001004463410922,4.2676946248587e-14,1.5199819479478e-13,-0.0010290406119895,0.0010290405586396,-0.0010290406119345,0.0010290405586292,-0.0010290405582996,0.0010290406122389,-0.001029040558309,0.0010290406121157,-0.00097948210930661,0.0009794822671089,-0.00097948226699446,0.00097948210961402,0.0022154033700694,0.0021241123232993,0.76182492681604,0.698091598265,1368840,32768,0.0041765017967701,0.0041765017968019,0.0041765017968858,19.465256349834,19.477542814414,7.092205079867e-05,7.092205079867e-05,7.092205079867e-05,661353.03582708,0.012608443197428
25364559,0.73921850044704,0.012392776389893,0.0041309254632813,0.0041309254632631,0.0041309254633487,-0.0010108428515924,0.0010108428539563,8.169717735437e-11,-7.9253656943417e-11,-1.6074526581306e-13,2.4955778206341e-12,-0.0010354995745364,0.0010354996296781,-0.0010354996282282,0.0010354995760174,-0.0010354995737893,0.0010354996303814,-0.0010354996274713,0.0010354995770988,-0.0009858108352063,0.00098581099660579,-0.0009858109933883,0.00098581083910817,4.150287770381e-13,-2.2155445519289e-12,-6.8536750366969e-13,-7.5633120342443e-13,-0.0010108428536482,0.0010108428518815,-0.0010354996027424,0.0010354996019176,-0.0010354996024235,0.0010354996016003,-0.0010354996034408,0.0010354996008519,-0.0010354996034675,0.0010354996009119,-0.0009858109170382,0.00098581091494701,-0.00098581091704364,0.00098581091548535,-0.0009858109158917,0.00098581091615419,-0.00098581091850315,0.00098581091382878,-8.0459194203317e-11,8.053304690305e-11,-0.0010108428527042,0.0010108428528471,1.8465450599042e-14,9.1010190289394e-14,-0.0010354996290512,0.0010354995754869,-0.0010354996288875,0.0010354995754178,-0.0010354995752559,0.0010354996290972,-0.0010354995751773,0.0010354996289259,-0.00098581083691708,0.00098581099489053,-0.00098581099529935,0.00098581083725579,0.0022418766413159,0.002147633419192,0.76583524943711,0.76408772116608,1368840,32768,0.0042029715212409,0.0042029715212015,0.0042029715212462,19.745029167215,19.757315277748,7.3160233337716e-05,7.3160233337716e-05,7.3160233337716e-05,645739.4522496,0.012688857549923
25450959,0.74352982531874,0.012465824079248,0.0041552746930668,0.0041552746930486,0.0041552746931329,-0.0010173603410866,0.0010173603433616,8.1620589605838e-11,-7.9368893511255e-11,-1.0023379086767e-13,2.4331310224586e-12,-0.0010420485591503,0.0010420486141752,-0.0010420486127137,0.0010420485606249,-0.0010420485583564,0.0010420486149614,-0.0010420486118798,0.0010420485614162,-0.00099235451170873,0.0009923546723743,-0.00099235466941246,0.00099235451490328,5.2259744677143e-13,-1.9841226511208e-12,-6.0832316614484e-13,-6.3300694148421e-13,-0.0010173603430095,0.0010173603414292,-0.0010420485870725,0.0010420485863191,-0.0010420485869517,0.0010420485862608,-0.0010420485877815,0.0010420485854786,-0.0010420485878289,0.0010420485855175,-0.00099235459325734,0.00099235459124644,-0.00099235459309613,0.00099235459109466,-0.00099235459156092,0.00099235459273773,-0.00099235459399093,0.00099235459011854,-8.0454514258051e-11,8.0575761951076e-11,-0.001017360342175,0.0010173603423066,5.8143326702457e-14,8.4682604181041e-14,-0.0010420486135477,0.0010420485600281,-0.0010420486134024,0.0010420485598767,-0.0010420485598665,0.0010420486136658,-0.0010420485597373,0.0010420486135477,-0.00099235451326486,0.00099235467094864,-0.00099235467085412,0.00099235451320289,0.0022688959910862,0.0021715556666251,0.77636013507905,0.98711212393783,1368840,32768,0.004230013523075,0.0042300135230552,0.0042300135231442,20.018085455159,20.037087741081,7.5344683641272e-05,7.5344683641272e-05,7.5344683641272e-05,621946.78721613,0.012771016271026
25537359,0.74786840512055,0.012539361416633,0.0041797871388615,0.0041797871388431,0.0041797871389282,-0.0010241626037234,0.0010241626060425,8.1664961956175e-11,-7.9253257867374e-11,-4.3890982690018e-14,2.4512967616254e-12,-0.0010487629426672,0.0010487629976055,-0.0010487629960399,0.0010487629439711,-0.0010487629420194,0.0010487629983679,-0.001048762995399,0.0010487629446751,-0.00099929367161383,0.00099929383235675,-0.00099929382946423,0.00099929367489004,4.3928735948447e-13,-2.0291494226427e-12,-5.5950884856521e-13,-5.4290787041958e-13,-0.0010241626056556,0.0010241626040977,-0.0010487629705607,0.0010487629696878,-0.0010487629702743,0.0010487629696899,-0.0010487629714719,0.0010487629689925,-0.0010487629713837,0.0010487629689623,-0.00099929375299567,0.00099929375130459,-0.00099929375323992,0.00099929375112922,-0.00099929375203634,0.00099929375219483,-0.00099929375425063,0.00099929375043927,-8.0398712992153e-11,8.0560746718604e-11,-0.0010241626048226,0.0010241626049679,5.2552571025617e-14,3.7614600899762e-14,-0.0010487629969196,0.0010487629434274,-0.0010487629968343,0.0010487629433579,-0.0010487629432636,0.0010487629970282,-0.0010487629431088,0.001048762996935,-0.0009992936730639,0.00099929383087497,-0.00099929383113749,0.00099929367324776,0.0022971096531202,0.0021956600849078,0.77634722892138,0.90638301628068,1368840,32768,0.0042582363924541,0.0042582363924279,0.0042582363925051,20.298604861566,20.316860204416,7.7588838892523e-05,7.7588838892523e-05,7.7588838892523e-05,576040.582969,0.012856769705423
25623759,0.75223225285548,0.012613610724473,0.0042045369081417,0.0042045369081232,0.0042045369082081,-0.0010305579783172,0.0010305579805967,8.1582025695703e-11,-7.9271040824116e-11,-5.5963408003359e-14,2.3982543820337e-12,-0.001055297142733,0.0010552971977115,-0.0010552971962476,0.0010552971441924,-0.0010552971419418,0.0010552971984779,-0.0010552971954303,0.0010552971449552,-0.0010055964272215,0.0010055965877056,-0.0010055965846565,0.001005596430311,4.5132972689253e-13,-1.976334800799e-12,-6.1827503859256e-13,-6.0268722067205e-13,-0.0010305579802354,0.0010305579786692,-0.0010552971706195,0.001055297169867,-0.0010552971704593,0.0010552971698327,-0.0010552971713288,0.0010552971690458,-0.0010552971713338,0.0010552971691238,-0.0010055965084123,0.0010055965066,-0.0010055965085055,0.0010055965066057,-0.0010055965071512,0.0010055965079916,-0.0010055965094454,0.0010055965056354,-8.039616336416e-11,8.0497706232683e-11,-0.0010305579794193,0.0010305579795279,4.1294635536054e-14,2.7752093369068e-14,-0.0010552971970482,0.0010552971435997,-0.0010552971969251,0.0010552971434093,-0.0010552971434148,0.0010552971972131,-0.0010552971432992,0.001055297197035,-0.0010055964287336,0.0010055965862869,-0.0010055965861794,0.0010055964287472,0.0023236470743205,0.002219997284089,0.77881653063959,0.90169196773084,1368840,32768,0.0042847701186701,0.0042847701186507,0.004284770118739,20.578424744384,20.59663266775,7.9827397955072e-05,7.9827397955072e-05,7.9827397955072e-05,576118.78150005,0.01293739777316
25710159,0.75661922297991,0.012688005215351,0.0042293350717677,0.004229335071749,0.0042293350718339,-0.0010370760972373,0.0010370760995172,8.1605132166287e-11,-7.9278494096424e-11,-6.015986803968e-14,2.4186608762763e-12,-0.0010619043120869,0.0010619043671108,-0.0010619043656434,0.0010619043136105,-0.0010619043113582,0.0010619043679461,-0.0010619043648487,0.0010619043143113,-0.001012062015759,0.0010120621771278,-0.0010120621738761,0.0010120620195588,4.4871586556773e-13,-2.0038847238737e-12,-6.4330815620094e-13,-6.8871812189884e-13,-0.0010370760991722,0.001037076097567,-0.0010619043400628,0.0010619043395331,-0.0010619043398656,0.0010619043392581,-0.0010619043408775,0.0010619043385771,-0.0010619043408225,0.0010619043386541,-0.001012062098029,0.0010120620953859,-0.001012062098228,0.0010120620959653,-0.0010120620963555,0.0010120620970873,-0.0010120620983489,0.0010120620944338,-8.0465055141916e-11,8.0459287994569e-11,-0.0010370760983625,0.0010370760984325,2.079842344597e-14,6.8850131969846e-14,-0.0010619043666105,0.0010619043130127,-0.0010619043664797,0.001061904312762,-0.0010619043129693,0.0010619043666565,-0.0010619043127387,0.0010619043665177,-0.0010120620173217,0.0010120621750916,-0.0010120621754152,0.0010120620174909,0.0023507080862551,0.0022444134278496,0.77619949640887,0.82627976329999,1368840,32768,0.0043118123883148,0.0043118123882832,0.0043118123883989,20.858182795514,20.876405131083,8.2065462364108e-05,8.2065462364108e-05,8.2065462364108e-05,566503.5935432,0.013019577814369
25796559,0.76093996879916,0.012761259365415,0.0042537531217884,0.0042537531217698,0.0042537531218564,-0.0010427905024491,0.0010427905047188,8.1583456563756e-11,-7.9300763269057e-11,-8.2094521480485e-14,2.4011720281957e-12,-0.0010677755079428,0.0010677755629158,-0.0010677755614731,0.0010677755094051,-0.0010677755071437,0.001067775563701,-0.0010677755606394,0.0010677755101814,-0.0010176587686964,0.0010176589293302,-0.0010176589262124,0.0010176587718376,4.6641569249722e-13,-1.990086086589e-12,-6.195637786342e-13,-6.6842980051666e-13,-0.0010427905043737,0.0010427905027828,-0.0010677755358215,0.001067775535099,-0.0010677755357026,0.0010677755350449,-0.0010677755365639,0.0010677755342597,-0.0010677755365911,0.001067775534308,-0.0010176588501095,0.001017658848049,-0.0010176588502187,0.0010176588480331,-0.0010176588485683,0.0010176588494057,-0.001017658851009,0.00101765884708,-8.0410945030237e-11,8.0513999220238e-11,-0.0010427905035368,0.0010427905036622,3.4072459109762e-14,8.4672810362589e-14,-0.0010677755622977,0.0010677755088131,-0.0010677755621341,0.0010677755086513,-0.001067775508652,0.001067775562427,-0.001067775508501,0.0010677755622872,-0.0010176587701417,0.0010176589278385,-0.00101765892771,0.0010176587702396,0.0023744219825509,0.0022684649917666,0.77589771739836,0.80760978454617,1368840,32768,0.0043355195429748,0.0043355195429512,0.0043355195430394,20.828026638038,20.826734418514,8.18242131043e-05,8.18242131043e-05,8.18242131043e-05,569597.00964523,0.013091628319234
25882959,0.76518737303196,0.012833207425315,0.0042777358084218,0.0042777358084031,0.00427773580849,-0.0010484321502955,0.0010484321525707,8.1590074332176e-11,-7.9299339106682e-11,-8.4976551083518e-14,2.4030692055324e-12,-0.0010735240295713,0.0010735240845609,-0.0010735240831036,0.0010735240310434,-0.0010735240287803,0.0010735240853407,-0.0010735240822626,0.0010735240318134,-0.0010232266532497,0.0010232268138396,-0.0010232268106953,0.001023226656319,4.7482153864557e-13,-1.9864825202049e-12,-6.0562407212972e-13,-6.5487842038437e-13,-0.0010484321522195,0.0010484321506371,-0.001073524057456,0.0010735240567403,-0.0010735240573359,0.0010735240566728,-0.001073524058189,0.0010735240558941,-0.0010735240582321,0.0010735240559467,-0.0010232267345669,0.0010232267325529,-0.0010232267346231,0.0010232267324957,-0.0010232267330561,0.0010232267339397,-0.0010232267355641,0.0010232267316509,-8.0399381295266e-11,8.0530644888195e-11,-0.0010484321513815,0.0010484321515196,3.817831897268e-14,8.9087249033929e-14,-0.0010735240839243,0.00107352403044,-0.0010735240837644,0.0010735240302829,-0.0010735240302624,0.0010735240840524,-0.00107352403013,0.0010735240839355,-0.0010232266546575,0.0010232268123942,-0.0010232268121833,0.0010232266547993,0.0023978331114041,0.0022920965686523,0.77524273886472,0.78893980579235,1368840,32768,0.0043589243412458,0.0043589243412258,0.0043589243413179,20.770596337763,20.766949696495,8.1364770702103e-05,8.1364770702103e-05,8.1364770702103e-05,564221.48041942,0.013162764843807
25969359,0.76936169476902,0.01290383693257,0.0043012789775069,0.0043012789774882,0.0043012789775751,-0.0010539623051291,0.0010539623074019,8.1588394530551e-11,-7.9297699303836e-11,-8.3885496179202e-14,2.4076817116823e-12,-0.0010791609301696,0.0010791609851434,-0.001079160983693,0.0010791609316232,-0.0010791609293624,0.0010791609859278,-0.0010791609828657,0.0010791609323996,-0.0010286795212357,0.0010286796818506,-0.0010286796786655,0.0010286795243279,4.6814103684796e-13,-1.9966316513324e-12,-6.0206121038447e-13,-6.6562773905889e-13,-0.0010539623070544,0.0010539623054666,-0.0010791609580343,0.00107916095733,-0.0010791609579295,0.0010791609572582,-0.0010791609587725,0.0010791609564849,-0.0010791609588201,0.0010791609565281,-0.0010286796025752,0.0010286796005698,-0.0010286796026203,0.0010286796004557,-0.0010286796010684,0.0010286796019685,-0.001028679603492,0.0010286795995935,-8.0394392477083e-11,8.0532215134342e-11,-0.0010539623062125,0.0010539623063519,3.0849189931364e-14,9.6014360944827e-14,-0.0010791609845126,0.0010791609310271,-0.0010791609843446,0.0010791609308708,-0.0010791609308615,0.0010791609846418,-0.0010791609307104,0.0010791609845126,-0.0010286795226241,0.00102867968037,-0.0010286796801764,0.001028679522815,0.0024207856392588,0.0023153044456955,0.77430022322191,0.77026982703853,1368840,32768,0.0043818660570279,0.0043818660570072,0.0043818660570972,20.711033978119,20.707164974475,8.0888271824952e-05,8.0888271824952e-05,8.0888271824952e-05,559460.77869637,0.01323249877323
26055759,0.77346372710348,0.012972185731501,0.0043240619104838,0.0043240619104651,0.004324061910552,-0.0010593080834653,0.0010593080857404,8.1589639345464e-11,-7.9301763179687e-11,-9.3528378066368e-14,2.4200572453829e-12,-0.0010846403608601,0.0010846404158373,-0.0010846404143848,0.0010846403623139,-0.0010846403600509,0.0010846404166282,-0.001084640413554,0.0010846403630972,-0.0010338972579308,0.001033897418512,-0.0010338974153892,0.0010338972610587,4.8347442136477e-13,-2.0032755954233e-12,-6.0233171682657e-13,-6.6853594433286e-13,-0.001059308085393,0.0010593080838034,-0.0010846403887304,0.0010846403880237,-0.0010846403886226,0.0010846403879539,-0.0010846403894723,0.0010846403871738,-0.0010846403895232,0.0010846403872144,-0.0010338973392427,0.0010338973372679,-0.0010338973393062,0.0010338973371379,-0.0010338973377216,0.0010338973387139,-0.0010338973402096,0.0010338973363161,-8.0402876629662e-11,8.0528936631557e-11,-0.0010593080845509,0.001059308084689,3.1105387987043e-14,9.8914169416492e-14,-0.001084640415207,0.0010846403617185,-0.0010846404150403,0.0010846403615672,-0.0010846403615519,0.0010846404153325,-0.0010846403614016,0.0010846404152068,-0.0010338972593713,0.0010338974170481,-0.001033897416883,0.0010338972594933,0.0024430031820952,0.002337834561584,0.76242701229251,0.59430847564857,1368840,32768,0.0044040422213852,0.004404042221366,0.004404042221456,20.651271277183,20.647380252456,8.0410170217459e-05,8.0410170217459e-05,8.0410170217459e-05,558805.78654485,0.013299910971625
26142159,0.77749431292809,0.013039911628433,0.004346637209461,0.0043466372094425,0.0043466372095293,-0.0010643063628277,0.0010643063651006,8.1577401395796e-11,-7.9297306786415e-11,-1.0172130424869e-13,2.4314427505047e-12,-0.0010899073657155,0.0010899074206774,-0.001089907419233,0.0010899073671668,-0.0010899073648966,0.0010899074214686,-0.0010899074183933,0.0010899073679484,-0.0010386533159453,0.0010386534765448,-0.0010386534734372,0.0010386533191007,4.8922795148072e-13,-2.0170539097994e-12,-6.2800550603934e-13,-6.6691999369904e-13,-0.0010643063647607,0.0010643063631584,-0.0010899073935843,0.0010899073928644,-0.0010899073934698,0.0010899073928004,-0.0010899073943347,0.0010899073920017,-0.0010899073943638,0.0010899073920565,-0.0010386533972959,0.0010386533952294,-0.0010386533973068,0.0010386533951752,-0.0010386533957964,0.0010386533967265,-0.0010386533982684,0.0010386533943428,-8.0408228025005e-11,8.0506544212689e-11,-0.0010643063639205,0.0010643063640426,3.7383372669508e-14,7.8068026840074e-14,-0.0010899074200493,0.0010899073665643,-0.0010899074198949,0.0010899073664052,-0.0010899073664041,0.0010899074201784,-0.0010899073662709,0.0010899074200421,-0.0010386533174095,0.001038653475046,-0.0010386534749262,0.0010386533174839,0.0024637593766634,0.0023601199536022,0.76890644777757,0.71761005493655,1368840,32768,0.0044247763598559,0.0044247763598367,0.004424776359928,20.591487632969,20.587595530436,7.9931901063752e-05,7.9931901063752e-05,7.9931901063752e-05,584401.00440214,0.013362943495161
26228559,0.78145425430328,0.013107153139531,0.0043690510464938,0.0043690510464753,0.0043690510465621,-0.0010698199330918,0.001069819935375,8.1587051277469e-11,-7.9288217975837e-11,-1.0738801348755e-13,2.4473567643425e-12,-0.0010953856367343,0.0010953856916941,-0.0010953856902501,0.0010953856381754,-0.0010953856359101,0.0010953856924819,-0.0010953856893977,0.0010953856389731,-0.0010442380710701,0.0010442382316903,-0.0010442382285285,0.0010442380742246,4.9276163764668e-13,-2.0350250666752e-12,-6.2966746997337e-13,-6.6795859432345e-13,-0.0010698199350338,0.0010698199334237,-0.0010953856646068,0.00109538566388,-0.0010953856644865,0.0010953856638205,-0.0010953856653537,0.0010953856630174,-0.0010953856653963,0.0010953856630691,-0.0010442381524553,0.0010442381503872,-0.0010442381524806,0.0010442381502698,-0.0010442381508636,0.0010442381518625,-0.0010442381533726,0.0010442381493935,-8.0401215503938e-11,8.0514164024027e-11,-0.0010698199341878,0.001069819934313,3.8831049032224e-14,7.8864914260416e-14,-0.0010953856910613,0.0010953856375742,-0.0010953856909139,0.0010953856374204,-0.0010953856374197,0.0010953856911969,-0.0010953856372768,0.001095385691054,-0.0010442380724942,0.0010442382301636,-0.0010442382300258,0.0010442380726152,0.0024866410674571,0.0023821973038462,0.77732519723044,0.86318882842511,1368840,32768,0.0044476479433168,0.0044476479432974,0.0044476479433874,20.531700855328,20.527810808416,7.9453606842617e-05,7.9453606842617e-05,7.9453606842617e-05,554469.74203357,0.013432477579658
26314959,0.78534461171785,0.013173382507961,0.0043911275026368,0.0043911275026185,0.0043911275027053,-0.0010752667024771,0.0010752667047501,8.1576068260052e-11,-7.9295855683687e-11,-1.0361371702501e-13,2.4296864806282e-12,-0.0011007811274767,0.0011007811824384,-0.0011007811809943,0.0011007811289239,-0.0011007811266579,0.0011007811832329,-0.0011007811801521,0.0011007811297108,-0.0010497707956237,0.0010497709562006,-0.0010497709531103,0.0010497707987614,4.8642691940327e-13,-2.0200132311588e-12,-6.3775198770278e-13,-6.3781177999381e-13,-0.0010752667044061,0.0010752667028115,-0.0011007811553476,0.0011007811546248,-0.00110078115522,0.0011007811545767,-0.0011007811560941,0.0011007811537661,-0.0011007811561236,0.0011007811538294,-0.0010497708769806,0.0010497708749513,-0.0010497708769778,0.0010497708748679,-0.00104977087544,0.001049770876394,-0.0010497708779269,0.00104977087398,-8.040270881126e-11,8.0509466049899e-11,-0.0010752667035723,0.0010752667036887,5.3870089599858e-14,5.5800589447942e-14,-0.0011007811818121,0.0011007811283286,-0.0011007811816659,0.0011007811281565,-0.0011007811281653,0.0011007811819346,-0.0011007811280369,0.0011007811817879,-0.0010497707971108,0.0010497709547275,-0.0010497709546091,0.0010497707971472,0.002509246282771,0.0024039388796486,0.7789971701326,0.86205027441872,1368840,32768,0.0044702419268388,0.0044702419268192,0.0044702419269091,20.471915101723,20.468026086397,7.8975320813783e-05,7.8975320813783e-05,7.8975320813783e-05,523625.27731584,0.013501172330798
26401359,0.78916627576268,0.013238853997335,0.0044129513324283,0.0044129513324101,0.0044129513324969,-0.0010804151245311,0.0010804151268092,8.1587582908287e-11,-7.9296741480156e-11,-1.0643851308237e-13,2.4316096571706e-12,-0.0011059858367459,0.0011059858917096,-0.0011059858902682,0.0011059858381939,-0.0011059858359243,0.0011059858925136,-0.0011059858894223,0.0011059858389909,-0.0010549038725321,0.001054904033129,-0.0010549040299706,0.0010549038756272,4.9117561256925e-13,-2.0200071136987e-12,-6.3282243241496e-13,-6.4042778831185e-13,-0.0010804151264627,0.0010804151248679,-0.0011059858646144,0.0011059858638973,-0.0011059858644872,0.0011059858638435,-0.0011059858653644,0.0011059858630334,-0.0011059858653995,0.0011059858630894,-0.0010549039539052,0.0010549039518269,-0.001054903953909,0.0010549039517772,-0.0010549039523583,0.0010549039532731,-0.001054903954829,0.0010549039509455,-8.0402131711243e-11,8.0522373302651e-11,-0.0010804151256262,0.0010804151257481,5.0026559958227e-14,5.9446183959885e-14,-0.0011059858910819,0.0011059858375918,-0.0011059858909292,0.001105985837426,-0.0011059858374296,0.0011059858912025,-0.0011059858372947,0.0011059858910606,-0.0010549038740071,0.0010549040317,-0.0010549040315182,0.001054903874114,0.0025306052648441,0.0024254122172895,0.78361038914591,0.91425614672655,1368840,32768,0.0044915978028889,0.0044915978028688,0.0044915978029596,20.412128643757,20.408241364377,7.8497029150051e-05,7.8497029150051e-05,7.8497029150051e-05,513789.16787648,0.013566106953059
26487759,0.79292008826866,0.013303446242318,0.004434482080756,0.0044344820807378,0.0044344820808244,-0.0010855711903103,0.0010855711925746,8.1574966587825e-11,-7.9307486504844e-11,-1.1089202408949e-13,2.4144399463993e-12,-0.0011111486794165,0.0011111487343899,-0.0011111487329421,0.0011111486808675,-0.0011111486786009,0.0011111487351785,-0.0011111487321041,0.0011111486816498,-0.0010600946670223,0.0010600948275719,-0.0010600948244556,0.0010600946700538,4.8188413171173e-13,-2.0166389812987e-12,-6.2448242249065e-13,-6.4253813560689e-13,-0.0010855711922316,0.0010855711906441,-0.0011111487072894,0.0011111487065804,-0.0011111487071629,0.0011111487065219,-0.0011111487080287,0.0011111487057221,-0.0011111487080622,0.0011111487057768,-0.0010600947483696,0.0010600947463297,-0.0010600947484161,0.0010600947462872,-0.0010600947468023,0.0010600947477559,-0.0010600947493323,0.0010600947453697,-8.0402899393673e-11,8.0519744147675e-11,-0.0010855711913991,0.0010855711915196,4.3169416498076e-14,6.3018192484536e-14,-0.0011111487337643,0.0011111486802729,-0.0011111487336096,0.0011111486801037,-0.0011111486801063,0.0011111487338881,-0.0011111486799742,0.001111148733744,-0.001060094668502,0.0010600948262094,-0.0010600948259749,0.0010600946685851,0.0025519936007236,0.0024465869947084,0.78695175265673,0.93392175817414,1368840,32768,0.0045129849956561,0.0045129849956371,0.0045129849957264,20.352342491139,20.348456642358,7.8018739929108e-05,7.8018739929108e-05,7.8018739929108e-05,496442.70728618,0.013631140780469
26574159,0.79666258712392,0.013367847987494,0.0044559493291479,0.0044559493291297,0.0044559493292164,-0.0010911140363481,0.0010911140385939,8.1578866409864e-11,-7.9316789044187e-11,-8.9528617903354e-14,2.3763986379469e-12,-0.0011167147510841,0.0011167148060452,-0.0011167148046068,0.0011167147525303,-0.0011167147502907,0.0011167148068178,-0.0011167148037898,0.0011167147532964,-0.0010656480051554,0.0010656481657778,-0.0010656481626528,0.0010656480082071,4.7313107558217e-13,-1.9659735879152e-12,-5.8623126750777e-13,-6.6073834430889e-13,-0.0010911140382487,0.001091114036684,-0.0011167147789533,0.0011167147782552,-0.0011167147788416,0.0011167147781773,-0.0011167147796704,0.001116714777421,-0.0011167147797209,0.0011167147774555,-0.0010656480864673,0.0010656480845104,-0.0010656480865531,0.0010656480843757,-0.0010656480849839,0.0010656480858953,-0.0010656480874388,0.0010656480836223,-8.0400103714373e-11,8.0535688160597e-11,-0.0010911140374189,0.0010911140375566,2.2703365251305e-14,9.8738718894032e-14,-0.0011167148054256,0.0011167147519339,-0.0011167148052509,0.0011167147517866,-0.0011167147517742,0.0011167148055485,-0.0011167147516169,0.0011167148054219,-0.0010656480065602,0.0010656481643594,-0.001065648164155,0.0010656480067339,0.0025750069801238,0.002467709771767,0.78680154710208,0.89426778146057,1368840,32768,0.0045359759996996,0.0045359759996803,0.004535975999769,20.525640045526,20.536406319733,7.9405120364208e-05,7.9405120364208e-05,7.9405120364208e-05,483350.21561999,0.013701056131818
26660559,0.80039618536422,0.013432018261504,0.0044773394204845,0.0044773394204665,0.0044773394205529,-0.0010965832387002,0.0010965832410089,8.1644866570075e-11,-7.9263251620895e-11,-9.1379679001767e-14,2.4007360709257e-12,-0.0011222558174591,0.0011222558725479,-0.0011222558710924,0.0011222558189059,-0.001122255816664,0.0011222558732867,-0.0011222558703215,0.0011222558198323,-0.0010710753024967,0.0010710754632376,-0.0010710754596971,0.001071075305944,5.011607192958e-13,-1.9650520866547e-12,-5.4718166632863e-13,-6.0312828072738e-13,-0.0010965832406098,0.0010965832391241,-0.0011222558453327,0.0011222558446363,-0.0011222558451191,0.00112225584469,-0.0011222558462866,0.0011222558438766,-0.0011222558460207,0.0011222558437879,-0.001071075384114,0.0010710753813601,-0.0010710753836771,0.0010710753819814,-0.0010710753823455,0.0010710753831304,-0.001071075384398,0.0010710753806692,-8.0462088526662e-11,8.0486154497345e-11,-0.0010965832398536,0.0010965832399139,-2.4804124603961e-14,3.2920347247165e-14,-0.0011222558718098,0.0011222558183522,-0.0011222558716119,0.0011222558180845,-0.0011222558181891,0.0011222558719292,-0.0011222558181435,0.0011222558717299,-0.0010710753038051,0.0010710754612372,-0.0010710754614606,0.0010710753042075,0.0025977251882141,0.0024887710876105,0.78569848820927,0.854613804747,1368840,32768,0.0045586609538605,0.0045586609539119,0.0045586609539815,20.714180590442,20.726392030857,8.0913444723532e-05,8.0913444723532e-05,8.0913444723532e-05,478709.98523385,0.013770045687571
26746959,0.80411985472627,0.013495868652498,0.0044986228841486,0.0044986228841316,0.0044986228842177,-0.0011020250232887,0.0011020250255317,8.1604883967987e-11,-7.9310344652823e-11,-8.4153782100899e-14,2.3994543453756e-12,-0.0011277772927796,0.0011277773479089,-0.0011277773464433,0.0011277772941874,-0.0011277772919513,0.001127777348598,-0.0011277773454261,0.0011277772949599,-0.0010764632070286,0.0010764633679748,-0.0010764633647093,0.0010764632104885,4.2229159928151e-13,-2.0336554614569e-12,-6.563078031883e-13,-7.0051333509258e-13,-0.0011020250251904,0.0011020250235626,-0.0011277773208413,0.0011277773199227,-0.0011277773206856,0.001127777320139,-0.0011277773213949,0.0011277773192436,-0.0011277773212759,0.001127777319168,-0.0010764632884905,0.001076463285991,-0.0010764632889684,0.0010764632865824,-0.0010764632873231,0.0010764632881302,-0.001076463289562,0.0010764632853362,-8.0418250160012e-11,8.053679345036e-11,-0.0011020250243624,0.0011020250244797,-9.6135004318078e-15,3.5916579243746e-14,-0.0011277773471171,0.0011277772936405,-0.0011277773468598,0.0011277772934801,-0.0011277772934869,0.0011277773473146,-0.0011277772934961,0.0011277773472739,-0.0010764632085384,0.0010764633661778,-0.0010764633665732,0.0010764632087453,0.0026203386449155,0.0025097440148524,0.78381286218438,0.81495982803345,1368840,32768,0.0045812316476942,0.0045812316475546,0.0045812316477393,20.904019650375,20.916377741984,8.2432157202996e-05,8.2432157202996e-05,8.2432157202996e-05,475232.73517179,0.013838692522353
26833359,0.80783229246998,0.013559326152531,0.0045197753841602,0.0045197753841416,0.0045197753842295,-0.0011074314696601,0.0011074314719526,8.1609136132204e-11,-7.9299305519473e-11,-2.7393986661923e-14,2.4476104036529e-12,-0.0011332706158376,0.0011332706708568,-0.0011332706695725,0.0011332706172531,-0.0011332706151496,0.0011332706717058,-0.0011332706686327,0.0011332706181648,-0.0010818035879294,0.0010818037483341,-0.0010818037451013,0.0010818035908914,4.6879366396947e-13,-1.9787709616701e-12,-5.8721414924611e-13,-6.2112478976991e-13,-0.0011074314715605,0.001107431470034,-0.0011332706438045,0.0011332706431114,-0.0011332706435656,0.0011332706429972,-0.0011332706444652,0.001133270642336,-0.001133270644605,0.0011332706423386,-0.0010818036688653,0.0010818036674397,-0.0010818036688239,0.0010818036672802,-0.0010818036675519,0.0010818036688306,-0.0010818036699178,0.0010818036663721,-8.0396908517867e-11,8.0551196451535e-11,-0.0011074314707472,0.0011074314708473,2.1152147934047e-14,5.6513244147419e-14,-0.0011332706704254,0.0011332706166568,-0.0011332706700203,0.0011332706163472,-0.0011332706164886,0.0011332706703606,-0.001133270616462,0.0011332706702313,-0.0010818035895683,0.0010818037472381,-0.0010818037469508,0.0010818035897694,0.0026428149297362,0.002530605866922,0.7813097019459,0.77530585131988,1368840,32768,0.0046036552326313,0.0046036552325936,0.0046036552325934,21.093982599977,21.106363453109,8.3951860799817e-05,8.3951860799817e-05,8.3951860799817e-05,472883.50603205,0.013906896673546
26919759,0.81153216474939,0.013622331969469,0.00454077732314,0.0045407773231212,0.0045407773232077,-0.0011127978045375,0.0011127978067514,8.1571926327761e-11,-7.9367862719215e-11,-1.1093649331922e-13,2.3826240360006e-12,-0.001138731815735,0.0011387318708029,-0.0011387318692169,0.0011387318170906,-0.0011387318149983,0.0011387318714862,-0.0011387318683441,0.0011387318178484,-0.0010870908636422,0.0010870910243278,-0.0010870910209931,0.0010870908665656,5.9196138657421e-13,-1.87476966825e-12,-4.982764838778e-13,-5.4838704126996e-13,-0.0011127978063467,0.0011127978049524,-0.0011387318434485,0.0011387318429654,-0.0011387318434288,0.0011387318428509,-0.0011387318441448,0.001138731842072,-0.0011387318443619,0.0011387318421732,-0.0010870909446125,0.0010870909430215,-0.0010870909446308,0.0010870909428434,-0.001087090943315,0.0010870909446433,-0.0010870909454564,0.0010870909423223,-8.0453869424809e-11,8.0525563264023e-11,-0.0011127978056271,0.0011127978056964,2.4830741437894e-14,7.6863504813865e-14,-0.0011387318701046,0.001138731816557,-0.0011387318698651,0.0011387318163676,-0.0011387318164354,0.0011387318702818,-0.001138731816321,0.0011387318700737,-0.0010870908649013,0.0010870910228718,-0.0010870910226117,0.0010870908651465,0.0026651346013428,0.0025513379370126,0.77836160934491,0.73565187460632,1368840,32768,0.004625911916748,0.0046259119167691,0.0046259119168199,21.283957792643,21.296349164235,8.547166234114e-05,8.547166234114e-05,8.547166234114e-05,471663.48069231,0.013974597864712
27006159,0.81521813303593,0.013684839822251,0.0045616132740666,0.0045616132740495,0.0045616132741345,-0.0011181203571482,0.0011181203593384,8.1543311143112e-11,-7.9394680194077e-11,-1.2954586599213e-13,2.376716745876e-12,-0.0011441576781865,0.0011441577330995,-0.001144157731749,0.0011441576795096,-0.0011441576773053,0.0011441577338316,-0.0011441577309291,0.0011441576804105,-0.0010923209169213,0.0010923210775757,-0.00109232107472,0.0010923209201616,4.4982452287548e-13,-2.0294462959264e-12,-6.2137242926352e-13,-6.4327561307746e-13,-0.001118120359055,0.0011181203574345,-0.0011441577060186,0.0011441577053041,-0.0011441577059276,0.001144157705184,-0.0011441577067057,0.0011441577044148,-0.0011441577067149,0.0011441577044896,-0.0010923209985054,0.0010923209965586,-0.0010923209980767,0.0010923209963046,-0.0010923209969427,0.0010923209976974,-0.001092320999706,0.0010923209957404,-8.046227487391e-11,8.0514935529869e-11,-0.0011181203582376,0.0011181203583247,7.109609276905e-14,9.4575287260481e-14,-0.0011441577325228,0.0011441576787889,-0.0011441577323633,0.001144157678753,-0.0011441576787697,0.0011441577326506,-0.0011441576787986,0.0011441577324303,-0.001092320918821,0.0010923210763822,-0.0010923210764019,0.0010923209188219,0.0026872825617935,0.0025719251271636,0.77511541325234,0.69599789789277,1368840,32768,0.004647986484418,0.0046479864844243,0.0046479864845751,21.473934423031,21.48633487536,8.699147538425e-05,8.699147538425e-05,8.699147538425e-05,471548.83657868,0.014041749719547
27092559,0.81888885819228,0.013746811853413,0.004582270617787,0.0045822706177699,0.0045822706178556,-0.0011233959565391,0.0011233959587232,8.1526199783499e-11,-7.9464712407583e-11,-1.3630348308098e-13,2.4034768695491e-12,-0.0011495463821431,0.0011495464370047,-0.0011495464357124,0.0011495463833899,-0.0011495463812154,0.0011495464380147,-0.0011495464348862,0.001149546384346,-0.0010974896191205,0.001097489779702,-0.0010974897774649,0.001097489621481,5.6942106045982e-13,-1.943202048276e-12,-5.5688131118761e-13,-5.9594700011057e-13,-0.001123395958328,0.001123395956884,-0.0011495464101032,0.0011495464091567,-0.0011495464098895,0.0011495464092602,-0.0011495464104334,0.0011495464084036,-0.0011495464104478,0.0011495464084409,-0.0010974897010849,0.0010974896985548,-0.0010974897003676,0.0010974896982712,-0.0010974896991702,0.0010974896999144,-0.0010974897013775,0.0010974896978278,-8.0476723079586e-11,8.0552899546565e-11,-0.0011233959575939,0.0011233959577243,8.7417829445316e-14,1.2810608644699e-13,-0.001149546436339,0.001149546382793,-0.0011495464362538,0.0011495463826532,-0.0011495463827642,0.0011495464367005,-0.0011495463825628,0.0011495464361892,-0.0010974896210922,0.0010974897793927,-0.0010974897784271,0.0010974896201765,0.0027092456958008,0.0025923548237002,0.77166816245218,0.65634392117921,1368840,32768,0.0046698657950141,0.0046698657949099,0.0046698657951302,21.663911421189,21.676320586486,8.8511291369511e-05,8.8511291369511e-05,8.8511291369511e-05,472545.74104872,0.014108312160896
27178959,0.82254300254162,0.013808215480412,0.0046027384934542,0.0046027384934351,0.0046027384935224,-0.0011286215977143,0.0011286216000296,8.1645492903882e-11,-7.936992483269e-11,-1.1574699342057e-13,2.5087393009129e-12,-0.0011548941887415,0.0011548942438385,-0.0011548942422522,0.0011548941900049,-0.0011548941876028,0.0011548942444646,-0.0011548942415809,0.0011548941910397,-0.0011025943969904,0.0011025945574715,-0.0011025945544204,0.0011025943993713,4.4617966363519e-13,-2.1512421633815e-12,-6.293681555878e-13,-6.7113887952086e-13,-0.0011286215997212,0.0011286215980439,-0.0011548942164989,0.0011548942157045,-0.0011548942163374,0.0011548942158123,-0.0011548942172181,0.0011548942149313,-0.0011548942176069,0.0011548942148583,-0.0011025944785435,0.0011025944762726,-0.0011025944778805,0.0011025944750016,-0.0011025944762789,0.0011025944772828,-0.0011025944795924,0.0011025944750024,-8.0368845139889e-11,8.0685881895811e-11,-0.0011286215987565,0.0011286215990456,1.5471262657663e-13,1.988639248436e-13,-0.0011548942429323,0.001154894189783,-0.001154894242757,0.0011548941895152,-0.0011548941892833,0.0011548942430074,-0.0011548941891154,0.001154894243101,-0.0011025943979164,0.0011025945564771,-0.0011025945557073,0.0011025943981176,0.0027310113231523,0.0026126160114433,0.76807818760495,0.61668994446564,1368840,32768,0.0046915373972592,0.0046915373973031,0.00469153739738,21.853888655426,21.866306297611,9.0031109243404e-05,9.0031109243404e-05,9.0031109243404e-05,474613.18101184,0.014174247193937
27265359,0.82617901364426,0.013869018096621,0.0046230060321906,0.0046230060321716,0.0046230060322585,-0.0011337922569445,0.0011337922591002,8.1597151910078e-11,-7.9409038049572e-11,-2.3302417538904e-13,2.4016333964542e-12,-0.0011601971389919,0.0011601971935892,-0.0011601971924404,0.0011601971402672,-0.0011601971376769,0.0011601971943456,-0.0011601971913983,0.0011601971411109,-0.0011076294945824,0.0011076296563458,-0.0011076296525985,0.0011076294971801,4.3348122803427e-13,-2.1737366526609e-12,-6.1879762556906e-13,-6.9793414917906e-13,-0.0011337922588262,0.0011337922571667,-0.0011601971664862,0.0011601971658412,-0.00116019716638,0.0011601971657848,-0.0011601971674292,0.001160197165041,-0.0011601971674118,0.0011601971650418,-0.001107629576269,0.0011076295741727,-0.0011076295757469,0.001107629573786,-0.0011076295742448,0.0011076295759266,-0.0011076295774623,0.0011076295731137,-8.0365074725661e-11,8.0679224863884e-11,-0.0011337922578979,0.0011337922581405,7.315561808726e-14,1.532417597459e-13,-0.0011601971931118,0.0011601971394691,-0.0011601971927456,0.00116019713942,-0.0011601971395511,0.0011601971930963,-0.0011601971392869,0.0011601971933037,-0.0011076294957184,0.0011076296550723,-0.0011076296540894,0.0011076294963037,0.0027525583726245,0.0026326975953308,0.76438392732289,0.57703596775208,1368840,32768,0.0047129804689044,0.0047129804687969,0.0047129804688912,22.042913863038,22.055279538542,9.1543310904304e-05,9.1543310904304e-05,9.1543310904304e-05,477778.68883507,0.01423949134491
27351759,0.8297797631556,0.013929665529144,0.0046432218430333,0.0046432218430119,0.0046432218430987,-0.001138813582734,0.0011388135849983,8.1647888066006e-11,-7.9386789905709e-11,-1.3684064314169e-13,2.4538706241721e-12,-0.0011653436564001,0.0011653437114055,-0.0011653437099797,0.0011653436578149,-0.0011653436555564,0.0011653437122054,-0.0011653437091077,0.0011653436586341,-0.0011125360466251,0.0011125362074411,-0.0011125362041413,0.0011125360495871,5.087768689806e-13,-2.0546928776018e-12,-6.1328082351534e-13,-6.7518313832447e-13,-0.0011388135846592,0.001138813583062,-0.0011653436842736,0.001165343683592,-0.0011653436841616,0.0011653436835246,-0.0011653436850355,0.0011653436827193,-0.0011653436850954,0.0011653436827488,-0.0011125361279445,0.0011125361259816,-0.0011125361280149,0.0011125361257795,-0.0011125361264451,0.0011125361273899,-0.0011125361289176,0.0011125361248994,-8.0465602889889e-11,8.0607635992052e-11,-0.0011388135838137,0.001138813583949,2.9759384988863e-14,9.326329792909e-14,-0.0011653437107826,0.0011653436572331,-0.0011653437106096,0.0011653436570813,-0.0011653436570747,0.0011653437108997,-0.0011653436569293,0.0011653437107718,-0.0011125360478449,0.0011125362059133,-0.0011125362055683,0.0011125360481249,0.0027734718879493,0.0026527016765197,0.76998326725889,0.68458979225422,1368840,32768,0.004733803873049,0.0047338038730261,0.004733803873112,22.162212810423,22.170170885449,9.249770248338e-05,9.249770248338e-05,9.249770248338e-05,479854.77106515,0.014302853805112
27438159,0.83334363919585,0.013989755821953,0.0046632519406361,0.004663251940615,0.0046632519407015,-0.001144062399903,0.0011440624021911,8.1675201761003e-11,-7.9365242505143e-11,-1.3635159925812e-13,2.4662646573076e-12,-0.00117056917455,0.0011705692295782,-0.0011705692281436,0.0011705691759658,-0.0011705691736875,0.0011705692303755,-0.0011705692272655,0.0011705691768062,-0.0011178170692082,0.0011178172299204,-0.0011178172266924,0.0011178170724118,5.1087006974063e-13,-2.0647358060914e-12,-6.2538430670342e-13,-6.9618990834677e-13,-0.0011440624018463,0.00114406240024,-0.0011705692024336,0.0011705692017729,-0.0011705692023236,0.0011705692016609,-0.0011705692031944,0.0011705692008519,-0.0011705692033008,0.0011705692009513,-0.0011178171507623,0.0011178171486311,-0.0011178171505407,0.0011178171485135,-0.0011178171490601,0.0011178171500231,-0.0011178171516044,0.0011178171474151,-8.0464048584431e-11,8.0615179026323e-11,-0.0011440624009926,0.0011440624011355,4.143841055559e-14,1.1375084851907e-13,-0.0011705692289565,0.0011705691754054,-0.0011705692287804,0.0011705691752614,-0.001170569175263,0.0011705692290769,-0.0011705691750384,0.0011705692289205,-0.0011178170707141,0.0011178172284523,-0.0011178172282714,0.0011178170708898,0.0027953339216225,0.0026725187629069,0.77084126601148,0.70574575745213,1368840,32768,0.0047555703632929,0.0047555703632768,0.0047555703633635,22.277499848982,22.285062232355,9.3419998791856e-05,9.3419998791856e-05,9.3419998791856e-05,459271.33071682,0.014369089914749
27524559,0.8368699505957,0.014049307487568,0.0046831024958412,0.0046831024958206,0.0046831024959066,-0.0011491070750601,0.0011491070773291,8.1669833513235e-11,-7.9370285880483e-11,-1.4900662442049e-13,2.4618316162634e-12,-0.0011756667580886,0.0011756668130836,-0.0011756668116695,0.0011756667595042,-0.0011756667572391,0.0011756668139031,-0.0011756668108027,0.0011756667603216,-0.0011228210137403,0.0011228211746023,-0.0011228211713685,0.0011228210169749,5.2009128803874e-13,-2.0636079581934e-12,-6.0569846691584e-13,-6.8828650273156e-13,-0.0011491070769918,0.0011491070753881,-0.0011756667859601,0.0011756667852827,-0.0011756667858614,0.0011756667852031,-0.0011756667867245,0.001175666784406,-0.0011756667867875,0.001175666784425,-0.0011228210952684,0.0011228210931961,-0.0011228210952489,0.0011228210930657,-0.001122821093664,0.0011228210946205,-0.0011228210962343,0.0011228210921686,-8.0473284949325e-11,8.0605461529068e-11,-0.0011491070761414,0.0011491070762814,2.5234876150679e-14,1.0933583633584e-13,-0.0011756668124756,0.0011756667589179,-0.0011756668122872,0.0011756667587755,-0.0011756667587728,0.0011756668125946,-0.0011756667586145,0.0011756668124727,-0.0011228210151914,0.001122821173045,-0.0011228211729387,0.0011228210154025,0.0028163455398068,0.0026921545439738,0.77187109712242,0.72690172265003,1368840,32768,0.0047764897883399,0.0047764897883207,0.0047764897884095,22.392427165636,22.399953579262,9.4339417325082e-05,9.4339417325082e-05,9.4339417325082e-05,451327.95574639,0.014432752493865
27610959,0.84035803625663,0.014108312140055,0.0047027707133367,0.0047027707133163,0.0047027707134021,-0.001154108119041,0.001154108121307,8.1647444961895e-11,-7.93743886375e-11,-1.4095534096991e-13,2.464465535799e-12,-0.0011807166315925,0.0011807166865724,-0.0011807166851632,0.0011807166330001,-0.001180716630735,0.001180716687386,-0.0011807166842921,0.001180716633819,-0.0011277875085419,0.0011277876692995,-0.0011277876661582,0.0011277875116977,5.2033119247453e-13,-2.0578870153172e-12,-6.1076619445318e-13,-6.8432827071166e-13,-0.0011541081209705,0.001154108119367,-0.0011807166594487,0.0011807166587673,-0.0011807166593428,0.0011807166586937,-0.0011807166602129,0.0011807166578875,-0.0011807166602728,0.0011807166579187,-0.0011277875900287,0.0011277875879539,-0.0011277875900316,0.0011277875878057,-0.0011277875884138,0.0011277875894114,-0.0011277875909228,0.0011277875869465,-8.0470945844312e-11,8.0589539250777e-11,-0.0011541081201244,0.0011541081202562,2.9784237170823e-14,1.0494979385584e-13,-0.001180716685965,0.0011807166324125,-0.001180716685785,0.0011807166322677,-0.0011807166322666,0.0011807166860764,-0.0011807166321155,0.0011807166859577,-0.001127787509994,0.0011277876678098,-0.0011277876676501,0.001127787510103,0.0028371755428776,0.0027116057183738,0.77309290717302,0.74805768784794,1368840,32768,0.0047972278673789,0.0047972278673573,0.0047972278674463,22.507319867785,22.514844926169,9.5258558942281e-05,9.5258558942281e-05,9.5258558942281e-05,443195.84558354,0.014495867072867
27697359,0.84380729455795,0.014166774126269,0.0047222580420746,0.0047222580420543,0.0047222580421401,-0.0011590657667203,0.0011590657689918,8.1647912888777e-11,-7.9370130355823e-11,-1.5282415485638e-13,2.4659117269129e-12,-0.001185718497976,0.0011857185529624,-0.0011857185515448,0.0011857184993917,-0.0011857184971123,0.0011857185537833,-0.0011857185506695,0.0011857185002221,-0.0011327171904817,0.0011327173512537,-0.0011327173481169,0.0011327171936191,5.2149015706896e-13,-2.0700818192449e-12,-6.0532900761433e-13,-6.8904333255211e-13,-0.0011590657686532,0.0011590657670484,-0.001185718525834,0.0011857185251583,-0.0011857185257279,0.0011857185250818,-0.0011857185266017,0.001185718524269,-0.0011857185266659,0.0011857185242977,-0.0011327172719383,0.0011327172698932,-0.0011327172719849,0.0011327172697529,-0.0011327172703724,0.0011327172713048,-0.0011327172729439,0.0011327172688566,-8.0468735500072e-11,8.0587962298952e-11,-0.001159065767807,0.0011590657679374,2.140916949398e-14,1.0670362263051e-13,-0.0011857185523521,0.0011857184987988,-0.001185718552178,0.0011857184986592,-0.0011857184986524,0.0011857185524568,-0.0011857184984963,0.0011857185523437,-0.0011327171919236,0.0011327173497774,-0.0011327173495809,0.0011327171920173,0.0028578246360339,0.0027308732634335,0.77453202729432,0.76921365304585,1368840,32768,0.0048177855865597,0.004817785586538,0.0048177855866267,22.622209280582,22.629736273076,9.6177674244656e-05,9.6177674244656e-05,9.6177674244656e-05,434855.87110591,0.014558436544311
27783759,0.84721715123079,0.01422469937299,0.0047415664576483,0.0047415664576279,0.0047415664577138,-0.0011639803758619,0.00116398037812,8.1648023238347e-11,-7.938156630058e-11,-1.4922861763875e-13,2.4568381217524e-12,-0.0011906722892571,0.0011906723442324,-0.0011906723428193,0.0011906722906493,-0.0011906722883978,0.0011906723450535,-0.0011906723419653,0.0011906722914686,-0.001137610687656,0.0011376108483693,-0.0011376108452472,0.0011376106906809,5.133267005746e-13,-2.0656017796365e-12,-6.0688357777034e-13,-6.8715418438194e-13,-0.0011639803777861,0.001163980376186,-0.0011906723171031,0.0011906723164283,-0.0011906723169885,0.0011906723163501,-0.0011906723178572,0.0011906723155438,-0.0011906723179085,0.0011906723155708,-0.0011376107691155,0.0011376107669917,-0.0011376107690877,0.0011376107668018,-0.0011376107674265,0.001137610768437,-0.001137610770123,0.001137610765947,-8.0473363711625e-11,8.0594810266222e-11,-0.0011639803769415,0.0011639803770739,2.6749182830826e-14,1.086204464258e-13,-0.0011906723436211,0.001190672290066,-0.0011906723434365,0.0011906722899157,-0.0011906722899202,0.0011906723437369,-0.001190672289768,0.0011906723436087,-0.0011376106889923,0.0011376108469005,-0.001137610846612,0.0011376106890919,0.0028782940692044,0.0027499586956109,0.77621200676381,0.79036961824375,1368840,32768,0.0048381644414923,0.004838164441472,0.0048381644415619,22.737098492546,22.744627619983,9.7096787940367e-05,9.7096787940367e-05,9.7096787940367e-05,426294.02351403,0.014620465353704
27870159,0.85058705918371,0.014282094596686,0.0047606981988802,0.00476069819886,0.0047606981989459,-0.0011688523658389,0.001168852368078,8.1634216189555e-11,-7.9397846273826e-11,-1.4069358426052e-13,2.4629098774409e-12,-0.0011955779761119,0.0011955780310088,-0.0011955780296462,0.0011955779775205,-0.0011955779752698,0.0011955780318505,-0.0011955780287816,0.0011955779783528,-0.0011424686519463,0.0011424688126595,-0.001142468809724,0.0011424686546236,5.139159472794e-13,-2.0622801752268e-12,-5.9018723489098e-13,-6.9078280882407e-13,-0.0011688523677588,0.0011688523661661,-0.0011955780039578,0.0011955780032955,-0.0011955780038407,0.0011955780032233,-0.0011955780047514,0.0011955780023799,-0.001195578004732,0.0011955780024484,-0.0011424687337315,0.0011424687312639,-0.0011424687336,0.0011424687310673,-0.0011424687319874,0.0011424687327378,-0.0011424687339976,0.0011424687302845,-8.0500868812539e-11,8.056964938781e-11,-0.0011688523669339,0.0011688523670173,-1.0233540313544e-14,9.1951396830298e-14,-0.0011955780305352,0.0011955779769017,-0.0011955780303284,0.0011955779767639,-0.0011955779768338,0.0011955780305074,-0.00119557797661,0.0011955780304376,-0.0011424686533537,0.0011424688115036,-0.0011424688110088,0.0011424686532394,0.002898585314337,0.0027688638351244,0.7781468595932,0.81152558344166,1368840,32768,0.0048583661830783,0.0048583661830948,0.0048583661831493,22.851987814752,22.85951896689,9.8015902518013e-05,9.8015902518013e-05,9.8015902518013e-05,417495.02832775,0.014681958724618
27956559,0.85391649880694,0.014338966180732,0.0047796553935618,0.0047796553935421,0.0047796553936279,-0.0011736821080705,0.0011736821103192,8.1633543327757e-11,-7.938770734827e-11,-1.3541751014684e-13,2.4864542758228e-12,-0.0012004358914191,0.0012004359463664,-0.0012004359449658,0.0012004358930838,-0.0012004358906957,0.0012004359471912,-0.0012004359439485,0.0012004358938909,-0.0011472915204175,0.0011472916812519,-0.0011472916782874,0.001147291523494,5.085708458627e-13,-2.0856096978201e-12,-6.1682245061518e-13,-7.0374600104274e-13,-0.0011736821100288,0.0011736821083986,-0.0012004359196001,0.0012004359184488,-0.0012004359192252,0.0012004359186089,-0.0012004359202038,0.001200435917668,-0.0012004359202509,0.0012004359176797,-0.0011472916024024,0.0011472915996045,-0.0011472916021783,0.0011472916001529,-0.0011472916004222,0.0011472916014535,-0.0011472916031121,0.0011472915990762,-8.0448874459754e-11,8.0610831776775e-11,-0.0011736821091608,0.0011736821093178,3.1507713931555e-14,1.1964928597291e-13,-0.0012004359459229,0.0012004358923989,-0.0012004359456261,0.0012004358921599,-0.0012004358920208,0.0012004359458526,-0.0012004358919256,0.0012004359459967,-0.0011472915222066,0.0011472916805341,-0.001147291679797,0.0011472915223141,0.0029186997553243,0.0027875904705944,0.78033612254402,0.83268154863957,1368840,32768,0.0048783923629906,0.0048783923630689,0.004878392363175,22.96687727691,22.974410313797,9.8935018215282e-05,9.8935018215282e-05,9.8935018215282e-05,408466.60428975,0.014742921279101
28042959,0.85720475868399,0.014395315394551,0.0047984384648342,0.0047984384648157,0.0047984384649014,-0.001178467491243,0.0011784674934492,8.1615807046059e-11,-7.9402997175293e-11,-1.8054589621151e-13,2.4341251685587e-12,-0.0012052441082957,0.0012052441629192,-0.0012052441617501,0.0012052441095353,-0.0012052441075162,0.0012052441640025,-0.0012052441608628,0.0012052441103993,-0.0011520771165395,0.00115207727749,-0.0011520772741927,0.0011520771196343,4.8188116121424e-13,-2.1059404296713e-12,-6.2276612198128e-13,-6.9624184793652e-13,-0.0011784674931825,0.0011784674914975,-0.0012052441359292,0.0012052441350268,-0.0012052441356819,0.0012052441351925,-0.0012052441366696,0.001205244134449,-0.0012052441367733,0.0012052441343185,-0.0011520771982355,0.0011520771957162,-0.0011520771980059,0.0011520771961075,-0.0011520771964612,0.0011520771974897,-0.0011520771993122,0.0011520771952742,-8.0610027771925e-11,8.0447488149164e-11,-0.0011784674924509,0.0011784674922838,-1.3018428766526e-13,-5.5114081008539e-14,-0.0012052441625848,0.0012052441087388,-0.0012052441627008,0.0012052441087106,-0.0012052441091705,0.0012052441625393,-0.0012052441087045,0.0012052441623771,-0.0011520771180896,0.0011520772758915,-0.0011520772760496,0.0011520771181021,0.0029386284043141,0.002806138809213,0.78276519615065,0.85383751383747,1368840,32768,0.0048982342386932,0.0048982342386677,0.0048982342387811,23.080688647928,23.088155065219,9.984550918342e-05,9.984550918342e-05,9.984550918342e-05,399230.52018235,0.014803326301543
28129359,0.86044543025395,0.014451042918927,0.0048170143062931,0.004817014306274,0.0048170143063601,-0.0011831451181572,0.0011831451204557,8.1654764385351e-11,-7.9363813607619e-11,-1.3165603682198e-13,2.4729018074884e-12,-0.0012099394855796,0.0012099395405231,-0.001209939539025,0.001209939487006,-0.0012099394846475,0.0012099395413628,-0.0012099395383466,0.0012099394877294,-0.0011567616711345,0.0011567618320465,-0.0011567618287152,0.001156761673957,4.8098112988605e-13,-2.0969243521651e-12,-6.4278401044853e-13,-7.1146738280688e-13,-0.0011831451201403,0.0011831451184593,-0.0012099395133374,0.0012099395126811,-0.0012099395132772,0.001209939512534,-0.0012099395140903,0.0012099395118071,-0.0012099395142519,0.0012099395118939,-0.001156761752386,0.0011567617505305,-0.0011567617527224,0.001156761750402,-0.0011567617509037,0.0011567617519713,-0.0011567617536292,0.0011567617495943,-8.0473605998341e-11,8.0583313029219e-11,-0.0011831451192699,0.0011831451193622,-8.0897822744693e-15,6.2293891082035e-14,-0.0012099395398819,0.0012099394864379,-0.0012099395397226,0.0012099394862491,-0.0012099394862116,0.0012099395399057,-0.0012099394860401,0.0012099395398392,-0.0011567616724544,0.0011567618306869,-0.0011567618302526,0.0011567616727561,0.0029581056968982,0.0028244759488225,0.78540853412854,0.87499347903539,1368840,32768,0.0049176289609818,0.004917628960954,0.0049176289610214,23.164813476448,23.170396669239,0.00010051850781158,0.00010051850781158,0.00010051850781158,389853.87039978,0.014862373429558
28215759,0.86363805323244,0.014506148239762,0.0048353827465717,0.0048353827465521,0.0048353827466382,-0.0011877687099087,0.0011877687122139,8.1676719067592e-11,-7.9348754008856e-11,-1.2439972908543e-13,2.476513403039e-12,-0.0012145741397103,0.0012145741946754,-0.0012145741932761,0.0012145741411846,-0.0012145741390123,0.0012145741955337,-0.0012145741925904,0.0012145741419628,-0.0011613998521839,0.0011614000130191,-0.0011614000098323,0.0011613998552019,5.1128238067423e-13,-2.0628962740525e-12,-6.0894742648588e-13,-6.7824233898564e-13,-0.0011877687118415,0.0011877687102282,-0.0012145741675366,0.0012145741669836,-0.0012145741674253,0.0012145741668048,-0.0012145741683919,0.0012145741659333,-0.0012145741684326,0.0012145741661365,-0.0011613999337696,0.0011613999317371,-0.0011613999338516,0.0011613999316086,-0.0011613999320845,0.0011613999330578,-0.0011613999346786,0.0011613999306539,-8.045888738916e-11,8.060509354031e-11,-0.0011877687110102,0.001187768711123,1.1742670681236e-14,8.3169665106174e-14,-0.0012145741941637,0.0012145741405732,-0.0012145741940821,0.0012145741404782,-0.0012145741403365,0.0012145741941896,-0.001214574140229,0.0012145741940896,-0.001161399853813,0.0011614000116528,-0.001161400011534,0.0011613998537463,0.0029773560689916,0.002842601690037,0.78823792944898,0.89614944423328,1368840,32768,0.0049367992942703,0.0049367992941606,0.0049367992942925,23.247225162608,23.25263827326,0.00010117780130086,0.00010117780130086,0.00010117780130086,380272.82679515,0.014920740672266
28302159,0.86678252133211,0.014560634356005,0.0048535447853197,0.0048535447852992,0.0048535447853858,-0.0011923413103931,0.0011923413126458,8.1654800560716e-11,-7.9377396780897e-11,-1.6816709790471e-13,2.4300907035736e-12,-0.0012191517272842,0.0012191517823043,-0.001219151780843,0.0012191517286539,-0.001219151726667,0.0012191517830091,-0.0012191517799634,0.0012191517296462,-0.0011659941335398,0.0011659942941285,-0.0011659942910933,0.0011659941366995,5.5499057483066e-13,-2.0162955800247e-12,-5.8627020749465e-13,-6.7315322974855e-13,-0.0011923413122583,0.0011923413107217,-0.0012191517551258,0.0012191517545552,-0.001219151755064,0.0012191517544184,-0.0012191517558866,0.0012191517535633,-0.0012191517559602,0.0012191517537212,-0.0011659942149951,0.0011659942131933,-0.0011659942152082,0.0011659942128606,-0.0011659942131907,0.0011659942143934,-0.0011659942161488,0.0011659942120806,-8.05129275618e-11,8.0557961274286e-11,-0.0011923413114993,0.0011923413115436,-3.8128923422856e-14,5.0818006368318e-14,-0.0012191517817591,0.001219151728078,-0.0012191517815132,0.0012191517279437,-0.0012191517280137,0.0012191517819381,-0.0012191517279631,0.0012191517816221,-0.0011659941354056,0.0011659942930406,-0.001165994292858,0.0011659941354516,0.002996392493998,0.0028605171840432,0.79122497248872,0.91730540943119,1368840,32768,0.004955757870355,0.0049557578702329,0.0049557578703635,23.329482844436,23.33487987728,0.00010183586275549,0.00010183586275549,0.00010183586275549,370554.47628743,0.014978466381377
28388559,0.86987878386225,0.014614502843714,0.0048715009478902,0.0048715009478684,0.0048715009479554,-0.0011968631279739,0.0011968631302988,8.1703200258609e-11,-7.9342009450191e-11,-1.009889736797e-13,2.4912454235741e-12,-0.0012236726207613,0.0012236726759068,-0.0012236726743024,0.0012236726221479,-0.0012236726198043,0.0012236726765239,-0.0012236726734386,0.0012236726228288,-0.001170544457355,0.0011705446181128,-0.0011705446146626,0.001170544460386,5.3153890891002e-13,-2.0325456718308e-12,-5.7823118837528e-13,-6.6688939169274e-13,-0.0011968631299102,0.0011968631283372,-0.0012236726486368,0.001223672648037,-0.0012236726485331,0.0012236726480247,-0.0012236726493312,0.0012236726471512,-0.0012236726493275,0.0012236726471619,-0.0011705445386764,0.0011705445367876,-0.0011705445387891,0.0011705445365005,-0.0011705445371003,0.0011705445380684,-0.0011705445397108,0.0011705445357125,-8.0474998367569e-11,8.0608254590801e-11,-0.0011968631290677,0.001196863129213,2.1692396135718e-14,1.1195290344506e-13,-0.0012236726752087,0.0012236726217336,-0.0012236726751372,0.0012236726215531,-0.0012236726215229,0.0012236726753618,-0.0012236726212087,0.0012236726751175,-0.0011705444587728,0.0011705446168576,-0.0011705446163617,0.0011705444592653,0.0030152158892865,0.0028782232046078,0.79434277277961,0.93846137462909,1368840,32768,0.004974505565048,0.0049745055649955,0.0049745055650646,23.411725678415,23.4171214813,0.00010249380542731,0.00010249380542731,0.00010249380542731,360738.21813474,0.01503555311587
28474959,0.87292681935847,0.014667753663558,0.0048892512211718,0.0048892512211497,0.0048892512212365,-0.0012013341292264,0.0012013341314927,8.1667641991949e-11,-7.9382894260012e-11,-1.3637177511235e-13,2.4569634120425e-12,-0.0012281367371488,0.0012281367920902,-0.0012281367906481,0.0012281367384211,-0.0012281367361438,0.0012281367927683,-0.0012281367896649,0.0012281367393237,-0.0011750505319893,0.0011750506928398,-0.001175050689577,0.0011750505353243,4.8622611671413e-13,-2.0797898167899e-12,-6.1051411391877e-13,-6.9557963287262e-13,-0.0012013341311657,0.0012013341295319,-0.001228136764945,0.0012281367642834,-0.0012281367648098,0.0012281367640492,-0.0012281367656652,0.0012281367632233,-0.0012281367658143,0.0012281367633769,-0.0011750506135493,0.0011750506114513,-0.0011750506138084,0.0011750506111986,-0.0011750506117344,0.0011750506128946,-0.0011750506144243,0.0011750506103263,-8.0497225512075e-11,8.0591634510298e-11,-0.0012013341303146,0.0012013341304233,7.9854913428386e-15,9.4778339880893e-14,-0.0012281367915249,0.0012281367378722,-0.0012281367913127,0.0012281367377018,-0.0012281367377962,0.0012281367915285,-0.0012281367376501,0.0012281367915216,-0.0011750505333915,0.0011750506911787,-0.0011750506911074,0.0011750505336336,0.0030338259058378,0.0028957200598908,0.7975663492071,0.95961733982701,1368840,32768,0.0049930422518799,0.0049930422518355,0.0049930422519192,23.49396708759,23.499363085321,0.00010315173670072,0.00010315173670072,0.00010315173670072,350843.43049124,0.015092000377387
28561359,0.8759266326762,0.014720376370283,0.0049067921234135,0.0049067921233914,0.0049067921234781,-0.0012057531991291,0.001205753201419,8.1674199615147e-11,-7.937963947709e-11,-1.2693659276246e-13,2.4787055713639e-12,-0.0012325436583246,0.0012325437133431,-0.0012325437119256,0.0012325436597876,-0.0012325436575066,0.0012325437141406,-0.0012325437109672,0.0012325436605349,-0.0011795104887949,0.0011795106495499,-0.0011795106463015,0.001179510491902,5.0585254655193e-13,-2.0728432054747e-12,-6.003710708406e-13,-6.9678689010939e-13,-0.001205753201075,0.001205753199459,-0.0012325436862062,0.0012325436855821,-0.0012325436859877,0.0012325436854676,-0.0012325436869676,0.0012325436846855,-0.0012325436870826,0.0012325436846267,-0.0011795105701355,0.0011795105681665,-0.0011795105703505,0.0011795105678427,-0.0011795105687195,0.0011795105695916,-0.0011795105709802,0.0011795105668925,-8.0493024052191e-11,8.0599193249972e-11,-0.0012057532002249,0.0012057532003563,2.2504841904292e-14,1.2077904557718e-13,-0.0012325437127089,0.0012325436591535,-0.0012325437125674,0.0012325436590565,-0.001232543659041,0.0012325437128488,-0.001232543658874,0.0012325437127548,-0.0011795104901096,0.0011795106479794,-0.0011795106476924,0.0011795104902795,0.0030522186480436,0.0029130051959684,0.80073464149198,0.97814736623338,1368840,32768,0.0050113633154135,0.0050113633153841,0.005011363315482,23.576208320543,23.581604689341,0.00010380966656434,0.00010380966656434,0.00010380966656434,340962.26409625,0.015147794024795
28647759,0.87887825403818,0.014772127454178,0.0049240424847117,0.0049240424846896,0.0049240424847765,-0.0012100985985624,0.0012100986008165,8.1655572478311e-11,-7.9387876166642e-11,-1.474204375833e-13,2.454736421252e-12,-0.0012368792503552,0.0012368793053222,-0.001236879303927,0.001236879251749,-0.0012368792494991,0.0012368793061372,-0.0012368793030595,0.0012368792525702,-0.0011838886977908,0.0011838888585917,-0.0011838888554107,0.0011838887008967,5.1802155714995e-13,-2.0570543348727e-12,-5.8885251095999e-13,-6.8044780102205e-13,-0.0012100986004775,0.00121009859889,-0.0012368792781849,0.0012368792775294,-0.0012368792780781,0.0012368792774507,-0.0012368792789516,0.0012368792766466,-0.0012368792790165,0.0012368792766748,-0.0011838887792177,0.001183888777228,-0.0011838887792672,0.001183888777091,-0.0011838887777006,0.0011838887786641,-0.0011838887802224,0.0011838887761806,-8.0478093390666e-11,8.0603766139685e-11,-0.0012100985996398,0.0012100985997707,1.6260209144125e-14,1.0953871249105e-13,-0.0012368793047301,0.0012368792511649,-0.0012368793045442,0.0012368792510208,-0.0012368792510221,0.0012368793048322,-0.0012368792508653,0.0012368793047179,-0.0011838886991899,0.001183888857108,-0.0011838888568998,0.0011838886993559,0.0030703086298015,0.0029300117756026,0.80020267444542,0.93297740060197,1368840,32768,0.0050293786016222,0.0050293786015986,0.0050293786016878,23.658447988451,23.663846293361,0.00010446758390761,0.00010446758390761,0.00010446758390761,331804.47647747,0.01520265953228
28734159,0.88178173795316,0.014822943364807,0.0049409811215881,0.0049409811215659,0.0049409811216529,-0.0012142861282018,0.0012142861304773,8.1664649671597e-11,-7.9377673478327e-11,-1.3755556247787e-13,2.4601091982939e-12,-0.0012411009061476,0.0012411009611374,-0.001241100959761,0.0012411009075975,-0.0012411009052362,0.0012411009620062,-0.0012411009588275,0.0012411009083686,-0.0011880597563521,0.0011880599171235,-0.0011880599140096,0.0011880597595605,4.948983517833e-13,-2.0754591255601e-12,-6.047328199451e-13,-7.0110349353423e-13,-0.0012142861301363,0.0012142861285225,-0.0012411009339812,0.0012411009333339,-0.0012411009338831,0.0012411009332198,-0.0012411009347235,0.0012411009324776,-0.0012411009348216,0.001241100932442,-0.0011880598379027,0.0011880598357116,-0.0011880598381007,0.0011880598356311,-0.0011880598362888,0.0011880598371951,-0.001188059838786,0.0011880598347811,-8.0477947042195e-11,8.0602829874169e-11,-0.0012142861292946,0.0012142861294252,8.6592648771667e-15,1.0691249860244e-13,-0.0012411009605654,0.0012411009070326,-0.0012411009603593,0.001241100906817,-0.0012411009068312,0.0012411009606336,-0.0012411009067158,0.0012411009605341,-0.0011880597577909,0.0011880599156432,-0.0011880599155698,0.0011880597578464,0.0030877449573035,0.0029467207069345,0.79865579787059,0.88780743497058,1368840,32768,0.0050467390215151,0.0050467390214732,0.0050467390215994,23.740687304681,23.746087897381,0.00010512549843745,0.00010512549843745,0.00010512549843745,328515.12439788,0.015255533570163
28820559,0.88463767589097,0.014872780120847,0.0049575933736015,0.004957593373579,0.0049575933736664,-0.0012183965832186,0.0012183965854721,8.1659420184296e-11,-7.9384145162974e-11,-1.6331536376892e-13,2.4448761342417e-12,-0.0012452509094212,0.0012452509643313,-0.00124525096307,0.0012452509107745,-0.001245250908554,0.0012452509652139,-0.0012452509621492,0.0012452509117165,-0.0011921436031092,0.0011921437639032,-0.0011921437606622,0.0011921436062406,5.0252791282309e-13,-2.0780779279105e-12,-5.9807981730741e-13,-6.8823453373095e-13,-0.001218396585136,0.0012183965835513,-0.0012452509373099,0.0012452509366164,-0.0012452509370838,0.0012452509363971,-0.0012452509380754,0.0012452509356874,-0.0012452509380976,0.0012452509357511,-0.0011921436845988,0.0011921436823715,-0.0011921436849652,0.0011921436823057,-0.0011921436829239,0.0011921436839627,-0.0011921436858735,0.001192143681563,-8.0473650879322e-11,8.0608173710919e-11,-0.0012183965842813,0.0012183965844287,3.4996283828728e-14,1.2713135151859e-13,-0.0012452509637411,0.0012452509102477,-0.001245250963592,0.0012452509100653,-0.001245250910001,0.0012452509639677,-0.0012452509099294,0.0012452509637412,-0.001192143604404,0.0011921437623482,-0.0011921437622364,0.0011921436047336,0.0031048653080291,0.002963118647085,0.7962569467972,0.84263746933915,1368840,32768,0.005063779588862,0.0050637795888549,0.0050637795889021,23.825888288227,23.831479512781,0.00010580710630581,0.00010580710630581,0.00010580710630581,326046.41110627,0.015307436226496
28906959,0.88745462623202,0.014921593325874,0.004973864441944,0.0049738644419216,0.0049738644420086,-0.0012225165070076,0.0012225165092522,8.164204489157e-11,-7.9384202631807e-11,-1.4779560259285e-13,2.4450428938532e-12,-0.001249422639128,0.0012494226940894,-0.0012494226926968,0.0012494226405205,-0.0012494226382777,0.0012494226948957,-0.0012494226918315,0.0012494226413325,-0.0011962169231485,0.0011962170839069,-0.001196217080726,0.0011962169262524,5.1306032635921e-13,-2.0525652367174e-12,-5.8615268167322e-13,-6.9361060478978e-13,-0.001222516508918,0.0012225165073304,-0.001249422666957,0.0012494226663014,-0.0012494226668566,0.0012494226662209,-0.0012494226677155,0.0012494226654262,-0.0012494226677841,0.0012494226654518,-0.0011962170045563,0.0011962170025635,-0.0011962170046282,0.0011962170023641,-0.0011962170030155,0.0011962170039723,-0.0011962170055656,0.0011962170015086,-8.0468953316947e-11,8.0595361072924e-11,-0.0012225165080794,0.0012225165082127,1.156582314263e-14,1.2065878454519e-13,-0.0012494226934947,0.0012494226399309,-0.0012494226933042,0.0012494226397896,-0.0012494226397879,0.0012494226935978,-0.0012494226396266,0.0012494226934818,-0.0011962169245479,0.0011962170824302,-0.0011962170822345,0.0011962169247331,0.0031220358713346,0.0029791992327141,0.79063967814851,0.76257399216567,1368840,32768,0.0050808590687566,0.0050808590687328,0.0050808590688234,23.960484938517,23.969225661212,0.00010688387950813,0.00010688387950813,0.00010688387950813,324645.34111353,0.015359460273455
28993359,0.89023269564551,0.014969393962902,0.0049897979876198,0.0049897979875975,0.0049897979876845,-0.0012265030122633,0.0012265030147999,8.1853001505814e-11,-7.9185446997773e-11,-1.103772162871e-14,2.6488371974889e-12,-0.0012534957013557,0.0012534957562146,-0.0012534957548871,0.0012534957025931,-0.0012534956999437,0.0012534957572681,-0.0012534957541195,0.001253495703058,-0.001200115916112,0.0012001160764818,-0.0012001160728745,0.0012001159200196,5.5444956194647e-13,-2.0798138748785e-12,-6.3383960722332e-13,-7.2500020468258e-13,-0.0012265030143804,0.0012265030127232,-0.0012534957292433,0.0012534957282669,-0.0012534957293998,0.0012534957283958,-0.0012534957301165,0.0012534957275932,-0.0012534957301694,0.0012534957276407,-0.0012001159977438,0.001200115996464,-0.0012001159984666,0.00120011599509,-0.0012001159963301,0.0012001159977561,-0.0012001159986279,0.0012001159943155,-8.0412262754687e-11,8.0664105414008e-11,-0.0012265030134638,0.0012265030136131,6.5718286469106e-15,1.0064501359921e-13,-0.0012534957557318,0.0012534957022542,-0.0012534957554776,0.0012534957019625,-0.0012534957025286,0.0012534957560347,-0.0012534957019361,0.0012534957557191,-0.0012001159178254,0.0012001160756506,-0.0012001160748866,0.0012001159188953,0.003138658519923,0.0029949643111323,0.78503936973684,0.69413019745649,1368840,32768,0.005097385094156,0.0050973850942396,0.0050973850941846,24.097939399156,24.106971809644,0.00010798351519324,0.00010798351519324,0.00010798351519324,327617.68796446,0.015409801278317
29079759,0.89297154754335,0.015015945416678,0.0050053151388783,0.0050053151388566,0.0050053151389431,-0.0012303965307424,0.0012303965330041,8.1660889315886e-11,-7.9367568904662e-11,-1.5824687154905e-13,2.4706625817776e-12,-0.0012574922330986,0.0012574922880665,-0.0012574922866707,0.0012574922344853,-0.0012574922322379,0.0012574922888814,-0.001257492285805,0.0012574922353048,-0.0012038961805817,0.0012038963413399,-0.0012038963381902,0.0012038961838161,5.302242431898e-13,-2.071354956822e-12,-5.9255530960674e-13,-6.7540130813012e-13,-0.0012303965326641,0.0012303965310713,-0.0012574922609324,0.001257492260258,-0.0012574922608251,0.0012574922601841,-0.0012574922617061,0.0012574922593816,-0.0012574922617648,0.0012574922594165,-0.0012038962618993,0.00120389625999,-0.0012038962621463,0.0012038962599145,-0.0012038962604923,0.0012038962615615,-0.0012038962630514,0.0012038962589744,-8.0479658225214e-11,8.0586441521881e-11,-0.0012303965318299,0.0012303965319487,1.231591787481e-14,9.6837276981777e-14,-0.0012574922874775,0.001257492233907,-0.0012574922872992,0.0012574922337607,-0.001257492233775,0.001257492287588,-0.0012574922336177,0.0012574922874667,-0.0012038961820405,0.0012038963397766,-0.0012038963397038,0.0012038961821612,0.0031549069194017,0.0030103460220946,0.77545516948669,0.57523251347578,1368840,32768,0.0051135252958062,0.0051135252957833,0.0051135252958728,24.235651216859,24.244717958076,0.00010908520973487,0.00010908520973487,0.00010908520973487,331370.72004172,0.015458969777887
29166159,0.89567083621292,0.01506200488138,0.005020668293779,0.0050206682937572,0.0050206682938438,-0.0012341504109232,0.0012341504131844,8.1653819061289e-11,-7.9381441480864e-11,-1.6993922023818e-13,2.4795371930172e-12,-0.0012613917819045,0.0012613918368664,-0.0012613918354753,0.0012613917832981,-0.0012613917810375,0.001261391837696,-0.0012613918345939,0.0012613917841309,-0.0012075010892892,0.0012075012500994,-0.0012075012469244,0.0012075010924455,5.3068111158573e-13,-2.0913945210977e-12,-5.8013383613305e-13,-7.2176271535036e-13,-0.0012341504128547,0.0012341504112418,-0.0012613918097313,0.0012613918090812,-0.0012613918096539,0.0012613918089878,-0.0012613918105094,0.0012613918081826,-0.001261391810599,0.0012613918081972,-0.0012075011706822,0.0012075011687373,-0.0012075011708385,0.0012075011685664,-0.0012075011692072,0.0012075011702187,-0.0012075011718024,0.0012075011676702,-8.0467192194278e-11,8.0605482704892e-11,-0.0012341504119976,0.001234150412142,-1.9817041661804e-15,1.4102783875515e-13,-0.001261391836273,0.0012613917827062,-0.0012613918360667,0.0012613917825796,-0.0012613917825723,0.0012613918363688,-0.0012613917823921,0.0012613918362779,-0.0012075010907504,0.0012075012486641,-0.0012075012484495,0.0012075010909286,0.0031705681271599,0.003025555435905,0.77860897396279,0.65004726883906,1368840,32768,0.0051290863827432,0.0051290863827199,0.0051290863828095,24.373390889055,24.382464106508,0.00011018712711243,0.00011018712711243,0.00011018712711243,340811.60543406,0.015506376258782
29252559,0.89833023607589,0.015106921060796,0.0050356403535843,0.0050356403535625,0.005035640353649,-0.0012381508050427,0.0012381508072225,8.1612719963897e-11,-7.9428930559517e-11,-1.8973173323755e-13,2.4073023409189e-12,-0.0012653799466051,0.0012653800013814,-0.0012653800001748,0.0012653799480652,-0.0012653799459486,0.0012653800020848,-0.0012653799990928,0.001265379948673,-0.0012115001654743,0.0012115003261894,-0.0012115003238623,0.0012115001689813,3.9999801562931e-13,-2.1690759715121e-12,-6.2116381798939e-13,-8.2191594985545e-13,-0.0012381508070088,0.0012381508052542,-0.001265379974298,0.0012653799736038,-0.0012653799742777,0.001265379973472,-0.0012653799750037,0.0012653799728539,-0.0012653799752971,0.0012653799728456,-0.0012115002474489,0.0012115002451374,-0.0012115002470163,0.0012115002451136,-0.0012115002453521,0.0012115002463803,-0.0012115002486115,0.0012115002439195,-8.047007387095e-11,8.0609072124649e-11,-0.0012381508060733,0.001238150806241,8.2351895970812e-15,2.1070738656339e-13,-0.0012653800009347,0.0012653799471405,-0.0012653800006277,0.0012653799473755,-0.0012653799468722,0.0012653800009532,-0.0012653799470021,0.0012653800008216,-0.0012115001668807,0.001211500324496,-0.0012115003246643,0.001211500166871,0.0031872718550781,0.003040409652044,0.77073328806747,0.55323216161483,1368840,32768,0.0051456691685303,0.0051456691685257,0.0051456691686318,24.511131445917,24.520210254939,0.00011128905156733,0.00011128905156733,0.00011128905156733,330374.04784845,0.015556897893943
29338959,0.9009494708044,0.015150690965957,0.005050230321971,0.0050502303219496,0.0050502303220361,-0.0012417482819386,0.0012417482842098,8.1652478925758e-11,-7.9403846678753e-11,-1.620674018933e-13,2.45486877015e-12,-0.0012691302292694,0.0012691302840185,-0.0012691302827797,0.0012691302305157,-0.0012691302281908,0.0012691302849005,-0.0012691302816564,0.0012691302310377,-0.0012149249609011,0.0012149251213125,-0.0012149251188781,0.0012149249635977,4.3727428862946e-13,-2.1519817878453e-12,-6.5892478206492e-13,-8.0014961480204e-13,-0.0012417482839169,0.0012417482821788,-0.0012691302568636,0.0012691302559785,-0.0012691302565368,0.0012691302560786,-0.0012691302576733,0.0012691302552994,-0.0012691302579109,0.0012691302551076,-0.0012149250428367,0.0012149250400573,-0.0012149250425708,0.0012149250399386,-0.0012149250404563,0.0012149250421106,-0.0012149250432626,0.0012149250390553,-8.0484535723268e-11,8.0608930070165e-11,-0.0012417482830374,0.0012417482831755,7.4456843041613e-15,1.5082301010763e-13,-0.0012691302832401,0.0012691302297948,-0.0012691302830703,0.001269130229776,-0.0012691302298234,0.0012691302835047,-0.0012691302296849,0.0012691302835413,-0.0012149249624007,0.0012149251206842,-0.0012149251200589,0.001214924962196,0.003202302644853,0.0030549077637395,0.76243792834935,0.45641705439063,1368840,32768,0.0051605812973599,0.0051605812972505,0.0051605812974935,24.648872906125,24.657956403372,0.000112390983249,0.000112390983249,0.000112390983249,339623.56311026,0.015602332281567
29425359,0.90352825880883,0.015193380835454,0.0050644602784703,0.005064460278448,0.0050644602785357,-0.0012452331125926,0.0012452331148295,8.1651992117101e-11,-7.9423606780978e-11,-1.6194593501579e-13,2.4476115212658e-12,-0.001272793400431,0.0012727934552331,-0.0012727934539887,0.0012727934016235,-0.001272793399466,0.0012727934562589,-0.0012727934530114,0.0012727934026635,-0.0012182067725974,0.0012182069333881,-0.0012182069303808,0.0012182067755098,5.0927676547381e-13,-2.071354074496e-12,-5.6718408468025e-13,-7.479686206603e-13,-0.0012452331145339,0.001245233112871,-0.00127279342822,0.0012727934274601,-0.0012727934282705,0.0012727934274109,-0.0012727934291112,0.0012727934265108,-0.0012727934291799,0.0012727934264883,-0.0012182068535748,0.0012182068527623,-0.0012182068536514,0.0012182068521855,-0.0012182068530622,0.0012182068541028,-0.0012182068554566,0.0012182068512119,-8.0457958358718e-11,8.0653936048205e-11,-0.0012452331136412,0.0012452331138446,1.6391146320555e-14,1.9968454683299e-13,-0.0012727934547104,0.0012727934011297,-0.0012727934544155,0.0012727934011764,-0.0012727934009175,0.0012727934548177,-0.0012727934008438,0.0012727934550347,-0.0012182067742898,0.0012182069324715,-0.0012182069319246,0.0012182067745005,0.0032168721892058,0.0030690673154435,0.75536252054365,0.37987189066863,1368840,32768,0.0051750261998449,0.0051750261998093,0.0051750261999769,24.786614997801,24.795702551804,0.00011349291998241,0.00011349291998241,0.00011349291998241,351043.4650117,0.015646345350724
29511759,0.90606636262964,0.015234934943453,0.0050783116478032,0.0050783116477807,0.0050783116478686,-0.0012486440527686,0.001248644055059,8.1665094658003e-11,-7.9393156240633e-11,-1.5792770482879e-13,2.4473127068649e-12,-0.0012763862760241,0.0012763863309939,-0.0012763863294173,0.0012763862773763,-0.0012763862750178,0.0012763863317263,-0.0012763863285363,0.0012763862780813,-0.0012214044883547,0.001221404648926,-0.0012214046459585,0.0012214044916796,5.2408978353451e-13,-2.0548347556205e-12,-4.9835292271912e-13,-6.8835758879523e-13,-0.001248644054662,0.0012486440531292,-0.0012763863036293,0.001276386303198,-0.0012763863037765,0.0012763863030214,-0.0012763863044759,0.0012763863024356,-0.0012763863045222,0.0012763863021709,-0.0012214045695634,0.0012214045677583,-0.001221404569788,0.0012214045672193,-0.0012214045676819,0.0012214045688573,-0.0012214045702992,0.0012214045661729,-8.0482152325491e-11,8.0612693102266e-11,-0.0012486440538216,0.0012486440540397,2.0870980052945e-14,2.1232636651643e-13,-0.0012763863303963,0.0012763862767364,-0.0012763863301716,0.0012763862766983,-0.0012763862766375,0.0012763863303975,-0.0012763862764553,0.0012763863302648,-0.0012214044892247,0.0012214046469957,-0.0012214046468781,0.0012214044895799,0.0032311437616281,0.0030828724258147,0.74714037945698,0.28771727868878,1368840,32768,0.0051891645495165,0.0051891645494408,0.0051891645495861,24.92435752195,24.933448700235,0.0001145948601756,0.0001145948601756,0.0001145948601756,362087.4922937,0.015689426524414
29598159,0.90856324955203,0.015275975570774,0.0050919918569105,0.0050919918568876,0.0050919918569762,-0.0012519500658179,0.0012519500680453,8.1660212924784e-11,-7.9419552787178e-11,-1.4789530542935e-13,2.4242892337457e-12,-0.0012799023218794,0.0012799023768386,-0.0012799023754604,0.0012799023232574,-0.0012799023210305,0.0012799023776436,-0.0012799023745993,0.0012799023240574,-0.0012244767982464,0.0012244769590419,-0.0012244769559356,0.00122447680137,4.9436366223534e-13,-2.0501453694662e-12,-5.4912937153346e-13,-7.4873647955568e-13,-0.0012519500677246,0.0012519500661264,-0.0012799023496968,0.0012799023490592,-0.0012799023496281,0.0012799023489472,-0.0012799023504462,0.0012799023481881,-0.0012799023505511,0.0012799023481756,-0.0012244768797162,0.0012244768777493,-0.0012244768798396,0.0012244768774938,-0.001224476878209,0.0012244768791115,-0.00122447688075,0.0012244768766462,-8.0482240028694e-11,8.0634279913392e-11,-0.0012519500668663,0.0012519500670298,-1.6169653087021e-14,1.8476673785593e-13,-0.0012799023762501,0.0012799023226682,-0.0012799023760275,0.0012799023225574,-0.0012799023225368,0.0012799023763551,-0.0012799023223376,0.0012799023762758,-0.0012244767996598,0.0012244769576298,-0.0012244769574056,0.001224476799866,0.0032449734668004,0.0030964972022441,0.75026770674551,0.35804758890635,1368840,32768,0.005202867782177,0.0052028677821516,0.0052028677822451,25.059933678552,25.068891478419,0.00011567946942841,0.00011567946942841,0.00011567946942841,376067.28232964,0.015731183534804
29684559,0.91101498664837,0.015316493453353,0.00510549781777,0.005105497817747,0.0051054978178356,-0.0012555786641419,0.0012555786663706,8.1666125273578e-11,-7.942469810058e-11,-1.5003929875536e-13,2.4296940098099e-12,-0.0012835236277384,0.001283523682698,-0.0012835236813181,0.0012835236291129,-0.0012835236268869,0.0012835236835058,-0.0012835236804573,0.0012835236299163,-0.0012280920793784,0.0012280922401749,-0.0012280922370768,0.0012280920824702,5.0719174093458e-13,-2.0448135911719e-12,-5.4394597105926e-13,-7.3833297384622e-13,-0.0012555786660472,0.0012555786644547,-0.001283523655565,0.0012835236549242,-0.0012835236554955,0.0012835236548146,-0.0012835236563183,0.0012835236540549,-0.0012835236564169,0.001283523654048,-0.0012280921607687,0.0012280921588622,-0.0012280921609395,0.0012280921586091,-0.0012280921593036,0.001228092160214,-0.0012280921618242,0.0012280921577629,-8.0488955294136e-11,8.0638750806221e-11,-0.001255578665193,0.0012555786653529,-2.0585753472303e-14,1.7517220743284e-13,-0.0012835236821175,0.0012835236285356,-0.0012835236818986,0.0012835236284251,-0.0012835236283978,0.0012835236822199,-0.0012835236282041,0.0012835236821373,-0.0012280920807636,0.0012280922387651,-0.0012280922385124,0.0012280920809634,0.00326014441746,0.0031099352273073,0.75456074381933,0.44192454116588,1368840,32768,0.0052179081641513,0.0052179081641295,0.0052179081642205,25.169928805446,25.177252872186,0.00011655943044357,0.00011655943044357,0.00011655943044357,365228.72916717,0.015777016581135
29770959,0.91342148396859,0.015356502833077,0.0051188342776779,0.005118834277655,0.0051188342777437,-0.0012591945768319,0.0012591945790122,8.1631419980859e-11,-7.947517220569e-11,-2.0374101114608e-13,2.4041962593369e-12,-0.0012871082565042,0.0012871083115129,-0.0012871083101846,0.0012871082578618,-0.0012871082558221,0.0012871083124063,-0.0012871083093263,0.0012871082587065,-0.0012317246862187,0.0012317248463243,-0.0012317248439452,0.0012317246887682,4.8590127369668e-13,-2.0944509571374e-12,-5.5573431681574e-13,-7.4772477516843e-13,-0.0012591945787274,0.0012591945771066,-0.0012871082844535,0.0012871082835949,-0.0012871082844058,0.0012871082835905,-0.0012871082851517,0.0012871082828595,-0.0012871082852371,0.001287108282925,-0.0012317247668825,0.0012317247652645,-0.0012317247673048,0.0012317247653597,-0.0012317247655929,0.0012317247663734,-0.0012317247686596,0.0012317247639623,-8.0517065317747e-11,8.0626408389156e-11,-0.0012591945778886,0.001259194578014,-5.2990381180229e-14,1.4067308488676e-13,-0.0012871083110395,0.0012871082575335,-0.0012871083106586,0.0012871082572171,-0.0012871082572681,0.0012871083110286,-0.001287108256984,0.0012871083109393,-0.0012317246873917,0.001231724845292,-0.0012317248446253,0.0012317246872015,0.0032752559709151,0.0031231909526443,0.75904274772979,0.52580149342541,1368840,32768,0.0052328958063989,0.005232895806378,0.0052328958065201,25.278436601457,25.285614265953,0.00011742749281165,0.00011742749281165,0.00011742749281165,352404.2705976,0.015822690732216
29857359,0.91578286906518,0.015396005133213,0.0051320017110566,0.0051320017110339,0.0051320017111229,-0.0012627625862665,0.0012627625885178,8.1696687457571e-11,-7.9422926037069e-11,-1.2955851266461e-13,2.4586115969857e-12,-0.0012906395446588,0.0012906395997472,-0.0012906395983177,0.0012906395460955,-0.001290639543788,0.0012906396003353,-0.001290639597494,0.0012906395467373,-0.0012353209411702,0.0012353211016192,-0.0012353210987298,0.0012353209445465,5.08351146692e-13,-2.0522108357794e-12,-5.2104743529969e-13,-7.4551787199958e-13,-0.0012627625881922,0.0012627625865729,-0.001290639572459,0.0012906395720056,-0.0012906395724904,0.0012906395717592,-0.0012906395734112,0.0012906395710524,-0.0012906395734831,0.0012906395712173,-0.0012353210222388,0.0012353210211917,-0.0012353210224974,0.0012353210204645,-0.0012353210211846,0.0012353210221331,-0.0012353210237636,0.001235321019427,-8.0479741575609e-11,8.0677296511029e-11,-0.0012627625873203,0.0012627625875268,-1.5254239875796e-15,2.2388004297131e-13,-0.0012906395991731,0.0012906395455767,-0.0012906395989079,0.0012906395453512,-0.001290639545387,0.001290639599237,-0.0012906395452043,0.0012906395992081,-0.0012353209431421,0.0012353211006,-0.0012353211005623,0.0012353209431343,0.0032901616119406,0.0031362648648868,0.76365963535108,0.609678445685,1368840,32768,0.0052476847200193,0.0052476847199797,0.0052476847201496,25.386810097695,25.393975659721,0.00011829448078156,0.00011829448078156,0.00011829448078156,339766.91288935,0.015867761084422
29943759,0.91809931029017,0.015435365896082,0.0051451219653459,0.0051451219653233,0.0051451219654126,-0.0012663119360397,0.0012663119382295,8.1650345637988e-11,-7.944903012196e-11,-1.5819328495079e-13,2.3714776706321e-12,-0.0012941369975299,0.0012941370524897,-0.0012941370510998,0.0012941369989338,-0.0012941369966743,0.0012941370532857,-0.0012941370502533,0.0012941369996879,-0.0012389286405246,0.001238928801193,-0.001238928798248,0.0012389286434792,4.8920934910784e-13,-2.0127023368546e-12,-5.6494618245839e-13,-7.4203130204131e-13,-0.0012663119379211,0.0012663119363378,-0.0012941370253168,0.0012941370247149,-0.0012941370252528,0.001294137024585,-0.001294137026037,0.0012941370238417,-0.001294137026168,0.0012941370238428,-0.0012389287217804,0.0012389287198718,-0.0012389287218583,0.0012389287196924,-0.0012389287201718,0.0012389287212285,-0.0012389287228664,0.001238928718949,-8.0484425491342e-11,8.0652298098243e-11,-0.0012663119370679,0.0012663119372343,-1.5273503993172e-14,1.6317389750238e-13,-0.0012941370519081,0.0012941369983152,-0.0012941370516439,0.0012941369982051,-0.0012941369981781,0.0012941370519888,-0.0012941369979889,0.0012941370519418,-0.001238928641799,0.0012389287998454,-0.0012389287994997,0.0012389286419146,0.0033049753706949,0.0031492580189346,0.77567981314998,0.81974866733028,1368840,32768,0.0052623961861313,0.00526239618611,0.0052623961861997,25.495172939701,25.502337053488,0.00011916138351761,0.00011916138351761,0.00011916138351761,326497.31660451,0.015912596934221
30030159,0.92037100112085,0.015474327825861,0.0051581092752723,0.0051581092752497,0.0051581092753389,-0.0012700418861159,0.0012700418883206,8.1645734249451e-11,-7.9478709921145e-11,-1.3227095921299e-13,2.3894168873072e-12,-0.0012976979132065,0.0012976979681534,-0.0012976979668294,0.0012976979145581,-0.0012976979123714,0.0012976979689471,-0.0012976979659105,0.001297697915399,-0.0012428384874218,0.0012428386480889,-0.0012428386451338,0.0012428384904171,4.6907593475806e-13,-2.0250510184344e-12,-5.1881059186901e-13,-7.0620060252694e-13,-0.0012700418879914,0.0012700418864351,-0.0012976979410291,0.0012976979403221,-0.001297697940897,0.0012976979402395,-0.0012976979416866,0.0012976979394618,-0.0012976979419071,0.0012976979395437,-0.0012428385687546,0.0012428385669017,-0.0012428385690035,0.0012428385668107,-0.0012428385673229,0.0012428385681885,-0.0012428385698336,0.0012428385659262,-8.0541110112607e-11,8.0620708533871e-11,-0.0012700418871778,0.0012700418872896,-4.5482110552743e-14,1.4347205820358e-13,-0.0012976979676351,0.0012976979139757,-0.0012976979674261,0.0012976979138213,-0.0012976979139021,0.0012976979677093,-0.0012976979136457,0.0012976979675497,-0.0012428384889378,0.001242838646791,-0.0012428386465384,0.0012428384889554,0.0033205346464752,0.0031621023493691,0.78285127287845,0.9047049289286,1368840,32768,0.0052778561452992,0.0052778561452785,0.0052778561453631,25.603535007609,25.610698447255,0.00012002828006087,0.00012002828006087,0.00012002828006087,301744.87984145,0.015959715647533
30116559,0.92259816186654,0.015511459938279,0.0051704866460785,0.0051704866460558,0.0051704866461451,-0.0012733848562215,0.0012733848584359,8.1660632264915e-11,-7.9455831561239e-11,-1.4845170019658e-13,2.4276764243869e-12,-0.0013010192108108,0.0013010192657952,-0.0013010192643927,0.0013010192122302,-0.0013010192099635,0.0013010192665497,-0.0013010192635241,0.0013010192129373,-0.0012461888936509,0.0012461890542003,-0.001246189051064,0.0012461888965171,4.9758379915649e-13,-2.0508378189006e-12,-5.2108496356499e-13,-7.3700798491196e-13,-0.0012733848581093,0.0012733848565362,-0.0013010192386413,0.0013010192380187,-0.0013010192385325,0.0013010192379016,-0.0013010192393352,0.0013010192371236,-0.0013010192394803,0.0013010192371332,-0.0012461889749619,0.0012461889731481,-0.0012461889749795,0.0012461889728072,-0.0012461889733645,0.0012461889742784,-0.0012461889759071,0.0012461889717863,-8.0485994443411e-11,8.0667931738293e-11,-0.0012733848572623,0.0012733848574287,-2.8265930612869e-14,1.8892249325339e-13,-0.0013010192651829,0.0013010192115774,-0.001301019264979,0.0013010192114888,-0.0013010192114557,0.0013010192652912,-0.0013010192112604,0.0013010192651972,-0.001246188895096,0.0012461890530467,-0.0012461890526384,0.0012461888953418,0.0033345054156591,0.0031743975888752,0.7605230481241,0.55468864720086,1368840,32768,0.00529171164507,0.0052917116450453,0.0052917116451398,25.711888696232,25.719059841022,0.00012089510956985,0.00012089510956985,0.00012089510956985,292135.24885017,0.016001947110263
30202959,0.92478102088749,0.015547676834109,0.0051825589446884,0.0051825589446658,0.005182558944755,-0.0012758613887768,0.0012758613910021,8.1688677172868e-11,-7.9445195592043e-11,-1.469259232786e-13,2.4230470363998e-12,-0.0013038729143475,0.0013038729693344,-0.0013038729679584,0.0013038729157394,-0.0013038729135077,0.0013038729701208,-0.0013038729671011,0.0013038729165017,-0.001248284446881,0.0012482846076082,-0.001248284604529,0.0012482844499215,5.0081546513719e-13,-2.0413956367646e-12,-5.3310221409329e-13,-7.4414044349084e-13,-0.0012758613906747,0.0012758613890938,-0.0013038729421749,0.0013038729415497,-0.0013038729421166,0.0013038729414445,-0.0013038729429153,0.0013038729406893,-0.0013038729430409,0.001303872940688,-0.0012482845281589,0.0012482845263254,-0.0012482845283809,0.0012482845260533,-0.0012482845267313,0.0012482845276828,-0.0012482845292337,0.0012482845251879,-8.0508231293503e-11,8.0662728603128e-11,-0.0012758613898244,0.0012758613899886,-2.4288816816848e-14,1.8818260409179e-13,-0.001303872968752,0.001303872915159,-0.0013038729685189,0.001303872915046,-0.0013038729150161,0.0013038729688427,-0.0013038729148113,0.0013038729687823,-0.001248284448217,0.0012482846062137,-0.0012482846058922,0.0012482844484107,0.0033448671934691,0.0031863981223703,0.75670527288257,0.51117160507599,1368840,32768,0.0053019754806283,0.0053019754806066,0.005301975480699,25.820247083652,25.827421234789,0.00012176197666921,0.00012176197666921,0.00012176197666921,323929.26557936,0.016033233260278
30289359,0.9269198159459,0.015582963605962,0.0051943212019725,0.00519432120195,0.0051943212020392,-0.0012788043895332,0.001278804391763,8.1697421729257e-11,-7.9429931823047e-11,-1.5578812313272e-13,2.4140929569996e-12,-0.0013069274017437,0.0013069274568023,-0.0013069274552763,0.0013069274030921,-0.0013069274008165,0.0013069274575157,-0.0013069274543984,0.0013069274038443,-0.0012511026272944,0.0012511027883314,-0.0012511027852135,0.0012511026304946,5.0282075681809e-13,-2.0399343872871e-12,-5.1752530760415e-13,-7.3121645595684e-13,-0.0012788043914075,0.0012788043898577,-0.0013069274295037,0.0013069274289047,-0.0013069274294158,0.0013069274288365,-0.0013069274302311,0.0013069274280459,-0.0013069274303527,0.0013069274280541,-0.0012511027089169,0.0012511027068996,-0.0012511027088566,0.0012511027067271,-0.0012511027073807,0.0012511027082984,-0.0012511027099068,0.0012511027057646,-8.0506384055817e-11,8.0657708550605e-11,-0.0012788043905908,0.0012788043907473,-1.5369736347458e-14,1.9979819042008e-13,-0.0013069274561575,0.0013069274024601,-0.0013069274558993,0.0013069274023956,-0.001306927402379,0.001306927456215,-0.0013069274021718,0.0013069274560593,-0.0012511026287261,0.001251102786779,-0.0012511027867054,0.001251102629005,0.0033571749753247,0.003198098767581,0.75277711835637,0.46765456295112,1368840,32768,0.0053141727836629,0.0053141727835985,0.0053141727837496,25.928605828591,25.935782628557,0.00012262884662873,0.00012262884662873,0.00012262884662873,327844.08323336,0.016070413584005
30375759,0.92901557993575,0.01561735518533,0.0052057850617621,0.0052057850617393,0.0052057850618288,-0.0012816796526981,0.0012816796548941,8.1671960801189e-11,-7.9443368530212e-11,-1.5930866264147e-13,2.3960386261941e-12,-0.0013099227701123,0.0013099228250909,-0.0013099228237353,0.0013099227715321,-0.0013099227693024,0.0013099228259062,-0.0013099228227831,0.0013099227722731,-0.001253842701658,0.0012538428624222,-0.0012538428592859,0.001253842704782,4.9996222649717e-13,-2.0280576912885e-12,-5.2711442642786e-13,-7.2326208131047e-13,-0.0012816796545657,0.0012816796530062,-0.0013099227980093,0.0013099227973726,-0.001309922797824,0.0013099227972559,-0.0013099227987045,0.0013099227965268,-0.0013099227987475,0.0013099227965165,-0.0012538427830003,0.0012538427809719,-0.0012538427830409,0.0012538427808588,-0.0012538427812854,0.0012538427824554,-0.0012538427842384,0.0012538427799629,-8.052795957317e-11,8.0623988551316e-11,-0.0012816796537532,0.0012816796538717,-3.6387211925065e-14,1.6148221388803e-13,-0.0013099228245875,0.0013099227709417,-0.0013099228243365,0.0013099227709027,-0.0013099227709129,0.0013099228246723,-0.0013099227706117,0.0013099228245582,-0.001253842702963,0.0012538428608382,-0.0012538428606297,0.0012538427031104,0.0033692037451727,0.0032095109548957,0.74876460910265,0.42413752082625,1368840,32768,0.0053260891709277,0.0053260891708856,0.0053260891709955,26.042894963783,26.050454111107,0.00012354315971026,0.00012354315971026,0.00012354315971026,332346.12796351,0.01610673905275
30462159,0.9310751096035,0.015651239966887,0.0052170799889477,0.0052170799889248,0.0052170799890145,-0.0012846120161935,0.0012846120183936,8.16450690933e-11,-7.9496515788952e-11,-1.4905227008487e-13,2.4158940784472e-12,-0.0013129710992917,0.0013129711540078,-0.001312971152548,0.0013129711005363,-0.0013129710982255,0.0013129711547902,-0.0013129711517683,0.001312971101368,-0.0012566466309475,0.0012566467916034,-0.0012566467885055,0.0012566466334486,5.0648093911968e-13,-2.0316278763394e-12,-5.0188802060666e-13,-7.1168972895554e-13,-0.0012846120180743,0.0012846120165481,-0.0013129711269418,0.0013129711261431,-0.0013129711268507,0.0013129711262465,-0.0013129711276751,0.0013129711255062,-0.0013129711276462,0.0013129711254681,-0.0012566467116455,0.0012566467102347,-0.0012566467117317,0.0012566467099029,-0.0012566467101698,0.0012566467116586,-0.0012566467124817,0.0012566467090963,-8.0534882596971e-11,8.0644631361868e-11,-0.0012846120171828,0.0012846120173675,-3.7926870771897e-14,1.7188574900835e-13,-0.0013129711534351,0.001312971099901,-0.0013129711534343,0.0013129710997533,-0.0013129710998327,0.0013129711536219,-0.0013129710995186,0.0013129711536735,-0.0012566466321911,0.0012566467902974,-0.0012566467896357,0.0012566466324533,0.0033814700357237,0.0032207491648062,0.75080095839793,0.47188982592605,1368840,32768,0.0053382420908561,0.0053382420909291,0.0053382420907798,26.210886716857,26.221902519396,0.00012488709373486,0.00012488709373486,0.00012488709373486,336674.49360009,0.016143786762708
30548559,0.93309859469584,0.015684649685546,0.0052282165618342,0.0052282165618118,0.0052282165619003,-0.0012877354442613,0.0012877354465309,8.168019272618e-11,-7.9474523872555e-11,-1.4664199077608e-13,2.4197296083332e-12,-0.0013161030320675,0.0013161030870463,-0.0013161030856498,0.0013161030333069,-0.0013161030309163,0.0013161030877542,-0.0013161030845241,0.0013161030338822,-0.0012597522695372,0.0012597524300291,-0.0012597524276291,0.0012597522726004,5.254374776575e-13,-2.0148918582015e-12,-4.8449572839983e-13,-6.9521102648623e-13,-0.0012877354461224,0.0012877354446356,-0.0013161030596728,0.0013161030592208,-0.0013161030596976,0.0013161030591885,-0.0013161030605109,0.0013161030582881,-0.0013161030604922,0.0013161030582732,-0.0012597523507587,0.0012597523489975,-0.0012597523506231,0.0012597523488534,-0.0012597523492885,0.0012597523503186,-0.0012597523517156,0.0012597523478384,-8.0468733558955e-11,8.0722663830971e-11,-0.0012877354452446,0.0012877354455352,5.3025556576233e-14,2.6452441896058e-13,-0.0013161030862906,0.0013161030325911,-0.001316103085856,0.0013161030326226,-0.0013161030325237,0.0013161030865913,-0.0013161030323366,0.0013161030863565,-0.00125975227085,0.0012597524288813,-0.0012597524282622,0.0012597522706885,0.0033945310075479,0.0032318224808571,0.75354821700453,0.52798122599095,1368840,32768,0.00535118685495,0.0053511868548792,0.0053511868549246,26.382013273332,26.393350927686,0.00012625610618665,0.00012625610618665,0.00012625610618665,329560.30918593,0.016183249531065
30634959,0.93508588924746,0.015717530979627,0.0052391769931948,0.0052391769931722,0.0052391769932604,-0.0012908351706987,0.0012908351729886,8.1740677407826e-11,-7.9425582838258e-11,-1.4128238980232e-13,2.4440805114886e-12,-0.0013191947930469,0.0013191948481418,-0.0013191948465411,0.0013191947945764,-0.0013191947922124,0.0013191948489324,-0.0013191948457734,0.0013191947954002,-0.0012628517804596,0.0012628519412029,-0.0012628519380289,0.001262851783351,4.8967795243939e-13,-2.068232405155e-12,-4.9224366817618e-13,-7.1008001342536e-13,-0.001290835172627,0.0012908351710495,-0.0013191948209258,0.0013191948203176,-0.001319194820835,0.0013191948201199,-0.001319194821792,0.0013191948194894,-0.001319194821774,0.0013191948194032,-0.0012628518618349,0.0012628518600735,-0.0012628518619345,0.0012628518599297,-0.001262851860321,0.0012628518613573,-0.0012628518631742,0.0012628518588068,-8.0560606575827e-11,8.0642327167554e-11,-0.0012908351718099,0.0012908351719151,-7.7881532537347e-14,1.4118736329355e-13,-0.0013191948475754,0.0013191947939192,-0.0013191948472978,0.0013191947938403,-0.0013191947938163,0.001319194847625,-0.0013191947935869,0.0013191948475689,-0.0012628517819251,0.0012628519400142,-0.0012628519396852,0.001262851782126,0.0034074911081118,0.0032427162792934,0.75508284739839,0.5620486270262,1368840,32768,0.0053640332485326,0.0053640332485102,0.0053640332486107,26.553424555031,26.564799335976,0.00012762739644025,0.00012762739644025,0.00012762739644025,321446.82263567,0.016222413838486
30721359,0.93703683795005,0.015749883896008,0.0052499612986549,0.0052499612986323,0.0052499612987206,-0.0012938408302644,0.0012938408324578,8.1665034012797e-11,-7.9491906870928e-11,-1.7296459840319e-13,2.3967918384781e-12,-0.0013222140789357,0.0013222141338667,-0.0013222141325209,0.0013222140802328,-0.0013222140780756,0.0013222141347617,-0.001322214131729,0.0013222140810783,-0.0012658382388353,0.001265838399714,-0.0012658383967663,0.0012658382419887,5.0051403316926e-13,-2.0413148157042e-12,-5.7105505466007e-13,-7.6993747893852e-13,-0.001293840832176,0.0012938408305425,-0.0013222141068609,0.0013222141061518,-0.001322214106701,0.0013222141059623,-0.0013222141075779,0.0013222141052677,-0.0013222141076549,0.0013222141051479,-0.0012658383205388,0.0012658383182676,-0.0012658383207592,0.0012658383181052,-0.0012658383188373,0.0012658383198334,-0.0012658383216238,0.0012658383174368,-8.0496894933938e-11,8.0696800179912e-11,-0.0012938408312774,0.0012938408314631,-1.6521465868794e-14,1.8375365115797e-13,-0.0013222141331961,0.0013222140797269,-0.001322214133016,0.0013222140795244,-0.0013222140794147,0.0013222141334134,-0.001322214079314,0.0013222141332452,-0.0012658382404704,0.001265838398554,-0.0012658383983702,0.0012658382406528,0.0034200571860135,0.0032534305043274,0.75672667702502,0.59611602806145,1368840,32768,0.0053764896246557,0.0053764896246479,0.0053764896246935,26.724863734747,26.736247744267,0.00012899890987797,0.00012899890987797,0.00012899890987797,315808.19830823,0.016260390547834
30807759,0.93895130936545,0.015781837982698,0.0052606126608852,0.0052606126608627,0.0052606126609505,-0.0012968144797523,0.0012968144819186,8.170188188712e-11,-7.9495702343214e-11,-2.7394427824917e-13,2.3840148170426e-12,-0.0013251949881937,0.0013251950433545,-0.0013251950419225,0.0013251949895554,-0.0013251949872619,0.0013251950439389,-0.0013251950410571,0.0013251949903292,-0.001268804382694,0.0012688045439168,-0.00126880454049,0.0012688043850278,7.1018212795289e-13,-1.9203228060447e-12,-5.1915399314305e-13,-7.2336225472083e-13,-0.0012968144815941,0.0012968144800931,-0.0013251950162089,0.001325195015728,-0.0013251950159453,0.0013251950155064,-0.0013251950168895,0.001325195014736,-0.0013251950167317,0.0013251950145681,-0.001268804464065,0.001268804462662,-0.0012688044644851,0.0012688044621645,-0.0012688044621874,0.0012688044638003,-0.0012688044654627,0.0012688044618545,-8.0581054539391e-11,8.0653736436656e-11,-0.0012968144808274,0.0012968144809245,-3.2683383897998e-14,1.7191680688309e-13,-0.0013251950424101,0.001325194988823,-0.0013251950424532,0.0013251949887693,-0.0013251949889175,0.0013251950426529,-0.0013251949887733,0.0013251950426144,-0.001268804383601,0.0012688045426604,-0.0012688045419077,0.0012688043841358,0.0034324850488818,0.0032640009171427,0.76163470442827,0.68295176761864,1368840,32768,0.005388813229738,0.0053888132297719,0.0053888132299059,26.896306321868,26.907696152556,0.00013037045057494,0.00013037045057494,0.00013037045057494,309838.21549017,0.016297963702664
30894159,0.94082920114195,0.015813390872206,0.0052711302907208,0.0052711302906986,0.0052711302907862,-0.0012998637745813,0.0012998637768051,8.1711946579651e-11,-7.9478580160403e-11,-1.7930416943953e-13,2.4594217487067e-12,-0.0013281918387555,0.0013281918937806,-0.0013281918923623,0.0013281918401784,-0.001328191838008,0.0013281918944635,-0.0013281918916131,0.0013281918409858,-0.0012719092312289,0.0012719093921479,-0.0012719093891749,0.0012719092340182,6.3630673773653e-13,-1.9747268499208e-12,-5.2817074709917e-13,-7.4603306214322e-13,-0.0012998637764581,0.0012998637749063,-0.0013281918666551,0.0013281918660077,-0.0013281918665324,0.0013281918658709,-0.0013281918674601,0.0013281918650748,-0.0013281918674052,0.0013281918650593,-0.001271909312623,0.0012719093108899,-0.0012719093130894,0.0012719093105256,-0.0012719093110101,0.0012719093122616,-0.0012719093136873,0.0012719093098832,-8.0562331817239e-11,8.0665541752482e-11,-0.0012998637756451,0.0012998637758018,-4.2419851161489e-14,1.7665963258125e-13,-0.0013281918931078,0.0013281918394932,-0.0013281918928937,0.0013281918394921,-0.0013281918393663,0.0013281918933811,-0.0013281918392008,0.0013281918932514,-0.0012719092324654,0.0012719093908559,-0.0012719093903998,0.0012719092325307,0.0034452231375623,0.0032744272716473,0.76670816894811,0.76261207124399,1368840,32768,0.005401450273662,0.0054014502736161,0.0054014502737871,27.067750229181,27.079144560846,0.00013174200183344,0.00013174200183344,0.00013174200183344,298515.86387136,0.016336493649844
30980559,0.94267044031651,0.015844417670262,0.0052814725567396,0.0052814725567172,0.0052814725568052,-0.0013028469135483,0.0013028469158127,8.1752431166404e-11,-7.9494480851118e-11,-1.8537845446252e-13,2.4606531816755e-12,-0.0013311293425842,0.0013311293975395,-0.0013311293961502,0.0013311293438382,-0.0013311293414907,0.0013311293982467,-0.0013311293949299,0.0013311293445794,-0.0012749414692084,0.0012749416305075,-0.0012749416273856,0.0012749414729246,5.2652167982998e-13,-2.0909970626515e-12,-5.9292088667391e-13,-7.406561087584e-13,-0.0013028469155065,0.0013028469138581,-0.0013311293700206,0.0013311293697003,-0.0013311293701861,0.0013311293696227,-0.0013311293710084,0.0013311293688121,-0.0013311293710097,0.0013311293688097,-0.0012749415507621,0.0012749415497206,-0.0012749415513751,0.0012749415493759,-0.0012749415493203,0.0012749415507524,-0.0012749415523689,0.0012749415488092,-8.0599078224074e-11,8.0685355529538e-11,-0.0013028469146519,0.0013028469147873,2.2167852199097e-15,1.5140034541161e-13,-0.0013311293970554,0.0013311293433871,-0.0013311293967142,0.0013311293434332,-0.001331129343337,0.0013311293969034,-0.0013311293430542,0.0013311293969807,-0.0012749414712639,0.0012749416291339,-0.001274941629549,0.001274941471548,0.0034576843399572,0.0032846757050107,0.76882047796156,0.78017341857589,1368840,32768,0.0054138129946598,0.0054138129946673,0.0054138129948222,27.239193435477,27.250592969136,0.00013311354748381,0.00013311354748381,0.00013311354748381,288341.61239625,0.016374188584581
31066959,0.94447752784634,0.015874962932089,0.0052916543106818,0.0052916543106594,0.0052916543107479,-0.0013057177504822,0.0013057177527725,8.1750656338271e-11,-7.9468992041549e-11,-1.8181950436248e-13,2.4673500947365e-12,-0.0013340098916523,0.0013340099466169,-0.0013340099452692,0.0013340098930252,-0.0013340098908278,0.0013340099477309,-0.0013340099444365,0.0013340098938356,-0.0012778077041465,0.0012778078650663,-0.001277807861821,0.0012778077063684,5.8485166259493e-13,-2.0367946008525e-12,-5.7011767153177e-13,-7.5327734083548e-13,-0.0013057177524491,0.0013057177508422,-0.0013340099194734,0.0013340099190058,-0.0013340099195194,0.0013340099187201,-0.0013340099206589,0.0013340099180336,-0.001334009920473,0.0013340099178476,-0.0012778077862208,0.0012778077836975,-0.0012778077853052,0.0012778077829391,-0.0012778077834669,0.0012778077850346,-0.0012778077862757,0.0012778077827411,-8.0473265655797e-11,8.0783812551155e-11,-0.0013057177514652,0.0013057177517921,1.1989795484684e-13,3.0399962478484e-13,-0.0013340099462287,0.0013340098925935,-0.0013340099459269,0.0013340098926051,-0.001334009892317,0.001334009946384,-0.0013340098921516,0.0013340099463963,-0.00127780770454,0.0012778078633641,-0.0012778078622695,0.0012778077051049,0.0034696782498523,0.0032947610380717,0.77109406330176,0.79773476590778,1368840,32768,0.0054257101145184,0.0054257101145942,0.0054257101145239,27.434754888919,27.447710337596,0.00013467803911135,0.00013467803911135,0.00013467803911135,283592.49000085,0.016410465265579
31153359,0.94625512560395,0.0159053108663,0.0053017702887521,0.00530177028873,0.0053017702888182,-0.0013086627690109,0.0013086627712243,8.1755507837119e-11,-7.9483359484986e-11,-1.7686636155994e-13,2.4277950089996e-12,-0.0013369560152302,0.0013369560701382,-0.0013369560687984,0.0013369560165349,-0.0013369560143721,0.0013369560710013,-0.0013369560679316,0.0013369560173002,-0.0012807621530762,0.0012807623137174,-0.0012807623107864,0.0012807621558746,5.237316474165e-13,-2.05325015697e-12,-5.4020132074987e-13,-7.2281603611331e-13,-0.0013086627708958,0.0013086627693271,-0.0013369560429342,0.0013369560423817,-0.0013369560429297,0.0013369560421927,-0.0013369560438244,0.0013369560414596,-0.0013369560437882,0.0013369560414023,-0.0012807622344287,0.0012807622326909,-0.0012807622345976,0.001280762232206,-0.0012807622326739,0.0012807622341107,-0.0012807622356354,0.0012807622312898,-8.0568165874307e-11,8.0708031895614e-11,-0.001308662770065,0.0013086627702055,-4.7456726700163e-14,1.3618813366365e-13,-0.0013369560696218,0.0013369560160182,-0.0013369560693927,0.0013369560158025,-0.0013369560158824,0.0013369560696574,-0.0013369560156377,0.0013369560696437,-0.0012807621545216,0.0012807623126082,-0.0012807623121638,0.0012807621545992,0.0034819782012958,0.0033047667300356,0.77883841848353,0.89985338750549,1368840,32768,0.0054379145578806,0.0054379145578549,0.0054379145579538,27.677319110338,27.693350959296,0.0001366185528827,0.0001366185528827,0.0001366185528827,278387.58260546,0.01644768016224
31239759,0.94800299043479,0.015935273062834,0.0053117576875969,0.0053117576875746,0.0053117576876629,-0.0013117279462995,0.0013117279484605,8.1750902213112e-11,-7.958292326691e-11,-1.6911324547114e-13,2.33875714081e-12,-0.0013399473224169,0.0013399473774276,-0.0013399473760963,0.0013399473237923,-0.0013399473214686,0.0013399473781441,-0.0013399473752225,0.0013399473244853,-0.0012839091648197,0.0012839093263531,-0.001283909322943,0.0012839091677669,4.9186979724474e-13,-1.9878122148778e-12,-6.2526604561033e-13,-8.1096634318194e-13,-0.0013117279481675,0.0013117279465774,-0.0013399473502513,0.0013399473496585,-0.0013399473500528,0.0013399473495179,-0.0013399473508276,0.0013399473486865,-0.0013399473510478,0.0013399473486544,-0.0012839092471261,0.0012839092442461,-0.0012839092471313,0.0012839092443336,-0.0012839092452127,0.001283909245875,-0.0012839092474208,0.0012839092437635,-8.0578805549272e-11,8.0792513255943e-11,-0.0013117279473092,0.0013117279474875,-5.2598157868264e-14,1.3378406004762e-13,-0.0013399473767983,0.0013399473230763,-0.0013399473765458,0.0013399473229835,-0.0013399473230637,0.0013399473769774,-0.001339947322696,0.0013399473768127,-0.001283909166019,0.0012839093249882,-0.0012839093247183,0.0012839091667542,0.0034947778001552,0.0033146416943134,0.78195933651951,0.89946767954189,1368840,32768,0.0054506168820601,0.0054506168820287,0.005450616882136,27.922667218934,27.938991580997,0.00013858133775147,0.00013858133775147,0.00013858133775147,266705.26187931,0.016486414488955
31326159,0.94972063421056,0.015964633628924,0.0053215445429602,0.0053215445429379,0.0053215445430263,-0.0013145711906528,0.0013145711927767,8.1722083034695e-11,-7.9616851583365e-11,-2.0579936002964e-13,2.3066402984281e-12,-0.0013428046728863,0.0013428047279584,-0.0013428047265482,0.0013428046741938,-0.0013428046721415,0.0013428047287732,-0.0013428047259015,0.0013428046749973,-0.0012867435989497,0.001286743759407,-0.0012867437570588,0.0012867436018709,5.1409135368556e-13,-1.9710981372461e-12,-5.0596766068233e-13,-7.2241372487424e-13,-0.0013145711924386,0.0013145711909628,-0.0013428047007872,0.0013428047001654,-0.0013428047006591,0.001342804700191,-0.0013428047013605,0.0013428046995283,-0.0013428047015148,0.0013428046995342,-0.001286743680594,0.0012867436780525,-0.0012867436808748,0.0012867436780142,-0.0012867436784313,0.0012867436798974,-0.0012867436814377,0.0012867436774906,-8.0597183811358e-11,8.0779178516251e-11,-0.0013145711916385,0.001314571191809,-5.4582832531933e-14,1.63039872185e-13,-0.0013428047274604,0.0013428046736505,-0.0013428047271272,0.0013428046736517,-0.0013428046734851,0.0013428047274696,-0.0013428046734798,0.0013428047274694,-0.0012867436004211,0.0012867437582246,-0.0012867437580223,0.0012867436001472,0.003506657286889,0.0033243247517351,0.77956295862092,0.82716983017635,1368840,32768,0.0054623992330962,0.005462399233038,0.0054623992331335,28.168263587416,28.184632202698,0.00014054610869932,0.00014054610869932,0.00014054610869932,262959.58073052,0.01652234507449
31412559,0.95140757441185,0.015993336914528,0.0053311123048279,0.0053311123048056,0.005331112304894,-0.0013172363300345,0.0013172363321541,8.1725705453444e-11,-7.9625995009922e-11,-1.8880323219086e-13,2.3017446244582e-12,-0.00134554840407,0.0013455484590733,-0.0013455484576409,0.0013455484054183,-0.0013455484032615,0.0013455484598242,-0.0013455484568601,0.0013455484060721,-0.0012893348504927,0.0012893350122567,-0.0012893350100418,0.0012893348549655,5.3426409036348e-13,-1.9288881914368e-12,-5.326941677353e-13,-6.9323693973441e-13,-0.0013172363318455,0.0013172363303364,-0.0013455484317375,0.001345548431215,-0.0013455484318019,0.0013455484311732,-0.0013455484324231,0.0013455484304275,-0.0013455484326105,0.0013455484303478,-0.0012893349325974,0.0012893349309008,-0.0012893349323092,0.0012893349322498,-0.0012893349315717,0.0012893349322648,-0.0012893349342631,0.0012893349298005,-8.0576319919324e-11,8.0812220712717e-11,-0.0013172363310062,0.0013172363312196,6.3946281779104e-15,1.6752864682072e-13,-0.0013455484582348,0.0013455484047995,-0.0013455484582043,0.0013455484047464,-0.0013455484045898,0.0013455484585549,-0.0013455484045089,0.0013455484585734,-0.0012893348534912,0.0012893350106528,-0.0012893350118496,0.0012893348527791,0.0035177968908603,0.0033337985344145,0.77589703401836,0.7616010708239,1368840,32768,0.0054734433073497,0.0054734433073358,0.0054734433074268,28.413884671217,28.430272824398,0.00014251107736973,0.00014251107736973,0.00014251107736973,265044.29186233,0.016556025623833
31498959,0.95306336172806,0.016021343767225,0.0053404479223937,0.0053404479223715,0.0053404479224596,-0.0013198459702592,0.0013198459724598,8.1780726007898e-11,-7.9581398960536e-11,-1.4194501661835e-13,2.411291748457e-12,-0.0013482434191158,0.0013482434741416,-0.0013482434727823,0.0013482434204627,-0.0013482434182626,0.0013482434749208,-0.0013482434719317,0.00134824342123,-0.0012918623621072,0.0012918625231301,-0.0012918625201226,0.0012918623651432,5.0915771028733e-13,-2.0162045828046e-12,-5.510913410084e-13,-6.9675565576946e-13,-0.0013198459721263,0.0013198459705799,-0.0013482434469429,0.0013482434463285,-0.0013482434468628,0.0013482434462482,-0.0013482434476877,0.0013482434454857,-0.0013482434477617,0.0013482434454893,-0.0012918624436742,0.0012918624417183,-0.0012918624437258,0.0012918624415221,-0.0012918624420697,0.0012918624430371,-0.0012918624447429,0.0012918624405796,-8.0623110019331e-11,8.0776153020443e-11,-0.001319845971301,0.0013198459714523,-5.9613178858306e-15,1.4106307297289e-13,-0.0013482434735565,0.001348243419904,-0.0013482434733555,0.0013482434197593,-0.0013482434197652,0.0013482434736722,-0.0013482434195709,0.0013482434735872,-0.0012918623634718,0.0012918625217078,-0.0012918625215038,0.0012918623635925,0.0035287070190359,0.0033430508586869,0.77129402210682,0.69603231147141,1368840,32768,0.0054842572662034,0.0054842572661769,0.0054842572662745,28.659509092663,28.675913446099,0.0001444760727413,0.0001444760727413,0.0001444760727413,267549.34898085,0.016589005555017
31585359,0.95468758342001,0.016048634321036,0.0053495447736642,0.005349544773642,0.0053495447737302,-0.0013223881285618,0.0013223881306896,8.1731384338782e-11,-7.9581113851598e-11,-2.2626461718302e-13,2.3888661394263e-12,-0.0013508777368949,0.0013508777918065,-0.0013508777906048,0.0013508777381488,-0.0013508777358171,0.0013508777926115,-0.0013508777894392,0.0013508777386559,-0.0012943123341573,0.0012943124949914,-0.0012943124911129,0.0012943123379009,5.0224089217961e-13,-2.086352145727e-12,-5.34402262613e-13,-6.7511772855799e-13,-0.0013223881304186,0.0013223881288533,-0.0013508777647175,0.0013508777643797,-0.001350877764607,0.001350877764051,-0.0013508777652822,0.0013508777637165,-0.0013508777657772,0.0013508777633385,-0.0012943124160424,0.0012943124145758,-0.0012943124156925,0.001294312413874,-0.001294312415028,0.0012943124158567,-0.0012943124167037,0.0012943124134408,-8.0639683218913e-11,8.0709887133055e-11,-0.0013223881295805,0.0013223881297299,1.2380592369637e-14,1.5409738066609e-13,-0.0013508777913187,0.0013508777377261,-0.0013508777909124,0.0013508777376611,-0.0013508777377685,0.0013508777914308,-0.0013508777371629,0.0013508777913798,-0.0012943123360101,0.0012943124939805,-0.001294312494149,0.0012943123371604,0.0035393383329855,0.003352075358277,0.76615708235031,0.63046355211894,1368840,32768,0.0054947914455931,0.0054947914456355,0.0054947914457152,28.905134732083,28.9215540678,0.00014644107785666,0.00014644107785666,0.00014644107785666,270771.90109111,0.016621133363726
31671759,0.95627986258577,0.016075196945735,0.0053583989818971,0.0053583989818753,0.0053583989819629,-0.0013248617048098,0.0013248617068904,8.1625634628186e-11,-7.9649240476259e-11,-1.9024101179709e-13,2.4586024207955e-12,-0.0013534541511334,0.0013534542060343,-0.0013534542046877,0.0013534541522399,-0.0013534541502069,0.0013534542064771,-0.0013534542037684,0.0013534541526014,-0.0012966806035697,0.001296680764164,-0.0012966807623438,0.0012966806071732,6.0812515748799e-13,-2.0103627024465e-12,-6.1482454106171e-13,-7.1955931207459e-13,-0.0013248617067347,0.0013248617050727,-0.0013534541789302,0.0013534541782893,-0.0013534541788335,0.0013534541779562,-0.0013534541796657,0.001353454177224,-0.001353454179806,0.0013534541773531,-0.0012966806860346,0.0012966806833054,-0.0012966806850707,0.0012966806830362,-0.0012966806843458,0.0012966806850415,-0.0012966806856921,0.0012966806825706,-8.0712422996763e-11,8.0598835260908e-11,-0.0013248617059498,0.0013248617058748,-1.3915918995874e-13,-3.2997756647067e-14,-0.0013534542055495,0.0013534541515503,-0.0013534542052444,0.001353454151687,-0.001353454151253,0.0013534542052681,-0.0013534541514024,0.0013534542053106,-0.0012966806054655,0.0012966807626398,-0.001296680763268,0.0012966806047452,0.0035496867517552,0.0033608681334597,0.76067235905284,0.56489479276648,1368840,32768,0.0055050412946926,0.0055050412949148,0.0055050412949502,29.150761127974,29.167194689501,0.00014840608902379,0.00014840608902379,0.00014840608902379,274725.71901374,0.016652395108469
31758159,0.95782787454573,0.016100816810352,0.0053669389367688,0.0053669389367479,0.0053669389368353,-0.001326988927994,0.0013269889302146,8.1726911710711e-11,-7.9551922919832e-11,-1.847821785607e-13,2.4982035639489e-12,-0.0013556981338597,0.0013556981888865,-0.0013556981875725,0.0013556981353439,-0.001355698132981,0.0013556981897431,-0.0013556981866417,0.0013556981358607,-0.0012986870570435,0.0012986872177464,-0.0012986872148851,0.0012986870602364,5.453654571067e-13,-2.1091643900051e-12,-6.229173526554e-13,-7.2452442509967e-13,-0.0013269889299428,0.0013269889282778,-0.0013556981617777,0.0013556981611276,-0.0013556981617484,0.001355698160972,-0.0013556981626373,0.0013556981601657,-0.0013556981627615,0.0013556981603273,-0.0012986871384746,0.0012986871363432,-0.0012986871380243,0.0012986871362377,-0.0012986871370841,0.0012986871380678,-0.0012986871390511,0.0012986871357088,-8.0614415461414e-11,8.0701074608154e-11,-0.001326988929097,0.0013269889291651,-3.817430438944e-14,6.4986220597922e-14,-0.0013556981883556,0.0013556981346471,-0.0013556981880628,0.0013556981345711,-0.0013556981345953,0.0013556981883652,-0.0013556981344461,0.001355698188351,-0.0012986870584758,0.0012986872161207,-0.0012986872160048,0.001298687058321,0.0035585877955073,0.0033693580808697,0.75463611512579,0.49471044591856,1368840,32768,0.0055138557968697,0.0055138557968946,0.0055138557969806,29.26197867984,29.269729747477,0.00014929582943872,0.00014929582943872,0.00014929582943872,279565.99342876,0.016679280109197
31844559,0.95932371168367,0.016125774515249,0.0053752581717344,0.0053752581717138,0.0053752581718011,-0.0013288483229479,0.0013288483251992,8.1769074893243e-11,-7.9519513086401e-11,-1.9718403498661e-13,2.4867993241053e-12,-0.0013576786722691,0.0013576787272939,-0.0013576787258802,0.0013576786736612,-0.0013576786713525,0.001357678728111,-0.0013576787250011,0.0013576786745034,-0.0013004280096533,0.0013004281707461,-0.0013004281676183,0.0013004280127,5.4872779556604e-13,-2.107493323408e-12,-5.9729851764617e-13,-7.087501422873e-13,-0.001328848324875,0.0013288483232623,-0.001357678700119,0.0013576786994858,-0.0013576787000035,0.0013576786994233,-0.0013576787009046,0.0013576786985387,-0.001357678700978,0.0013576786986022,-0.0013004280912871,0.0013004280892527,-0.0013004280913085,0.0013004280890351,-0.0013004280896499,0.0013004280906447,-0.0013004280922734,0.0013004280881877,-8.0584660076303e-11,8.0740626723394e-11,-0.0013288483240209,0.0013288483241622,1.1560558597576e-14,1.2448284419338e-13,-0.0013576787266965,0.0013576786730592,-0.0013576787265234,0.001357678672883,-0.0013576786729047,0.0013576787267766,-0.001357678672747,0.0013576787266941,-0.001300428011073,0.0013004281693338,-0.0013004281690444,0.0013004280111761,0.0035663601487584,0.0033776165935851,0.76090970276479,0.61480178652261,1368840,32768,0.0055215604540368,0.0055215604540164,0.0055215604541115,29.272651722487,29.273612001888,0.00014938121377989,0.00014938121377989,0.00014938121377989,284861.51282442,0.016702780492336
31930959,0.96076846804762,0.016150161585408,0.0053833871951207,0.0053833871951,0.0053833871951873,-0.0013310808904861,0.0013310808927213,8.1778951885626e-11,-7.954228192024e-11,-1.7818855646191e-13,2.4724655855206e-12,-0.0013598059594845,0.001359806014525,-0.0013598060131507,0.0013598059608646,-0.0013598059586154,0.0013598060153452,-0.0013598060122716,0.0013598059616732,-0.0013027678284858,0.0013027679894803,-0.0013027679864508,0.0013027678315142,5.4394085356853e-13,-2.0788430221844e-12,-5.8920538253295e-13,-7.1537570458681e-13,-0.0013310808923971,0.0013310808908002,-0.0013598059873327,0.0013598059867036,-0.0013598059872425,0.0013598059866274,-0.0013598059881199,0.0013598059858183,-0.0013598059881961,0.0013598059858301,-0.0013027679100734,0.0013027679080494,-0.0013027679102121,0.0013027679079303,-0.0013027679084843,0.0013027679094934,-0.0013027679110894,0.0013027679069911,-8.0607345089174e-11,8.0750825647118e-11,-0.0013310808915506,0.0013310808916897,1.8748839000544e-15,1.2948519137511e-13,-0.0013598060139339,0.0013598059602748,-0.0013598060137377,0.0013598059601337,-0.0013598059601374,0.00135980601404,-0.0013598059599493,0.0013598060139289,-0.001302767829963,0.0013027679881926,-0.0013027679878974,0.001302767830021,0.0035756796180582,0.0033856700635788,0.76997943211229,0.77437914423602,1368840,32768,0.0055308116503612,0.0055308116503404,0.0055308116504293,29.277165131027,29.277494256299,0.00014941732104821,0.00014941732104821,0.00014941732104821,271483.39221367,0.016730997988965
32017359,0.96216371999852,0.016173788170006,0.0053912627233201,0.0053912627232994,0.0053912627233867,-0.0013333041736717,0.001333304175896,8.1775111885288e-11,-7.9546046393473e-11,-1.8435136819225e-13,2.4601996661184e-12,-0.0013618946094835,0.0013618946644812,-0.0013618946631477,0.0013618946108311,-0.0013618946086048,0.00136189466531,-0.0013618946622676,0.0013618946116574,-0.0013051274214771,0.0013051275825106,-0.0013051275793924,0.0013051274245211,5.4567709464521e-13,-2.0710637892464e-12,-5.7773249772759e-13,-7.0528063063145e-13,-0.0013333041755694,0.0013333041739882,-0.0013618946373255,0.0013618946367004,-0.0013618946372292,0.0013618946365991,-0.0013618946380864,0.0013618946358007,-0.001361894638169,0.001361894635825,-0.0013051275030625,0.001305127501028,-0.0013051275031273,0.0013051275008423,-0.0013051275014675,0.0013051275024872,-0.0013051275040765,0.0013051274999658,-8.0612369347451e-11,8.0745852387283e-11,-0.0013333041747336,0.0013333041748698,6.2233392930212e-16,1.2956610066809e-13,-0.0013618946639343,0.0013618946102602,-0.0013618946637347,0.0013618946101318,-0.0013618946101304,0.0013618946640354,-0.0013618946099573,0.0013618946639134,-0.0013051274228926,0.0013051275811321,-0.0013051275808442,0.0013051274230382,0.0035849578025678,0.0033934683645619,0.7723102768378,0.79558498269994,1368840,32768,0.0055400243330334,0.0055400243330127,0.0055400243331076,29.281109779337,29.28137651071,0.0001494488782347,0.0001494488782347,0.0001494488782347,256215.24546771,0.016759098676544
32103759,0.96351104377434,0.016196692166728,0.0053988973888941,0.0053988973888735,0.0053988973889607,-0.0013351969276188,0.0013351969298471,8.1780474192061e-11,-7.9545552761495e-11,-1.7975186164519e-13,2.458206138784e-12,-0.0013637817307389,0.0013637817857537,-0.0013637817843997,0.0013637817320988,-0.0013637817298771,0.0013637817865943,-0.0013637817835308,0.0013637817329265,-0.001307030413727,0.0013070305747359,-0.0013070305715887,0.0013070304168168,5.4936830541066e-13,-2.0608192786798e-12,-5.7259606640675e-13,-7.0081929633391e-13,-0.0013351969295171,0.0013351969279417,-0.0013637817585907,0.0013637817579762,-0.0013637817584842,0.0013637817578744,-0.00136378175937,0.00136378175708,-0.0013637817594397,0.0013637817570868,-0.0013070304952645,0.0013070304932786,-0.0013070304953691,0.0013070304931031,-0.0013070304936957,0.0013070304947143,-0.0013070304962957,0.0013070304922698,-8.0614740569129e-11,8.0748382339406e-11,-0.0013351969286845,0.0013351969288191,-1.8305911355209e-15,1.2782659498527e-13,-0.0013637817851972,0.0013637817315339,-0.0013637817850119,0.0013637817314091,-0.0013637817313951,0.001363781785304,-0.0013637817312244,0.0013637817851874,-0.0013070304151193,0.0013070305733144,-0.0013070305730929,0.0013070304153044,0.003592857913771,0.0034010237360744,0.77518019493,0.82116256722959,1368840,32768,0.005547867195296,0.0055478671952812,0.0055478671953741,29.284998328192,29.28525876512,0.00014947998662553,0.00014947998662553,0.00014947998662553,251941.18678322,0.016783021971293
32190159,0.96481197546536,0.016218903540405,0.0054063011801195,0.0054063011800989,0.0054063011801862,-0.0013370412621097,0.0013370412643305,8.1778977237792e-11,-7.9550673663878e-11,-1.7825890725392e-13,2.4481949152082e-12,-0.0013656148085475,0.0013656148635681,-0.0013656148622075,0.0013656148099031,-0.001365614807678,0.0013656148643879,-0.0013656148613295,0.0013656148107157,-0.0013088914261928,0.0013088915872165,-0.0013088915841114,0.0013088914292868,5.3733134960199e-13,-2.0613143812018e-12,-5.6822384703387e-13,-6.9843225160943e-13,-0.001337041264002,0.0013370412624278,-0.0013656148363895,0.001365614835768,-0.0013656148362961,0.0013656148356747,-0.001365614837161,0.0013656148348818,-0.0013656148372367,0.0013656148348957,-0.0013088915077442,0.0013088915057735,-0.0013088915078288,0.001308891505587,-0.0013088915061883,0.0013088915072049,-0.001308891508783,0.0013088915047151,-8.0618513924444e-11,8.0748238755557e-11,-0.001337041263168,0.0013370412633055,-3.2331365240161e-16,1.3130287114036e-13,-0.0013656148629964,0.0013656148093272,-0.0013656148627947,0.0013656148091982,-0.0013656148091904,0.0013656148630959,-0.0013656148090167,0.0013656148629938,-0.0013088914276174,0.0013088915857966,-0.0013088915855865,0.0013088914277757,0.0036005538387242,0.0034083459661301,0.77852311232896,0.84903422868965,1368840,32768,0.0055555093842655,0.005555509384244,0.0055555093843346,29.288881262297,29.289141019532,0.00014951105009837,0.00014951105009837,0.00014951105009837,247353.87064834,0.016806333625416
32276559,0.96606801124292,0.016240449934716,0.0054134833115567,0.0054134833115361,0.0054134833116234,-0.0013388353780643,0.0013388353802819,8.1777793332783e-11,-7.9551492050642e-11,-1.7431596888445e-13,2.4408344930052e-12,-0.0013673929286329,0.0013673929836509,-0.0013673929822918,0.001367392929988,-0.0013673929277656,0.001367392984467,-0.0013673929814147,0.001367392930798,-0.0013107073499324,0.0013107075109472,-0.0013107075078627,0.0013107073530194,5.3497142169617e-13,-2.0523719485046e-12,-5.662034675786e-13,-6.9927493174848e-13,-0.0013388353799529,0.001338835378383,-0.0013673929564733,0.0013673929558541,-0.0013673929563813,0.0013673929557589,-0.001367392957241,0.0013673929549705,-0.0013673929573179,0.0013673929549834,-0.0013107074314889,0.0013107074295018,-0.001310707431565,0.0013107074293187,-0.0013107074299211,0.001310707430938,-0.00131070743251,0.0013107074284612,-8.0616907679396e-11,8.0749503481627e-11,-0.0013388353791202,0.0013388353792593,-1.3121657965886e-15,1.3316399075502e-13,-0.0013673929830793,0.0013673929294111,-0.0013673929828763,0.0013673929292847,-0.0013673929292757,0.0013673929831794,-0.0013673929291003,0.0013673929830779,-0.0013107073513478,0.0013107075095271,-0.0013107075093151,0.0013107073514946,0.0036080381897607,0.003415444336347,0.78218355317893,0.87690589014973,1368840,32768,0.0055629434462716,0.0055629434462502,0.0055629434463407,29.292763638534,29.293023273943,0.00014954210910827,0.00014954210910827,0.00014954210910827,242601.75656838,0.016829010865549
32362959,0.96728060578298,0.016261356101405,0.0054204520337864,0.0054204520337658,0.0054204520338531,-0.0013405769781346,0.0013405769803478,8.1773880687606e-11,-7.9554846242291e-11,-1.698759868758e-13,2.434650328986e-12,-0.0013691158478618,0.0013691159028801,-0.0013691159015212,0.0013691158492151,-0.0013691158469968,0.0013691159036894,-0.0013691159006484,0.0013691158500203,-0.0013124738566958,0.001312474017675,-0.0013124740146149,0.0013124738597585,5.3056973263533e-13,-2.0461572560062e-12,-5.6426902667445e-13,-6.9652830977355e-13,-0.0013405769800189,0.0013405769784531,-0.0013691158757011,0.0013691158750824,-0.001369115875609,0.0013691158749882,-0.001369115876463,0.0013691158742027,-0.0013691158765415,0.0013691158742159,-0.0013124739382154,0.0013124739362544,-0.0013124739383073,0.0013124739360614,-0.0013124739366825,0.0013124739376823,-0.0013124739392536,0.0013124739352019,-8.0617276021085e-11,8.0748594450573e-11,-0.0013405769791883,0.0013405769793274,2.7416809494113e-16,1.3393946706475e-13,-0.0013691159023078,0.0013691158486395,-0.0013691159021041,0.001369115848511,-0.0013691158485037,0.0013691159024087,-0.0013691158483286,0.0013691159023066,-0.001312473858103,0.0013124740162734,-0.0013124740160444,0.0013124738582352,0.0036153014908277,0.0034223272326299,0.78610336637275,0.90477755160981,1368840,32768,0.0055701598639532,0.0055701598639316,0.0055701598640222,29.296645965134,29.296905528353,0.00014957316772107,0.00014957316772107,0.00014957316772107,237859.4813909,0.016851024622179
32449359,0.96845117290834,0.016281519336023,0.0054271731119925,0.0054271731119718,0.0054271731120591,-0.0013422579621445,0.0013422579643548,8.1772381086359e-11,-7.9556358490211e-11,-1.7077243007831e-13,2.429655952149e-12,-0.0013707789530465,0.0013707790080661,-0.0013707790067085,0.001370778954396,-0.0013707789521827,0.0013707790088758,-0.0013707790058343,0.001370778955209,-0.0013141766211236,0.0013141767821272,-0.0013141767790214,0.0013141766241912,5.2719374753407e-13,-2.0454453954002e-12,-5.5683243032795e-13,-7.0311484385357e-13,-0.0013422579640275,0.0013422579624615,-0.0013707789808893,0.0013707789802744,-0.001370778980791,0.0013707789801742,-0.0013707789816531,0.0013707789793925,-0.0013707789817324,0.0013707789794009,-0.0013141767026491,0.0013141767006617,-0.0013141767027983,0.0013141767004967,-0.0013141767011196,0.0013141767020794,-0.0013141767036854,0.0013141766996669,-8.0611372083799e-11,8.0754540268933e-11,-0.0013422579631941,0.0013422579633387,-9.1278976195816e-15,1.3849397498648e-13,-0.0013707790074977,0.0013707789538308,-0.0013707790072899,0.001370778953711,-0.0013707789536904,0.0013707790075996,-0.0013707789535107,0.0013707790075033,-0.0013141766225178,0.0013141767807138,-0.0013141767804792,0.0013141766227008,0.0036223124398814,0.0034289670805327,0.78530347397582,0.85950702910854,1368840,32768,0.0055771250575637,0.0055771250575425,0.005577125057633,29.3005281852,29.300787782764,0.0001496042254816,0.0001496042254816,0.0001496042254816,233327.44396881,0.01687227250119
32535759,0.96957999150041,0.016300808288183,0.0054336027627123,0.0054336027626917,0.0054336027627789,-0.0013437130171741,0.0013437130193848,8.1771966099037e-11,-7.9553146411867e-11,-1.7205427327182e-13,2.4287863316565e-12,-0.001372281473703,0.0013722815287134,-0.0013722815273579,0.0013722814750568,-0.0013722814728361,0.001372281529526,-0.0013722815264826,0.0013722814758578,-0.0013155866096811,0.0013155867706602,-0.0013155867675688,0.0013155866127439,5.2647121078354e-13,-2.0465943014783e-12,-5.5832220834566e-13,-6.9270286781464e-13,-0.0013437130190558,0.001343713017494,-0.0013722815015372,0.001372281500925,-0.0013722815014453,0.0013722815008315,-0.0013722815023013,0.0013722815000482,-0.0013722815023763,0.0013722815000635,-0.001315586691198,0.0013155866892333,-0.0013155866912752,0.0013155866890616,-0.0013155866896583,0.0013155866906472,-0.0013155866922163,0.0013155866881963,-8.0613285084182e-11,8.0748940028251e-11,-0.0013437130182271,0.0013437130183652,-4.3442496390967e-15,1.3143774937286e-13,-0.0013722815281461,0.0013722814744784,-0.0013722815279392,0.0013722814743528,-0.0013722814743436,0.0013722815282446,-0.0013722814741665,0.0013722815281404,-0.0013155866110792,0.0013155867692441,-0.0013155867690205,0.0013155866112433,0.0036283835022271,0.0034353263584869,0.7789056173218,0.75524920462625,1368840,32768,0.0055831539765525,0.0055831539765339,0.0055831539766218,29.287474972041,29.286640413834,0.00014949979977633,0.00014949979977633,0.00014949979977633,233872.67384015,0.016890664802303
32622159,0.97066778496567,0.016319213417602,0.0054397378058519,0.0054397378058313,0.0054397378059186,-0.0013449599430784,0.0013449599452822,8.1764099692291e-11,-7.9553900388833e-11,-1.7678130533482e-13,2.4268286855789e-12,-0.0013736357325267,0.0013736357875106,-0.001373635786162,0.0013736357338123,-0.0013736357316579,0.001373635788285,-0.0013736357853267,0.0013736357346236,-0.0013167279927171,0.0013167281535646,-0.0013167281506213,0.0013167279957314,5.3254999566907e-13,-2.0434625147993e-12,-5.5876116552406e-13,-7.0588328869124e-13,-0.0013449599449607,0.0013449599433886,-0.0013736357602773,0.0013736357596565,-0.0013736357602629,0.0013736357595763,-0.0013736357611484,0.0013736357588455,-0.001373635761155,0.001373635758856,-0.0013167280742615,0.001316728072237,-0.001316728074409,0.0013167280721303,-0.0013167280726921,0.001316728073664,-0.0013167280753225,0.0013167280712122,-8.062823621567e-11,8.0726812410117e-11,-0.0013449599441383,0.0013449599442534,-1.4066099702074e-14,1.34481126988e-13,-0.00137363578695,0.0013736357332746,-0.0013736357867491,0.0013736357330956,-0.0013736357331456,0.0013736357870022,-0.0013736357329933,0.0013736357869306,-0.0013167279941646,0.001316728152314,-0.0013167281521073,0.0013167279942977,0.0036335874381872,0.0034414022900264,0.77116712846725,0.65099138014396,1368840,32768,0.0055883204079906,0.0055883204079673,0.0055883204080553,29.262762827333,29.261137910749,0.00014930210261866,0.00014930210261866,0.00014930210261866,239200.3988915,0.016906426413375
32708559,0.97171599141787,0.016336754882337,0.0054455849607635,0.0054455849607429,0.0054455849608301,-0.0013461145133861,0.0013461145155932,8.1767535057931e-11,-7.9548451790578e-11,-1.6485925778049e-13,2.4222485902036e-12,-0.0013749158263107,0.0013749158813248,-0.0013749158799675,0.0013749158276616,-0.0013749158254546,0.0013749158821318,-0.0013749158791035,0.0013749158284636,-0.0013177571006198,0.0013177572615836,-0.0013177572585042,0.001317757103665,5.2396055218832e-13,-2.0352642358394e-12,-5.5961158072093e-13,-6.9559598531424e-13,-0.0013461145152652,0.0013461145137037,-0.0013749158541486,0.0013749158535266,-0.0013749158540594,0.0013749158534317,-0.0013749158549078,0.0013749158526542,-0.0013749158549845,0.0013749158526665,-0.0013177571821275,0.0013177571801857,-0.0013177571822268,0.0013177571799908,-0.0013177571805958,0.0013177571815954,-0.0013177571831663,0.001317757179129,-8.061083839422e-11,8.0742003093111e-11,-0.0013461145144373,0.0013461145145753,-4.8830567083224e-15,1.3249504060275e-13,-0.0013749158807517,0.0013749158270857,-0.0013749158805484,0.0013749158269573,-0.0013749158269507,0.0013749158808532,-0.0013749158267762,0.0013749158807525,-0.0013177571020148,0.0013177572601859,-0.0013177572599515,0.0013177571021766,0.0036384076893932,0.0034472013656652,0.76270992725578,0.54673355566168,1368840,32768,0.005593104116376,0.0055931041163545,0.0055931041164451,29.237333941149,29.235635407664,0.00014909867152919,0.00014909867152919,0.00014909867152919,245751.14824186,0.016921020773789
32794959,0.9727260424123,0.016353461308103,0.0054511537693522,0.0054511537693316,0.0054511537694188,-0.0013471783770865,0.0013471783792887,8.1764158690489e-11,-7.9550004801958e-11,-1.6335259792556e-13,2.4111079305431e-12,-0.0013761201686682,0.0013761202236802,-0.0013761202223226,0.0013761201700218,-0.0013761201678166,0.0013761202244837,-0.001376120221461,0.0013761201708183,-0.0013186778810472,0.0013186780420313,-0.0013186780389569,0.0013186778841025,5.1902011487999e-13,-2.0275131785112e-12,-5.5378702336304e-13,-7.0006340766108e-13,-0.0013471783789632,0.0013471783774016,-0.0013761201965066,0.0013761201958843,-0.0013761201964194,0.0013761201957853,-0.0013761201972622,0.0013761201950157,-0.0013761201973439,0.0013761201950252,-0.0013186779625391,0.0013186779606072,-0.0013186779626428,0.0013186779604065,-0.001318677961036,0.0013186779620268,-0.0013186779635973,0.0013186779595882,-8.0607797957692e-11,8.0743034620422e-11,-0.0013471783781332,0.0013471783782753,-5.8403509930508e-15,1.4178722732106e-13,-0.0013761202231096,0.0013761201694455,-0.0013761202229027,0.0013761201693223,-0.0013761201693094,0.001376120223207,-0.0013761201691316,0.0013761202231105,-0.0013186778824349,0.0013186780406209,-0.0013186780403998,0.0013186778826093,0.0036428515460965,0.0034527326668815,0.75382688026199,0.44247573117939,1368840,32768,0.0055975119315265,0.0055975119315052,0.0055975119315955,29.211838668821,29.210132904579,0.00014889470935057,0.00014889470935057,0.00014889470935057,253488.58895881,0.016934468682889
32881359,0.97369932367344,0.016369601511023,0.0054565338369925,0.0054565338369719,0.0054565338370591,-0.0013481717518981,0.0013481717540975,8.176300466692e-11,-7.9552198970222e-11,-1.6203199121036e-13,2.4070304668715e-12,-0.0013772646443023,0.0013772646993145,-0.001377264697956,0.0013772646456535,-0.0013772646434504,0.0013772647001141,-0.0013772646970949,0.0013772646464472,-0.0013195203386458,0.0013195204996344,-0.0013195204965502,0.001319520341706,5.1464710141373e-13,-2.0264089181279e-12,-5.5897212966748e-13,-7.0343333412391e-13,-0.0013481717537752,0.00134817175221,-0.0013772646721406,0.0013772646715151,-0.0013772646720541,0.0013772646714171,-0.0013772646728936,0.001377264670649,-0.0013772646729761,0.0013772646706576,-0.0013195204201585,0.0013195204182079,-0.0013195204202581,0.0013195204180173,-0.0013195204186357,0.0013195204195994,-0.0013195204211819,0.0013195204171794,-8.0608297471844e-11,8.0743425520245e-11,-0.0013481717529436,0.0013481717530853,-6.1329597011145e-15,1.3968064461689e-13,-0.0013772646987433,0.0013772646450773,-0.0013772646985367,0.001377264644955,-0.0013772646449427,0.001377264698842,-0.0013772646447645,0.0013772646987448,-0.0013195203400273,0.0013195204982125,-0.0013195204980017,0.0013195203402155,0.003646998655105,0.0034580730756999,0.75592490005512,0.50035964336699,1368840,32768,0.0056016276699387,0.0056016276699172,0.0056016276700078,29.186336838445,29.184630401494,0.00014869069470756,0.00014869069470756,0.00014869069470756,262107.52295472,0.016947025637225
32967759,0.97463717304111,0.01638519147335,0.0054617304911014,0.0054617304910808,0.0054617304911681,-0.0013495042287768,0.0013495042310596,8.1801237851864e-11,-7.9516184364561e-11,-1.2072719422003e-13,2.4414742969891e-12,-0.0013785567345431,0.0013785567895626,-0.0013785567881212,0.0013785567359163,-0.0013785567336331,0.0013785567902748,-0.0013785567872475,0.0013785567366942,-0.0013208887610583,0.0013208889220271,-0.0013208889189869,0.0013208887642361,5.2531880481228e-13,-2.0090553306211e-12,-5.4878673494195e-13,-6.8243262274005e-13,-0.0013495042306923,0.0013495042291547,-0.0013785567623412,0.0013785567617743,-0.0013785567622734,0.0013785567616696,-0.0013785567631218,0.0013785567608855,-0.0013785567632249,0.0013785567609415,-0.001320888842662,0.0013208888406502,-0.0013208888427347,0.0013208888404259,-0.0013208888410978,0.0013208888420404,-0.0013208888435971,0.0013208888396091,-8.0637180001267e-11,8.0716942358699e-11,-0.0013495042298932,0.001349504229997,-2.0937419199745e-14,1.1450423726827e-13,-0.0013785567890181,0.0013785567352475,-0.0013785567887876,0.0013785567351171,-0.0013785567351992,0.0013785567890942,-0.0013785567349921,0.0013785567888996,-0.0013208887625658,0.0013208889206171,-0.0013208889204832,0.0013208887625697,0.0036525587992119,0.0034632282370287,0.75787498987061,0.55041223258684,1368840,32768,0.0056071486267745,0.0056071486267967,0.0056071486268859,29.160834318206,29.15912789841,0.00014848667454565,0.00014848667454565,0.00014848667454565,255981.12791591,0.01696386952335
33054159,0.97554088253063,0.01640047494799,0.0054668249826479,0.0054668249826274,0.0054668249827146,-0.0013507936915516,0.0013507936937226,8.175289315229e-11,-7.9585534951831e-11,-1.560906433027e-13,2.3723438794641e-12,-0.0013798041353033,0.0013798041903371,-0.0013798041889869,0.0013798041366525,-0.001379804134463,0.001379804191113,-0.001379804188163,0.0013798041374619,-0.0013222223767983,0.0013222225376855,-0.0013222225346888,0.0013222223797461,5.1910570050071e-13,-1.9813029431433e-12,-5.739544954959e-13,-6.8711395031694e-13,-0.0013507936934036,0.0013507936918595,-0.0013798041631585,0.0013798041625248,-0.0013798041630489,0.0013798041624175,-0.0013798041638924,0.0013798041616698,-0.0013798041639697,0.001379804161673,-0.0013222224583072,0.0013222224563242,-0.0013222224584413,0.0013222224562899,-0.001322222456693,0.0013222224578204,-0.0013222224592926,0.0013222224554293,-8.0634458143241e-11,8.0740621135329e-11,-0.0013507936925898,0.0013507936927171,3.4026019351995e-15,1.1797733704981e-13,-0.0013798041897585,0.0013798041360908,-0.0013798041895836,0.001379804135954,-0.0013798041359547,0.0013798041898635,-0.0013798041357862,0.0013798041897538,-0.0013222223782561,0.0013222225364502,-0.0013222225361625,0.0013222223783847,0.0036579333149827,0.0034682674215675,0.77117559174277,0.79055629204818,1368840,32768,0.0056124913699874,0.0056124913699645,0.0056124913700552,29.135331169442,29.133625395324,0.00014828264935553,0.00014828264935553,0.00014828264935553,250216.87081462,0.016980169777558
33140559,0.97641169766061,0.016415255165386,0.0054717517217801,0.0054717517217596,0.0054717517218468,-0.0013524160799998,0.0013524160821766,8.1759221488376e-11,-7.9576678163576e-11,-1.4390048629186e-13,2.3670073366095e-12,-0.0013811979555686,0.001381198010586,-0.0013811980092293,0.00138119795692,-0.0013811979547348,0.0013811980113656,-0.0013811980083874,0.0013811979576934,-0.0013240708871953,0.0013240710481184,-0.0013240710451047,0.0013240708901862,5.0054614983518e-13,-1.9825101415584e-12,-5.5861237595183e-13,-6.6916667506447e-13,-0.0013524160818493,0.0013524160803167,-0.0013811979834078,0.0013811979827855,-0.0013811979833095,0.0013811979826972,-0.0013811979841406,0.0013811979819363,-0.0013811979842109,0.0013811979819559,-0.0013240709686765,0.0013240709667472,-0.0013240709687238,0.0013240709665717,-0.0013240709671566,0.0013240709681129,-0.0013240709696725,0.0013240709657568,-8.0624960139281e-11,8.0747927206251e-11,-0.0013524160810396,0.0013524160811701,5.964788368045e-15,1.180134830044e-13,-0.0013811980100154,0.0013811979563433,-0.0013811980098205,0.0013811979562094,-0.0013811979562083,0.0013811980101145,-0.001381197956041,0.001381198010006,-0.0013240708885633,0.0013240710467325,-0.0013240710465136,0.0013240708886996,0.0036646931907419,0.0034731377231972,0.77391159155289,0.81207338320868,1368840,32768,0.0056192137229415,0.0056192137229198,0.0056192137230105,29.10982827648,29.10812289224,0.00014807862621184,0.00014807862621184,0.00014807862621184,230867.33940793,0.017000679032707
33226959,0.97725082071931,0.016429554611452,0.0054765182038021,0.0054765182037815,0.0054765182038687,-0.0013535616053318,0.0013535616075094,8.176072744237e-11,-7.9575282912082e-11,-1.4091240110523e-13,2.3691863288663e-12,-0.0013823303821944,0.0013823304372067,-0.0013823304358548,0.0013823303835446,-0.0013823303813628,0.0013823304379902,-0.0013823304350181,0.0013823303843225,-0.0013252314686252,0.0013252316295787,-0.0013252316265234,0.0013252314715826,5.0371575888815e-13,-1.9785373217488e-12,-5.5305625156997e-13,-6.6732273139568e-13,-0.0013535616071795,0.0013535616056513,-0.0013823304100313,0.00138233040941,-0.0013823304099342,0.0013823304093219,-0.0013823304107678,0.0013823304085624,-0.0013823304108364,0.0013823304085858,-0.0013252315500921,0.0013252315481799,-0.0013252315501753,0.0013252315479908,-0.0013252315485692,0.0013252315495431,-0.0013252315510876,0.001325231547167,-8.0620796972346e-11,8.0752232104151e-11,-0.0013535616063715,0.0013535616065033,4.1898131805539e-15,1.1995698245535e-13,-0.0013823304366429,0.0013823303829657,-0.0013823304364494,0.0013823303828321,-0.0013823303828355,0.0013823304367408,-0.0013823303826681,0.0013823304366287,-0.0013252314699645,0.0013252316281956,-0.0013252316279449,0.0013252314701419,0.0036694670330461,0.0034778467552839,0.77682796740622,0.83359047436919,1368840,32768,0.0056239599888279,0.0056239599888064,0.0056239599888975,29.084325360511,29.082620389155,0.00014787460288408,0.00014787460288408,0.00014787460288408,227510.20373751,0.017015160060911
33313359,0.97806374843608,0.016443463307421,0.0054811544357915,0.005481154435771,0.0054811544358582,-0.0013548553545877,0.0013548553567749,8.1763365008853e-11,-7.9571829841101e-11,-1.6726218437273e-13,2.3873150103416e-12,-0.0013836071801294,0.0013836072351499,-0.0013836072337918,0.0013836071814847,-0.001383607179276,0.0013836072359406,-0.0013836072329286,0.0013836071822649,-0.0013265434900105,0.0013265436509628,-0.0013265436479214,0.0013265434929632,5.1174848408215e-13,-2.0150033842062e-12,-5.6893091366876e-13,-6.7821460453879e-13,-0.0013548553564494,0.0013548553549025,-0.0013836072079617,0.0013836072073362,-0.0013836072078621,0.0013836072072482,-0.0013836072087025,0.0013836072064705,-0.001383607208766,0.0013836072064957,-0.0013265435715063,0.0013265435695106,-0.0013265435715786,0.0013265435693541,-0.001326543569944,0.001326543570907,-0.001326543572542,0.0013265435685248,-8.062364406184e-11,8.0748584744987e-11,-0.0013548553556336,0.001354855355762,2.3057236793714e-15,1.130886040443e-13,-0.0013836072345686,0.0013836071808957,-0.0013836072343816,0.0013836071807648,-0.0013836071807592,0.0013836072346671,-0.0013836071805943,0.0013836072345544,-0.0013265434913544,0.0013265436495855,-0.0013265436493049,0.0013265434914903,0.0036748621245812,0.0034824244535969,0.77993268580322,0.8551075655297,1368840,32768,0.0056293203779883,0.005629320377966,0.0056293203780566,29.15233311656,29.156666376385,0.00014841866493248,0.00014841866493248,0.00014841866493248,224096.87549206,0.017031514978013
33399759,0.97885381735985,0.016457038053681,0.0054856793512118,0.0054856793511912,0.0054856793512784,-0.0013562356291269,0.0013562356313242,8.1776094737615e-11,-7.9551947507316e-11,-1.625282113453e-13,2.4044025471526e-12,-0.0013849699905838,0.0013849700455988,-0.0013849700442096,0.0013849699919153,-0.0013849699897087,0.0013849700463796,-0.0013849700433737,0.001384969992737,-0.0013279429864871,0.0013279431475062,-0.001327943144399,0.0013279429894312,4.9972782189336e-13,-2.0394471668772e-12,-5.7137936828192e-13,-6.8550941109922e-13,-0.001356235630999,0.0013562356294424,-0.0013849700184066,0.0013849700178043,-0.0013849700183018,0.0013849700176964,-0.0013849700191561,0.0013849700169312,-0.0013849700192149,0.001384970016948,-0.001327943068024,0.0013279430659769,-0.0013279430681436,0.0013279430659285,-0.0013279430665344,0.0013279430674803,-0.0013279430690978,0.0013279430649855,-8.060950096449e-11,8.0755563384736e-11,-0.0013562356301738,0.0013562356303094,-1.2282860061174e-15,1.1435421243966e-13,-0.00138497004501,0.0013849699913562,-0.0013849700448045,0.0013849699911945,-0.0013849699912014,0.0013849700451036,-0.0013849699910091,0.0013849700449711,-0.001327942987907,0.0013279431462157,-0.0013279431459027,0.0013279429880995,0.0036806206636311,0.0034868897940906,0.78321274263161,0.8766246566902,1368840,32768,0.0056350392396675,0.0056350392396474,0.005635039239734,29.279524113234,29.287882589435,0.00014943619290587,0.00014943619290587,0.00014943619290587,220727.72834127,0.017048963887059
33486159,0.97962158459821,0.016470287717045,0.0054900959056663,0.0054900959056457,0.0054900959057329,-0.0013575958833349,0.0013575958855521,8.1802768746272e-11,-7.9531978705584e-11,-1.6731965320533e-13,2.3927781963862e-12,-0.0013863136785272,0.0013863137339827,-0.0013863137322288,0.0013863136800416,-0.0013863136779366,0.0013863137344744,-0.0013863137315292,0.0013863136809278,-0.0013293223396778,0.0013293225013517,-0.0013293224982279,0.0013293223426495,6.2257051031002e-13,-1.9111911438342e-12,-5.4032814040503e-13,-6.3408821727551e-13,-0.0013575958850872,0.0013575958836854,-0.0013863137064233,0.0013863137059635,-0.0013863137065894,0.0013863137060321,-0.0013863137072737,0.0013863137050523,-0.0013863137071736,0.0013863137049828,-0.0013293224217782,0.0013293224197058,-0.0013293224218987,0.0013293224199841,-0.0013293224199815,0.0013293224215555,-0.0013293224227209,0.0013293224190638,-8.0685238003716e-11,8.0686763839456e-11,-0.0013575958844825,0.0013575958845229,-2.1362229751486e-14,7.3139736219499e-14,-0.0013863137331158,0.0013863136793502,-0.0013863137329896,0.0013863136792442,-0.0013863136794922,0.0013863137332398,-0.0013863136791402,0.00138631373284,-0.0013293223414094,0.0013293225004952,-0.0013293225000006,0.0013293223420672,0.0036862955943734,0.0034912458652483,0.78664456677882,0.8981417478507,1368840,32768,0.0056406751232617,0.0056406751230245,0.0056406751235069,29.410364495806,29.419098802484,0.00015048291596644,0.00015048291596644,0.00015048291596644,217435.60838703,0.017066159901049
33572559,0.98036744817263,0.016483217891844,0.0054944059639326,0.0054944059639117,0.0054944059639995,-0.0013589301077888,0.0013589301098582,8.1732401484179e-11,-7.9605782921505e-11,-2.5183513013905e-13,2.3343858625849e-12,-0.0013876302789984,0.0013876303341846,-0.0013876303327113,0.0013876302804785,-0.0013876302784326,0.0013876303351715,-0.0013876303322861,0.0013876302814494,-0.0013306769869961,0.0013306771476893,-0.0013306771454341,0.0013306769900018,5.8959837052744e-13,-1.9684306305013e-12,-4.8835084592276e-13,-6.0377546683864e-13,-0.0013589301095087,0.0013589301081373,-0.0013876303070422,0.0013876303066533,-0.0013876303072472,0.0013876303063708,-0.0013876303075334,0.0013876303055892,-0.0013876303078845,0.0013876303056212,-0.0013306770691019,0.0013306770670425,-0.0013306770687363,0.0013306770669492,-0.0013306770666773,0.0013306770685346,-0.0013306770697339,0.0013306770658588,-8.0673389718614e-11,8.0701570298894e-11,-0.0013589301087853,0.0013589301088653,-1.3946456298274e-14,1.0270098020261e-13,-0.0013876303337326,0.0013876302799945,-0.001387630333352,0.0013876302794543,-0.0013876302797816,0.0013876303337873,-0.0013876302794129,0.0013876303335621,-0.0013306769895902,0.0013306771472506,-0.0013306771474249,0.0013306769889735,0.0036918612116472,0.003495494644995,0.79020358367645,0.91965883901122,1368840,32768,0.0056462031336557,0.0056462031336534,0.0056462031336631,29.541542256314,29.550315015533,0.00015153233805051,0.00015153233805051,0.00015153233805051,214177.22331765,0.017083027031189
33658959,0.98109179416032,0.016495797696989,0.0054985992323145,0.0054985992322936,0.0054985992323813,-0.0013602353545017,0.0013602353566698,8.1754159172438e-11,-7.9566596177456e-11,-1.899169040513e-13,2.3741362952953e-12,-0.0013889168362061,0.0013889168910675,-0.0013889168896873,0.0013889168374435,-0.0013889168353972,0.001388916891929,-0.0013889168889359,0.0013889168382275,-0.0013320027985711,0.0013320029592416,-0.0013320029566658,0.0013320028017612,5.5887513263068e-13,-1.977584880257e-12,-5.526822335842e-13,-6.6381369153562e-13,-0.0013602353563306,0.0013602353548092,-0.0013889168639653,0.0013889168634437,-0.001388916863874,0.0013889168632882,-0.0013889168646866,0.001388916862351,-0.0013889168647009,0.0013889168624845,-0.001332002880126,0.0013320028781756,-0.001332002880028,0.0013320028779727,-0.0013320028782967,0.0013320028795451,-0.0013320028810517,0.0013320028771563,-8.067519654577e-11,8.0682685464048e-11,-0.0013602353555641,0.0013602353556441,-6.5377708638231e-15,1.0607199486748e-13,-0.0013889168906006,0.0013889168368289,-0.0013889168903514,0.0013889168367581,-0.0013889168367717,0.0013889168905756,-0.0013889168366023,0.0013889168905043,-0.0013320028003806,0.0013320029580699,-0.0013320029580364,0.0013320028000938,0.0036973057913469,0.0034996278241172,0.7915845275858,0.90572095914032,1368840,32768,0.0056516110532889,0.0056516110532233,0.005651611053365,29.672751642773,29.681531228583,0.00015258201314218,0.00015258201314218,0.00015258201314218,210990.25821151,0.01709952800369
33745359,0.98179500964889,0.016508090139395,0.0055026967131163,0.0055026967130953,0.005502696713183,-0.0013614587922411,0.0013614587944524,8.1773834924298e-11,-7.9538273807391e-11,-1.5388335779258e-13,2.3967594865252e-12,-0.0013901485463431,0.0013901486013634,-0.001390148599972,0.0013901485477197,-0.0013901485454919,0.0013901486021603,-0.0013901485991412,0.0013901485484526,-0.001333221880904,0.0013332220417083,-0.00133322203879,0.0013332218839536,5.2460800299738e-13,-1.9981980152458e-12,-5.6356228355908e-13,-6.7019184962844e-13,-0.0013614587941106,0.0013614587925707,-0.0013901485741735,0.0013901485735638,-0.0013901485741148,0.0013901485734547,-0.0013901485749567,0.001390148572704,-0.0013901485750141,0.0013901485727044,-0.0013332219624452,0.0013332219604301,-0.0013332219624495,0.0013332219603792,-0.001333221960864,0.0013332219618738,-0.0013332219633915,0.0013332219593924,-8.0636494198688e-11,8.0712597138502e-11,-0.0013614587933134,0.0013614587934187,-5.866879594385e-15,1.0230172769362e-13,-0.0013901486008156,0.0013901485471325,-0.0013901486006043,0.0013901485469921,-0.0013901485469877,0.0013901486008836,-0.0013901485468052,0.001390148600773,-0.001333221882466,0.0013332220404425,-0.0013332220402993,0.0013332218824564,0.0037024081610808,0.0035036632575172,0.79675691033891,0.96090748368323,1368840,32768,0.0056566799732362,0.0056566799732108,0.0056566799733162,29.803967396287,29.812747441631,0.0001536317391703,0.0001536317391703,0.0001536317391703,209794.30744162,0.01711499485799
33831759,0.98247748289965,0.016519940522649,0.0055066468408676,0.0055066468408466,0.0055066468409343,-0.0013627564262296,0.0013627564283801,8.1721576697222e-11,-7.9585161198543e-11,-1.7552675542517e-13,2.3756650721216e-12,-0.0013914033727468,0.0013914034277285,-0.0013914034263261,0.0013914033740564,-0.0013914033719427,0.0013914034285209,-0.0013914034255343,0.0013914033748221,-0.0013345619424901,0.0013345621030389,-0.0013345621002135,0.0013345619452888,5.389855343619e-13,-1.9842683231413e-12,-5.5902398102464e-13,-6.5123657575787e-13,-0.0013627564280644,0.0013627564265371,-0.0013914034006147,0.0013914033999613,-0.0013914034004397,0.0013914033998545,-0.0013914034012798,0.0013914033990908,-0.001391403401372,0.0013914033991217,-0.0013345620238965,0.0013345620218467,-0.0013345620239236,0.0013345620218484,-0.0013345620222808,0.0013345620232321,-0.0013345620247275,0.0013345620209257,-8.0618772269493e-11,8.0725178195336e-11,-0.0013627564272613,0.0013627564273832,1.1729465202301e-14,1.0557659823681e-13,-0.0013914034271453,0.0013914033735175,-0.0013914034269449,0.0013914033733379,-0.0013914033733312,0.0013914034272561,-0.0013914033731969,0.0013914034271628,-0.0013345619440247,0.0013345621019842,-0.0013345621016683,0.0013345619439994,0.0037078207171767,0.0035075577663509,0.79134633193881,0.84767189239018,1368840,32768,0.0056620563236039,0.005662056323587,0.005662056323676,29.935175513611,29.94396365468,0.00015468140410889,0.00015468140410889,0.00015468140410889,205064.46445635,0.017131399966167
33918159,0.98313960417447,0.016531378134027,0.0055104593779936,0.0055104593779727,0.0055104593780603,-0.0013637474996267,0.0013637475017891,8.1727784272291e-11,-7.9585332428606e-11,-1.3814907375827e-13,2.3976263423963e-12,-0.0013924841814889,0.0013924842365076,-0.0013924842351772,0.001392484182795,-0.0013924841805993,0.0013924842368579,-0.001392484234704,0.0013924841831802,-0.0013354657121657,0.0013354658732159,-0.0013354658703049,0.0013354657153515,4.9381862006248e-13,-2.0120486509419e-12,-6.0759364431359e-13,-7.0319584137915e-13,-0.0013637475014962,0.0013637474998695,-0.00139248420924,0.0013924842086331,-0.0013924842092347,0.0013924842082264,-0.0013924842102833,0.0013924842073563,-0.0013924842099212,0.0013924842077712,-0.0013354657935553,0.0013354657916531,-0.0013354657942243,0.0013354657922044,-0.0013354657924535,0.0013354657932817,-0.0013354657948866,0.0013354657908277,-8.0639685748248e-11,8.0710091391521e-11,-0.0013637475006871,0.0013637475007703,4.9286141401035e-15,1.0192429804736e-13,-0.0013924842358599,0.0013924841822429,-0.0013924842356162,0.0013924841820379,-0.0013924841822734,0.0013924842356854,-0.0013924841819385,0.0013924842361854,-0.0013354657140276,0.0013354658721001,-0.0013354658719217,0.0013354657141706,0.003711957254213,0.0035113194055945,0.78715739846521,0.78435682721403,1368840,32768,0.0056661623560237,0.0056661623559199,0.0056661623561098,30.066384924796,30.07517986773,0.00015573107939836,0.00015573107939836,0.00015573107939836,209772.89519842,0.017143929398073
34004559,0.98378176439154,0.016542439194829,0.005514146398261,0.00551414639824,0.0055141463983277,-0.0013647771893331,0.0013647771915762,8.1770745430445e-11,-7.9533416191082e-11,-1.1433944818481e-13,2.4267191006914e-12,-0.0013935752591056,0.0013935753141706,-0.0013935753127158,0.0013935752603099,-0.0013935752579572,0.0013935753147223,-0.0013935753115106,0.0013935752611501,-0.0013364365780883,0.0013364367388418,-0.0013364367358234,0.0013364365809585,5.5851943761456e-13,-1.9543890594617e-12,-5.1421587929315e-13,-6.3069382097199e-13,-0.0013647771911894,0.0013647771897146,-0.0013935752867007,0.0013935752862813,-0.001393575286611,0.0013935752859864,-0.0013935752874151,0.0013935752852951,-0.0013935752876558,0.0013935752853823,-0.0013364366594271,0.0013364366570886,-0.0013364366594776,0.0013364366575337,-0.0013364366581553,0.0013364366586061,-0.0013364366602142,0.0013364366564545,-8.0603928428844e-11,8.073709583126e-11,-0.001364777190414,0.0013647771905563,1.9587695726988e-14,1.3751900477115e-13,-0.0013935753133829,0.0013935752596267,-0.0013935753131851,0.0013935752594475,-0.0013935752595812,0.001393575313613,-0.0013935752593696,0.0013935753135192,-0.0013364365794533,0.0013364367376434,-0.0013364367372347,0.0013364365794798,0.0037162533199086,0.0035149584054379,0.78493936165267,0.76099990360937,1368840,32768,0.0056704284161963,0.0056704284161853,0.0056704284163226,30.197596027277,30.206396080779,0.00015678076821821,0.00015678076821821,0.00015678076821821,212362.00057005,0.017156947193794
34090959,0.98440756092158,0.016553185306616,0.0055177284355233,0.0055177284355023,0.00551772843559,-0.0013660238072442,0.0013660238093106,8.1685273512142e-11,-7.9610334429518e-11,-2.4663146557802e-13,2.3021212011893e-12,-0.0013948490526911,0.0013948491075623,-0.0013948491058071,0.001394849053686,-0.0013948490516654,0.0013948491081862,-0.0013948491056527,0.0013948490545842,-0.0013376565918507,0.001337656753013,-0.0013376567501807,0.001337656595501,4.974214805858e-13,-2.0236486495111e-12,-5.328359281105e-13,-6.4055387269535e-13,-0.0013660238090487,0.0013660238075003,-0.0013948490805101,0.0013948490798366,-0.0013948490804282,0.0013948490796091,-0.0013948490811343,0.0013948490789794,-0.0013948490814321,0.0013948490788984,-0.0013376566741021,0.0013376566707595,-0.0013376566736974,0.0013376566710141,-0.0013376566720303,0.001337656671323,-0.0013376566749257,0.0013376566698636,-8.053725452451e-11,8.0795191350599e-11,-0.0013660238081557,0.001366023808452,1.267585687892e-13,2.359844673071e-13,-0.001394849106524,0.0013948490531819,-0.0013948491067641,0.0013948490527687,-0.0013948490530847,0.0013948491074006,-0.0013948490525617,0.0013948491071606,-0.0013376565927131,0.0013376567507537,-0.0013376567506406,0.0013376565928897,0.003721458256267,0.0035184950722067,0.78254157091023,0.73764298000474,1368840,32768,0.0056755932522024,0.0056755932521904,0.0056755932523122,30.419675111305,30.434373023988,0.00015855740089044,0.00015855740089044,0.00015855740089044,212686.78863413,0.017172707689557
34177359,0.98501888734335,0.016563640639605,0.0055212135465199,0.0055212135464988,0.0055212135465866,-0.0013673482136471,0.0013673482159326,8.182535993848e-11,-7.9490147865841e-11,-1.3495611247752e-13,2.4599327330965e-12,-0.0013962022195942,0.0013962022747444,-0.0013962022731889,0.0013962022209264,-0.001396202218578,0.0013962022756009,-0.0013962022725183,0.0013962022216452,-0.0013389525482485,0.0013389527094616,-0.0013389527061623,0.0013389525511148,5.1947113051354e-13,-2.0467490614564e-12,-5.0079764215226e-13,-6.1212694700077e-13,-0.0013673482154992,0.0013673482140545,-0.0013962022475662,0.0013962022470102,-0.001396202247341,0.0013962022468179,-0.0013962022481125,0.0013962022462319,-0.0013962022482116,0.0013962022464323,-0.0013389526302244,0.001338952627748,-0.0013389526303028,0.001338952627663,-0.0013389526285028,0.00133895262935,-0.0013389526311257,0.0013389526264877,-8.0556470349244e-11,8.0795854830331e-11,-0.0013673482146877,0.001367348214947,8.577655605568e-14,1.9917447418006e-13,-0.0013962022739487,0.0013962022203413,-0.0013962022738033,0.0013962022201084,-0.0013962022202931,0.0013962022745156,-0.0013962022200883,0.0013962022740398,-0.0013389525495392,0.0013389527082113,-0.0013389527075724,0.0013389525498508,0.0037269916230764,0.0035219377809904,0.77936888000293,0.70493027304504,1368840,32768,0.0056810803363988,0.0056810803363448,0.0056810803365127,30.6945641836,30.712901655953,0.0001607565134688,0.0001607565134688,0.0001607565134688,213138.49951244,0.017189451826625
34263759,0.9856157717752,0.016573753771856,0.0055245845906034,0.0055245845905824,0.0055245845906701,-0.0013686324997336,0.0013686325018586,8.1717831105765e-11,-7.9690893086153e-11,-1.88917522817e-13,2.3112266289071e-12,-0.0013975276255811,0.0013975276809529,-0.0013975276794871,0.0013975276274025,-0.0013975276250468,0.0013975276816767,-0.0013975276787916,0.001397527628164,-0.0013401952514956,0.0013401954140089,-0.0013401954110345,0.0013401952566384,4.4805504751997e-13,-2.0250884878779e-12,-5.5806895137661e-13,-6.3160099914067e-13,-0.0013686325015469,0.0013686325000239,-0.0013975276538987,0.0013975276530873,-0.001397527653133,0.0013975276531936,-0.0013975276544629,0.0013975276527439,-0.0013975276541217,0.0013975276523098,-0.001340195334609,0.0013401953322294,-0.0013401953338768,0.0013401953324536,-0.0013401953334551,0.0013401953333968,-0.0013401953355319,0.0013401953302093,-8.0824877031957e-11,8.062064027125e-11,-0.0013686325008257,0.0013686325007431,-5.1236375940356e-14,2.5162525419768e-14,-0.001397527680574,0.0013975276266364,-0.0013975276803376,0.001397527626392,-0.0013975276268251,0.001397527680374,-0.0013975276264997,0.0013975276802907,-0.0013401952541461,0.0013401954116162,-0.0013401954135711,0.0013401952540268,0.0037323600731791,0.0035252719385107,0.77203456814483,0.6145589160229,1368840,32768,0.0056864011411752,0.0056864011411309,0.0056864011411266,30.972733692588,30.991430287918,0.0001629818695407,0.0001629818695407,0.0001629818695407,214414.31294135,0.017205688914234
34350159,0.98619814877917,0.01658362468891,0.0055278748962883,0.0055278748962672,0.0055278748963549,-0.0013697788331413,0.0013697788352294,8.1695233737275e-11,-7.9699837224681e-11,-1.6859496718654e-13,2.3220817678783e-12,-0.0013987725964232,0.0013987726514996,-0.0013987726500607,0.0013987725977561,-0.0013987725959299,0.0013987726523529,-0.0013987726495878,0.0013987725985387,-0.0013412453502419,0.0013412455117713,-0.0013412455084994,0.0013412453529842,4.784035321593e-13,-1.9837369276103e-12,-5.7881564110889e-13,-6.7140922420319e-13,-0.0013697788349257,0.0013697788333966,-0.0013987726244972,0.00139877262361,-0.0013987726246433,0.0013987726234737,-0.0013987726250117,0.0013987726226752,-0.0013987726250399,0.0013987726228345,-0.0013412454322895,0.0013412454295709,-0.0013412454315554,0.0013412454295681,-0.0013412454305705,0.0013412454310104,-0.0013412454329142,0.0013412454283467,-8.0737788751268e-11,8.0694400547336e-11,-0.0013697788342125,0.0013697788342044,-4.0217477266029e-14,5.4534157548332e-14,-0.001398772651007,0.001398772597428,-0.0013987726509288,0.0013987725973003,-0.0013987725971839,0.0013987726509554,-0.0013987725971688,0.0013987726508118,-0.0013412453511308,0.0013412455098019,-0.0013412455094504,0.0013412453514068,0.0037371526934112,0.0035285256357624,0.772353432938,0.64297997957907,1368840,32768,0.0056911503174156,0.0056911503173154,0.0056911503175114,31.251211734298,31.269958919882,0.00016520969387438,0.00016520969387438,0.00016520969387438,219759.54924063,0.017220181941009
34436559,0.98676596012383,0.016593277762286,0.0055310925874134,0.0055310925873923,0.0055310925874801,-0.0013711449427822,0.0013711449451081,8.1869978163659e-11,-7.9523802367131e-11,-6.8104507689333e-14,2.4133560383355e-12,-0.0014001226124901,0.0014001226682901,-0.0014001226666916,0.001400122614372,-0.0014001226123452,0.0014001226688794,-0.0014001226653191,0.0014001226153927,-0.0013426278982479,0.0013426280605482,-0.0013426280570293,0.0013426279011237,3.7620786004929e-13,-2.0787642598847e-12,-5.7504805032385e-13,-6.8269670290788e-13,-0.0013711449446939,0.0013711449431232,-0.0014001226406495,0.0014001226400157,-0.0014001226407307,0.0014001226399897,-0.0014001226412404,0.0014001226390778,-0.0014001226415915,0.0014001226392396,-0.0013426279805306,0.0013426279775465,-0.0013426279803425,0.0013426279783596,-0.0013426279784217,0.0013426279789088,-0.0013426279816691,0.0013426279771029,-8.0667056794434e-11,8.0763181828468e-11,-0.001371144943899,0.0013711449440011,-2.2283466314224e-14,8.6916403587061e-14,-0.0014001226670362,0.0014001226136009,-0.001400122667155,0.0014001226129558,-0.0014001226137156,0.0014001226676292,-0.0014001226132913,0.001400122667283,-0.0013426278997191,0.0013426280590768,-0.0013426280589455,0.0013426278998873,0.0037428611817096,0.0035317056700019,0.77478809402123,0.69878348922123,1368840,32768,0.0056968101430723,0.0056968101429206,0.0056968101430926,31.529721506134,31.548487551847,0.00016743777204907,0.00016743777204907,0.00016743777204907,217023.78780272,0.017237453948002
34522959,0.98731916425428,0.016602719166012,0.005534239721989,0.0055342397219678,0.0055342397220556,-0.0013725487156095,0.0013725487177632,8.1821781812495e-11,-7.9592603853528e-11,-1.3980378791377e-13,2.3212363819395e-12,-0.0014014794155019,0.0014014794706588,-0.0014014794691237,0.0014014794168606,-0.0014014794145203,0.0014014794716421,-0.0014014794683455,0.0014014794176376,-0.0013440784717972,0.0013440786334192,-0.0013440786302519,0.0013440784751757,3.5627138085975e-13,-2.0773733023775e-12,-6.3977880813775e-13,-7.5130160707515e-13,-0.0013725487175021,0.0013725487158511,-0.0014014794434154,0.0014014794429148,-0.0014014794432543,0.0014014794427435,-0.0014014794441433,0.0014014794418825,-0.0014014794442863,0.001401479441988,-0.0013440785536821,0.0013440785513011,-0.0013440785532866,0.0013440785510394,-0.0013440785528035,0.0013440785524103,-0.0013440785546965,0.0013440785502059,-8.0674732383479e-11,8.0777075874603e-11,-0.0013725487166373,0.0013725487167432,-2.9753767513414e-14,8.3187517501972e-14,-0.0014014794700662,0.0014014794161616,-0.0014014794698666,0.0014014794159714,-0.0014014794159077,0.001401479470136,-0.0014014794160607,0.0014014794699032,-0.0013440784729305,0.00134407863157,-0.0013440786319387,0.0013440784734416,0.0037487263170688,0.0035348138953448,0.77782497491004,0.75458699886338,1368840,32768,0.0057026260058596,0.0057026260058192,0.0057026260058756,31.808235870032,31.827016183811,0.00016966588696026,0.00016966588696026,0.00016966588696026,212395.62044071,0.017255202363246
34609359,0.98785773676406,0.016611956732647,0.0055373189108672,0.005537318910846,0.0055373189109337,-0.0013739339236138,0.0013739339257801,8.1788781702979e-11,-7.9628974213027e-11,-1.3169609442177e-13,2.3692763849387e-12,-0.0014028161661678,0.001402816221252,-0.0014028162198834,0.0014028161675223,-0.0014028161653636,0.0014028162220386,-0.0014028162190159,0.0014028161683319,-0.0013455122014217,0.001345512362496,-0.0013455123596177,0.0013455122044466,4.619225650533e-13,-2.0109971536526e-12,-5.8959795877531e-13,-6.8822821039471e-13,-0.0013739339254761,0.0013739339239004,-0.0014028161940846,0.0014028161933488,-0.001402816193971,0.0014028161933285,-0.0014028161948011,0.0014028161925089,-0.0014028161948397,0.0014028161925601,-0.0013455122830963,0.0013455122810307,-0.001345512283045,0.0013455122810162,-0.0013455122816611,0.0013455122824466,-0.0013455122839449,0.0013455122799682,-8.0647356102159e-11,8.0807129662363e-11,-0.0013739339246398,0.0013739339247875,1.3691375855513e-14,1.1382899319063e-13,-0.0014028162206322,0.0014028161669598,-0.0014028162203946,0.0014028161668166,-0.0014028161667761,0.0014028162207394,-0.0014028161666797,0.0014028162206216,-0.0013455122029521,0.0013455123612207,-0.0013455123610552,0.0013455122029738,0.0037545136087759,0.0035378526871192,0.78170384071947,0.81039050850554,1368840,32768,0.005708364924049,0.005708364924013,0.0057083649241182,32.086752804973,32.105544815775,0.00017189402243978,0.00017189402243978,0.00017189402243978,207798.8266867,0.017272716249484
34695759,0.9883831009378,0.016621023157296,0.005540341052417,0.0055403410523958,0.0055403410524836,-0.0013753981900342,0.001375398192173,8.1708514625671e-11,-7.9700926485522e-11,-1.5877832590172e-13,2.3385600880063e-12,-0.0014042314410438,0.0014042314960138,-0.0014042314948344,0.0014042314422615,-0.0014042314404642,0.0014042314970276,-0.0014042314939195,0.0014042314432662,-0.0013470254281073,0.001347025587774,-0.0013470255838777,0.0013470254294246,5.5827970964397e-13,-1.9100045918473e-12,-6.1476242531225e-13,-6.9160119558762e-13,-0.0013753981919063,0.0013753981903273,-0.001404231468771,0.001404231467765,-0.0014042314686067,0.0014042314684075,-0.0014042314694465,0.0014042314679157,-0.0014042314700647,0.0014042314673144,-0.0013470255085979,0.0013470255075779,-0.0013470255083985,0.0013470255067844,-0.0013470255078429,0.0013470255083281,-0.0013470255093492,0.0013470255072759,-8.0675773528144e-11,8.0770325904339e-11,-0.0013753981911193,0.0013753981911467,-7.6053441325455e-14,2.0769659618803e-15,-0.0014042314960517,0.0014042314417174,-0.00140423149555,0.0014042314415835,-0.0014042314419447,0.0014042314955742,-0.0014042314413753,0.0014042314951877,-0.0013470254291825,0.0013470255882179,-0.0013470255863821,0.0013470254300017,0.0037606327274666,0.0035408326735694,0.78650753766664,0.86619401814771,1368840,32768,0.0057144313479305,0.0057144313479854,0.0057144313480525,32.414438233901,32.436447426605,0.00017451550587121,0.00017451550587121,0.00017451550587121,203191.24397509,0.01729122991431
34782159,0.9888982945722,0.016629977176668,0.0055433257255409,0.0055433257255197,0.0055433257256074,-0.0013770670613311,0.0013770670635269,8.1818064631935e-11,-7.964966628678e-11,-7.630896293121e-14,2.3523581370736e-12,-0.0014058480383275,0.0014058480934765,-0.001405848091939,0.00140584803972,-0.0014058480374513,0.0014058480940257,-0.0014058480910752,0.0014058480403258,-0.0013487457029841,0.0013487458641072,-0.0013487458614345,0.0013487457053285,5.2976002207732e-13,-1.8712226001399e-12,-5.5279423016278e-13,-6.2251160034498e-13,-0.001377067063157,0.0013770670616894,-0.0014058480659418,0.0014058480654099,-0.001405848066102,0.0014058480653723,-0.0014058480668354,0.0014058480646982,-0.0014058480669028,0.0014058480647543,-0.001348745784489,0.0013487457824285,-0.0013487457844919,0.0013487457828805,-0.0013487457831165,0.001348745783192,-0.0013487457856009,0.0013487457818736,-8.0822424165714e-11,8.0682016308019e-11,-0.0013770670624281,0.0013770670624615,-1.5419558354841e-14,5.6272898548635e-14,-0.0014058480927815,0.0014058480392056,-0.0014058480925744,0.0014058480390976,-0.0014058480389148,0.0014058480926612,-0.0014058480388945,0.0014058480927033,-0.0013487457041296,0.0013487458628754,-0.0013487458621549,0.0013487457038769,0.0037676107266667,0.0035437731839231,0.79208485907308,0.92199752778987,1368840,32768,0.0057213453972499,0.0057213453972261,0.0057213453973155,32.853997484123,32.883433170045,0.00017803197987298,0.00017803197987298,0.00017803197987298,198530.77757655,0.017312330774956
34868559,0.98940307423122,0.016638713303924,0.0055462377679597,0.0055462377679385,0.0055462377680262,-0.0013787286045737,0.0013787286066614,8.1790803817675e-11,-7.9683550781044e-11,-1.8386285370426e-13,2.2761925227044e-12,-0.0014074632692844,0.0014074633242974,-0.0014074633229484,0.0014074632704689,-0.0014074632684384,0.0014074633250346,-0.0014074633221971,0.0014074632712655,-0.0013504516116416,0.0013504517731145,-0.0013504517700011,0.0013504516148711,5.9374412623039e-13,-1.837718917772e-12,-5.7439862898675e-13,-6.3831738219507e-13,-0.001378728606341,0.0013787286048699,-0.0014074632970491,0.001407463296253,-0.001407463296991,0.0014074632962246,-0.0014074632978046,0.001407463295485,-0.0014074632978213,0.0014074632955598,-0.0013504516933782,0.0013504516914214,-0.0013504516936131,0.0013504516917157,-0.001350451692084,0.001350451693383,-0.0013504516941629,0.0013504516911279,-8.0685046480155e-11,8.0826443337049e-11,-0.0013787286055861,0.0013787286056736,-2.7879648295882e-14,3.7868019628582e-14,-0.0014074633236695,0.0014074632698635,-0.0014074633236337,0.0014074632698698,-0.0014074632698844,0.0014074633237579,-0.0014074632697907,0.0014074633236528,-0.0013504516132283,0.0013504517714984,-0.0013504517717862,0.0013504516133602,0.0037745611704349,0.0035466443260428,0.78863816366282,0.83814762424242,1368840,32768,0.0057282290189233,0.0057282290188731,0.0057282290189744,33.300241034107,33.330418913483,0.00018160192827285,0.00018160192827285,0.00018160192827285,194129.05654122,0.017333339293845
34954959,0.98989703184874,0.016647210580493,0.0055490701934825,0.0055490701934612,0.005549070193549,-0.0013801404358834,0.0013801404378485,8.1707665533963e-11,-7.976807314012e-11,-2.6265244673628e-13,2.2673223819164e-12,-0.0014089428266723,0.0014089428810758,-0.0014089428799778,0.0014089428271527,-0.0014089428256174,0.0014089428818497,-0.001408942879033,0.001408942828123,-0.0013517967357479,0.001351796896254,-0.0013517968929013,0.001351796738343,5.2912245331931e-13,-1.972338334653e-12,-5.9899384820793e-13,-6.8875987062344e-13,-0.0013801404376764,0.0013801404361579,-0.0014089428540421,0.0014089428536617,-0.0014089428540268,0.0014089428532133,-0.0014089428548494,0.0014089428525466,-0.0014089428546319,0.0014089428529451,-0.001351796817371,0.0013517968155751,-0.0013517968171797,0.0013517968153837,-0.001351796815729,0.0013517968167611,-0.0013517968178042,0.0013517968150484,-8.0448687700754e-11,8.1064294953198e-11,-0.001380140436585,0.0013801404371652,2.2444455513761e-13,3.147152974284e-13,-0.0014089428798234,0.0014089428271075,-0.0014089428803243,0.0014089428266534,-0.0014089428263275,0.0014089428808061,-0.0014089428262013,0.0014089428810184,-0.0013517967371549,0.0013517968955818,-0.0013517968953408,0.0013517967379054,0.0037804720768954,0.0035494394546415,0.78377524040928,0.76348095243336,1368840,32768,0.0057340779343387,0.0057340779345506,0.0057340779343767,33.747103954459,33.777404656922,0.00018517683163567,0.00018517683163567,0.00018517683163567,197338.58552718,0.017351190557667
35041359,0.9903797668003,0.016655477582165,0.0055518258607066,0.0055518258606854,0.0055518258607729,-0.0013815359099267,0.0013815359120957,8.1839430802742e-11,-7.9660163377866e-11,-1.1733670956171e-13,2.4273617869401e-12,-0.0014104088174934,0.0014104088723615,-0.0014104088712594,0.0014104088187558,-0.0014104088161508,0.0014104088730749,-0.0014104088701165,0.0014104088195115,-0.0013531239007636,0.0013531240618106,-0.0013531240588571,0.001353123903464,3.6239469379674e-13,-2.1541005466481e-12,-7.8220075136279e-13,-8.2659298344587e-13,-0.0013815359119192,0.001381535910148,-0.0014104088451167,0.0014104088445703,-0.0014104088452765,0.0014104088444499,-0.0014104088458569,0.001410408843674,-0.0014104088460528,0.0014104088439223,-0.0013531239830123,0.0013531239809286,-0.0013531239827816,0.0013531239805984,-0.001353123981768,0.001353123982826,-0.0013531239836489,0.0013531239793381,-8.0718768391151e-11,8.0817632076815e-11,-0.0013815359109793,0.0013815359110742,-5.8845261141194e-15,3.9904604471137e-14,-0.0014104088717714,0.0014104088178444,-0.0014104088717686,0.0014104088175625,-0.0014104088179164,0.0014104088717792,-0.0014104088177215,0.0014104088718059,-0.0013531239036926,0.0013531240621207,-0.0013531240619542,0.0013531239030449,0.003786313743857,0.0035521604173987,0.78026528093384,0.72270139222008,1368840,32768,0.0057398590647013,0.0057398590647942,0.0057398590647658,34.194033837428,34.22439040036,0.00018875227069942,0.00018875227069942,0.00018875227069942,200698.7967156,0.017368835209723
35127759,0.99085090274546,0.016663507913135,0.0055545026376965,0.0055545026376753,0.0055545026377628,-0.001382966140395,0.0013829661425968,8.1886286547802e-11,-7.9661242050796e-11,-1.4112468873763e-13,2.4177330222687e-12,-0.0014118837438933,0.0014118837991381,-0.0014118837981181,0.0014118837451422,-0.0014118837429577,0.0014118837999354,-0.0014118837969127,0.0014118837460882,-0.0013545106266985,0.0013545107878998,-0.0013545107858337,0.0013545106297001,5.4114246846904e-13,-1.9896039836699e-12,-5.8449849691331e-13,-5.7261583050885e-13,-0.0013829661422484,0.00138296614076,-0.0014118837714504,0.0014118837712477,-0.0014118837715058,0.0014118837712278,-0.0014118837722674,0.0014118837703621,-0.0014118837727017,0.0014118837705959,-0.001354510708444,0.0013545107063816,-0.0013545107085615,0.0013545107063561,-0.00135451070711,0.0013545107081446,-0.0013545107095288,0.0013545107056167,-8.0903207286081e-11,8.0680754111284e-11,-0.0013829661415453,0.0013829661414781,3.6234804816291e-14,2.6792475625908e-14,-0.001411883798196,0.001411883744497,-0.0014118837979003,0.0014118837445157,-0.0014118837443858,0.0014118837980133,-0.0014118837443935,0.0014118837981157,-0.0013545106288118,0.0013545107870625,-0.0013545107869628,0.0013545106277987,0.003792300247814,0.0035548049899772,0.77659275368405,0.68428026768032,1368840,32768,0.0057457841808753,0.0057457841809095,0.0057457841809405,34.640971315856,34.671376143798,0.00019232777052684,0.00019232777052684,0.00019232777052684,202415.53879052,0.017386919576764
35214159,0.99131009069963,0.016671295772323,0.0055570985907594,0.0055570985907382,0.0055570985908256,-0.0013843780828632,0.001384378085083,8.1909763124726e-11,-7.9641392833646e-11,-4.2667872996357e-14,2.4922206878981e-12,-0.0014133402760687,0.0014133403312842,-0.001413340330073,0.0014133402775964,-0.0014133402755318,0.0014133403318932,-0.0014133403291582,0.0014133402780324,-0.0013558788713419,0.0013558790331598,-0.0013558790304159,0.0013558788742212,4.9729860198671e-13,-2.0100204776071e-12,-6.4333793470299e-13,-6.7053389800263e-13,-0.0013843780847248,0.001384378083131,-0.0014133403039526,0.0014133403036519,-0.0014133403039372,0.0014133403031871,-0.0014133403049743,0.0014133403026848,-0.0014133403049979,0.0014133403025199,-0.0013558789528556,0.0013558789507321,-0.0013558789510871,0.0013558789506236,-0.0013558789512039,0.0013558789524169,-0.0013558789536386,0.0013558789498503,-8.0820916799999e-11,8.0766596812378e-11,-0.0013843780839472,0.0013843780839004,-6.4608320377808e-14,-3.4962167223908e-14,-0.00141334033071,0.0014133402767566,-0.0014133403302594,0.0014133402763973,-0.0014133402765846,0.0014133403303258,-0.001413340276783,0.0014133403306439,-0.0013558788722657,0.0013558790313117,-0.0013558790306117,0.0013558788714076,0.0037982108993821,0.0035573711794863,0.77272757745527,0.64585914314056,1368840,32768,0.0057516334961246,0.0057516334959375,0.0057516334959205,35.087910267328,35.118361887237,0.00019590328213862,0.00019590328213862,0.00019590328213862,204161.6811484,0.017404772917475
35300559,0.99175701062916,0.016678836495684,0.0055596121652129,0.0055596121651917,0.0055596121652789,-0.0013857672217144,0.0013857672240708,8.1981723985195e-11,-7.9595155363816e-11,-6.6040864849852e-14,2.4860804048913e-12,-0.0014147762607279,0.0014147763157292,-0.0014147763145162,0.0014147762619921,-0.001414776260121,0.0014147763170101,-0.0014147763135362,0.0014147762629726,-0.0013572218717459,0.0013572220333032,-0.001357222030313,0.0013572218746595,4.3151664099223e-13,-2.0919893852779e-12,-6.0461841167549e-13,-6.8815971248727e-13,-0.0013857672237507,0.0013857672220939,-0.0014147762887281,0.0014147762881137,-0.0014147762886862,0.0014147762878365,-0.0014147762899033,0.0014147762873298,-0.0014147762895221,0.001414776287224,-0.0013572219537248,0.0013572219519789,-0.0013572219533493,0.0013572219519899,-0.0013572219520765,0.0013572219534567,-0.0013572219546631,0.0013572219506644,-8.0747743682446e-11,8.0865240887105e-11,-0.0013857672227978,0.0013857672229853,3.1266162487257e-14,1.1587813647306e-13,-0.0014147763152891,0.0014147762616259,-0.0014147763150747,0.0014147762615246,-0.0014147762612139,0.0014147763151317,-0.0014147762612972,0.0014147763152349,-0.0013572218735691,0.0013572220324259,-0.0013572220316324,0.0013572218734971,0.0038040269211249,0.0035598573486302,0.76873096737866,0.60743801860079,1368840,32768,0.005757388302333,0.0057573883024559,0.0057573883023286,35.534850014271,35.565347630675,0.00019947880011417,0.00019947880011417,0.00019947880011417,206066.54880865,0.017422338125942
35386959,0.99218779268851,0.016686066562012,0.0055620221873225,0.0055620221873014,0.0055620221873884,-0.0013868303082463,0.0013868303105209,8.198949939472e-11,-7.9613756913199e-11,-1.7489877460955e-13,2.3547912392146e-12,-0.001415893000714,0.0014158930559057,-0.0014158930543176,0.0014158930024013,-0.0014158930001285,0.0014158930561408,-0.0014158930534452,0.0014158930026993,-0.0013582332929682,0.0013582334541984,-0.001358233451135,0.001358233295728,5.6793773812724e-13,-1.9344485509834e-12,-5.6237346693544e-13,-6.6490718754183e-13,-0.0013868303101113,0.0013868303087163,-0.0014158930289088,0.0014158930279069,-0.0014158930286235,0.0014158930279543,-0.0014158930295787,0.0014158930273309,-0.0014158930290738,0.0014158930273068,-0.001358233374894,0.001358233372298,-0.0013582333738348,0.001358233371088,-0.0013582333726093,0.0013582333728738,-0.0013582333754767,0.0013582333709968,-8.079870789023e-11,8.0841183769092e-11,-0.0013868303094079,0.001386830309422,2.4315815992042e-14,1.3026454991918e-13,-0.0014158930553316,0.0014158930014567,-0.0014158930551575,0.0014158930010386,-0.0014158930013327,0.0014158930553279,-0.0014158930014425,0.0014158930550778,-0.0013582332934457,0.0013582334514735,-0.0013582334515151,0.0013582332936696,0.0038084759963521,0.0035622422887358,0.7646494909221,0.56901689406103,1368840,32768,0.0057617923151268,0.0057617923152521,0.005761792315257,35.827472717843,35.847827224044,0.00020181978174274,0.00020181978174274,0.00020181978174274,208256.86568328,0.017435780662394
35473359,0.99260230313161,0.016693028138511,0.0055643427128218,0.0055643427128009,0.0055643427128878,-0.0013878402640477,0.0013878402661637,8.1932846772478e-11,-7.969904948404e-11,-1.8823472014674e-13,2.3687719297612e-12,-0.0014169522568995,0.0014169523119549,-0.0014169523105656,0.0014169522584309,-0.0014169522564796,0.0014169523129872,-0.0014169523101269,0.0014169522587962,-0.0013591951543508,0.0013591953163014,-0.0013591953133442,0.0013591951577001,4.8863866065962e-13,-2.0422686689176e-12,-5.0041559500001e-13,-6.3259367469747e-13,-0.0013878402658806,0.0013878402643389,-0.0014169522851151,0.0014169522840118,-0.0014169522851368,0.0014169522840458,-0.0014169522859192,0.001416952283697,-0.0014169522858737,0.0014169522833643,-0.0013591952364537,0.0013591952344781,-0.0013591952362538,0.0013591952343316,-0.0013591952356401,0.0013591952351134,-0.0013591952374152,0.0013591952335373,-8.0650748175004e-11,8.1017035779287e-11,-0.0013878402649278,0.0013878402652686,1.4599330471064e-13,2.8059148694621e-13,-0.0014169523114412,0.0014169522578049,-0.0014169523110675,0.0014169522578225,-0.0014169522574002,0.0014169523114317,-0.0014169522574542,0.0014169523115064,-0.0013591951555278,0.0013591953143929,-0.0013591953141543,0.0013591951563481,0.0038127006917795,0.0035645377512752,0.76520301506501,0.59991560406906,1368840,32768,0.0057659762128302,0.0057659762128471,0.0057659762127993,36.105286230208,36.124334752443,0.00020404228984166,0.00020404228984166,0.00020404228984166,210424.48587994,0.017448551451079
35559759,0.99300077403268,0.016699660461228,0.0055665534870611,0.0055665534870403,0.0055665534871271,-0.0013889682211927,0.0013889682234318,8.1879687102352e-11,-7.9773345096713e-11,-1.4423312318886e-13,2.4319746460204e-12,-0.001418061538173,0.0014180615932141,-0.0014180615920689,0.0014180615397977,-0.0014180615372548,0.0014180615937829,-0.0014180615910513,0.001418061540388,-0.0013603402750653,0.0013603404360297,-0.001360340434726,0.0013603402778149,5.7858723632179e-13,-1.9713148953302e-12,-5.0961751976988e-13,-6.546172960086e-13,-0.0013889682230542,0.0013889682215535,-0.0014180615658045,0.0014180615653727,-0.0014180615660796,0.001418061565399,-0.0014180615669603,0.0014180615647072,-0.0014180615667858,0.0014180615644073,-0.0013603403570988,0.0013603403547262,-0.0013603403570319,0.0013603403551101,-0.0013603403552672,0.0013603403561355,-0.001360340358164,0.0013603403544491,-8.0853850911531e-11,8.0835878578221e-11,-0.0013889682222651,0.0013889682224092,-1.4879486618368e-14,1.3051786570997e-13,-0.0014180615926937,0.0014180615391565,-0.0014180615926635,0.0014180615388316,-0.0014180615388071,0.0014180615928854,-0.0014180615380589,0.001418061592499,-0.0013603402773544,0.0013603404362229,-0.0013603404358147,0.0013603402758507,0.0038174186118143,0.0035667267535195,0.75830380475447,0.51651470934527,1368840,32768,0.0057706490089604,0.0057706490089255,0.0057706490090635,36.381906299218,36.400842280842,0.00020625525039374,0.00020625525039374,0.00020625525039374,207936.61598861,0.017462814605281
35646159,0.99338347833297,0.016705998234238,0.0055686660780645,0.0055686660780436,0.0055686660781304,-0.0013898263652286,0.001389826367405,8.1866485152721e-11,-7.9783863834196e-11,-1.7671595439007e-13,2.3974627591584e-12,-0.0014190191769099,0.0014190192323712,-0.0014190192308345,0.0014190191785631,-0.0014190191759679,0.0014190192327519,-0.0014190192299969,0.0014190191789099,-0.0013611005657217,0.0013611007271028,-0.0013611007236362,0.0013611005684103,4.1812357955283e-13,-2.1250060825228e-12,-6.711734961104e-13,-7.4619367488367e-13,-0.0013898263671934,0.0013898263654651,-0.001419019204949,0.001419019204439,-0.0014190192048207,0.0014190192045387,-0.0014190192055257,0.0014190192034231,-0.0014190192058054,0.0014190192035506,-0.0013611006475848,0.0013611006455153,-0.0013611006479388,0.0013611006453835,-0.0013611006462891,0.0013611006474495,-0.0013611006486503,0.0013611006448488,-8.0729229836267e-11,8.0957861087033e-11,-0.0013898263662161,0.0013898263663985,2.8250725195031e-14,1.0661539003184e-13,-0.0014190192314536,0.001419019178428,-0.0014190192315325,0.0014190191775671,-0.0014190191782051,0.0014190192317679,-0.0014190191776774,0.0014190192313998,-0.0013611005674356,0.0013611007267279,-0.0013611007263624,0.0013611005678936,0.0038210107626507,0.0035688193499518,0.7544187855401,0.48189701858214,1368840,32768,0.005774203898075,0.0057742038981266,0.0057742038980358,36.658409800922,36.677349809241,0.00020846727840738,0.00020846727840738,0.00020846727840738,213422.42075684,0.017473665876543
35732559,0.99375070456513,0.016712111960921,0.0055707039869586,0.0055707039869377,0.0055707039870245,-0.0013907670258214,0.0013907670280162,8.1909634893349e-11,-7.9726014836737e-11,-1.6901048390455e-13,2.4209926873941e-12,-0.0014200115689866,0.0014200116240944,-0.0014200116227552,0.001420011570329,-0.0014200115681184,0.0014200116248875,-0.0014200116218911,0.0014200115711191,-0.0013619914023385,0.0013619915636304,-0.0013619915606148,0.0013619914052689,5.1170807355195e-13,-2.0503592452854e-12,-5.834981745313e-13,-6.8399248685198e-13,-0.0013907670276955,0.0013907670261249,-0.0014200115968374,0.0014200115962173,-0.0014200115967666,0.001420011596149,-0.0014200115976154,0.0014200115953553,-0.0014200115976698,0.0014200115953687,-0.0013619914840262,0.0013619914820223,-0.00136199148414,0.0013619914818536,-0.0013619914825119,0.0013619914835663,-0.0013619914851079,0.0013619914810727,-8.0772051233985e-11,8.0899988943223e-11,-0.0013907670268692,0.0013907670269962,9.5094447871069e-15,1.1154100426359e-13,-0.0014200116235201,0.0014200115697199,-0.0014200116233103,0.0014200115695747,-0.0014200115695884,0.0014200116236144,-0.0014200115694342,0.0014200116234846,-0.0013619914038095,0.0013619915623914,-0.0013619915620679,0.001361991403873,0.0038249460225111,0.0035708356787115,0.75855708353691,0.56758625417522,1368840,32768,0.0057781006793117,0.0057781006792759,0.0057781006793691,36.934901855933,36.953857337639,0.00021067921484746,0.00021067921484746,0.00021067921484746,215654.20562749,0.017485560737643
35818959,0.99410275388729,0.016718007313223,0.0055726691043927,0.0055726691043718,0.0055726691044585,-0.0013919624351897,0.0013919624372787,8.1865307188707e-11,-7.971499887915e-11,-2.2648602218396e-13,2.3625397083866e-12,-0.0014211212544894,0.0014211213096095,-0.0014211213085768,0.0014211212555931,-0.0014211212534974,0.0014211213105793,-0.001421121307398,0.0014211212565432,-0.0013632705589798,0.0013632707201799,-0.0013632707170442,0.0013632705617804,5.7296190817171e-13,-1.9872417617165e-12,-6.6415521051421e-13,-7.3414063133118e-13,-0.001391962437073,0.0013919624354569,-0.0014211212824321,0.0014211212818379,-0.0014211212823403,0.0014211212819657,-0.0014211212830196,0.0014211212811693,-0.0014211212831762,0.0014211212809672,-0.0013632706400322,0.0013632706382618,-0.0013632706400491,0.0013632706379182,-0.0013632706385599,0.0013632706395993,-0.001363270640716,0.0013632706370794,-8.0739853041147e-11,8.0875224787986e-11,-0.0013919624361842,0.0013919624362921,2.9782354875384e-14,1.0014458771041e-13,-0.0014211213092286,0.001421121255607,-0.0014211213087661,0.0014211212554049,-0.0014211212551603,0.0014211213092306,-0.0014211212549968,0.0014211213090703,-0.0013632705593101,0.0013632707179969,-0.001363270717812,0.0013632705596905,0.0038299436244425,0.0035727776431307,0.76309513631449,0.65327548976828,1368840,32768,0.0057830529285552,0.0057830529286825,0.0057830529285716,37.211394105385,37.230364866037,0.00021289115284308,0.00021289115284308,0.00021289115284308,209016.32579312,0.01750067726642
35905359,0.99443993891886,0.016723692188646,0.005574564062867,0.0055745640628461,0.0055745640629327,-0.001393130577007,0.0013931305793593,8.1965806294999e-11,-7.9591430595252e-11,4.6009770903669e-15,2.4821447604167e-12,-0.0014222063605729,0.0014222064160024,-0.0014222064144189,0.0014222063620166,-0.0014222063596696,0.0014222064165917,-0.0014222064136076,0.0014222063627811,-0.0013645202325673,0.0013645203945502,-0.0013645203911511,0.0013645202360452,5.826494357538e-13,-1.8680901076001e-12,-5.060161886116e-13,-5.7513554765087e-13,-0.0013931305788985,0.001393130577471,-0.0014222063883757,0.0014222063879209,-0.001422206388142,0.001422206387869,-0.0014222063892236,0.0014222063871062,-0.0014222063892837,0.0014222063871092,-0.0013645203144909,0.0013645203123034,-0.0013645203143336,0.0013645203123243,-0.0013645203140678,0.001364520313975,-0.0013645203158182,0.0013645203116426,-8.0678288921888e-11,8.091513730398e-11,-0.001393130578092,0.0013931305783642,8.1625241699013e-14,1.5155189960526e-13,-0.0014222064150716,0.0014222063616382,-0.0014222064149705,0.001422206361129,-0.0014222063610908,0.0014222064151808,-0.0014222063610376,0.0014222064152617,-0.0013645202340741,0.0013645203929278,-0.0013645203926833,0.0013645202345695,0.0038348266277017,0.0035746478616142,0.76829528334057,0.73896472536138,1368840,32768,0.0057878921946864,0.0057878921946929,0.0057878921948724,37.487888661892,37.506872394437,0.00021510310929514,0.00021510310929514,0.00021510310929514,202722.67854979,0.017515449115188
35991759,0.99476258279558,0.016729186451039,0.0055763954836647,0.0055763954836439,0.0055763954837306,-0.0013942738471965,0.0013942738495857,8.2011179908866e-11,-7.9542898019066e-11,-1.6567493874434e-14,2.432769504091e-12,-0.0014232696150615,0.0014232696704079,-0.0014232696688381,0.0014232696165398,-0.0014232696143283,0.0014232696712051,-0.0014232696679797,0.0014232696177807,-0.0013657423067668,0.0013657424685366,-0.0013657424640369,0.0013657423093491,4.9349689459685e-13,-1.9299257479755e-12,-5.6368057406303e-13,-6.4988702875031e-13,-0.0013942738491491,0.0013942738476331,-0.0014232696428239,0.00142326964228,-0.0014232696425605,0.0014232696424574,-0.0014232696438148,0.0014232696416032,-0.0014232696439308,0.0014232696417328,-0.0013657423879857,0.0013657423863454,-0.0013657423876698,0.0013657423856724,-0.0013657423864956,0.0013657423876897,-0.0013657423887291,0.001365742385325,-8.0780641383326e-11,8.0810922605314e-11,-0.0013942738483691,0.0013942738484406,4.3816073213746e-14,1.3149533584893e-13,-0.0014232696695816,0.0014232696161185,-0.0014232696697288,0.0014232696156292,-0.0014232696158942,0.0014232696699079,-0.001423269615836,0.0014232696696705,-0.0013657423070339,0.001365742466403,-0.0013657424658306,0.0013657423084685,0.0038396050801957,0.0035764524302479,0.776024950541,0.8398633241424,1368840,32768,0.0057926284041656,0.0057926284041658,0.0057926284042226,37.764389710141,37.783379922835,0.00021731511768113,0.00021731511768113,0.00021731511768113,196714.74226066,0.017529906570065
36078159,0.9950710179115,0.016734428456626,0.0055781428188603,0.0055781428188395,0.0055781428189261,-0.0013954159607805,0.0013954159629067,8.1858871032386e-11,-7.9775448679509e-11,-1.1602916127112e-13,2.3281680525347e-12,-0.0014243217573807,0.0014243218125135,-0.0014243218111527,0.0014243217587198,-0.001424321756561,0.0014243218132442,-0.0014243218103371,0.0014243217594326,-0.0013669700089005,0.0013669701698468,-0.0013669701668462,0.0013669700117155,4.908686219476e-13,-1.9254350616335e-12,-5.3533188127261e-13,-6.5267873758317e-13,-0.0013954159625832,0.0013954159610935,-0.001424321785278,0.0014243217846561,-0.0014243217851723,0.0014243217845836,-0.0014243217859646,0.0014243217838394,-0.0014243217860389,0.0014243217838593,-0.0013669700901017,0.0013669700884371,-0.0013669700904118,0.0013669700882274,-0.0013669700888721,0.0013669700895845,-0.001366970091135,0.0013669700874486,-8.0754359127408e-11,8.0916766754201e-11,-0.001395415961789,0.0013954159619324,-9.1106040302418e-16,1.1779384265543e-13,-0.0014243218119337,0.0014243217581738,-0.0014243218117547,0.001424321758031,-0.0014243217580518,0.0014243218120626,-0.0014243217578534,0.0014243218119583,-0.0013669700099898,0.0013669701683684,-0.0013669701680344,0.001366970010196,0.0038443797964611,0.0035781743084144,0.77439334869267,0.78666727259295,1368840,32768,0.005797359796401,0.0057973597963792,0.005797359796472,38.040878146518,38.059887451234,0.00021952702517215,0.00021952702517215,0.00021952702517215,190111.38554132,0.017544349547372
36164559,0.99535960164138,0.016739316829301,0.0055797722764185,0.0055797722763977,0.0055797722764843,-0.0013955001835649,0.0013955001856912,8.1899685079662e-11,-7.9769565565116e-11,-1.1827973957632e-13,2.3234227857346e-12,-0.0014244626291284,0.0014244626842966,-0.0014244626830029,0.0014244626308146,-0.0014244626286036,0.0014244626851965,-0.001424462682518,0.0014244626315543,-0.0013670013007101,0.0013670014611747,-0.0013670014580415,0.0013670013028814,5.2119393082435e-13,-1.8924081882288e-12,-5.6487944920293e-13,-6.409364492432e-13,-0.0013955001854051,0.0013955001838834,-0.0014244626574773,0.0014244626566612,-0.0014244626573901,0.0014244626566057,-0.0014244626582379,0.0014244626558613,-0.0014244626582016,0.0014244626558954,-0.001367001381906,0.0013670013797527,-0.0013670013817032,0.0013670013795287,-0.0013670013803294,0.0013670013812727,-0.0013670013822041,0.0013670013792739,-8.0808116191048e-11,8.0897872449056e-11,-0.0013955001846292,0.0013955001846878,-9.7230264976264e-15,6.8296443002311e-14,-0.001424462683943,0.0014244626299736,-0.0014244626837695,0.0014244626300424,-0.001424462630018,0.0014244626839836,-0.0014244626299297,0.0014244626837837,-0.0013670013012197,0.0013670014596971,-0.0013670014591105,0.0013670013016791,0.0038447240489809,0.0035797800254157,0.77169770820444,0.73857756615454,1368840,32768,0.0057977085959711,0.0057977085960384,0.0057977085960973,37.926187494211,37.919244904879,0.00021860949995369,0.00021860949995369,0.00021860949995369,192399.18581207,0.017545414632915
36250959,0.99562929429156,0.016743876666153,0.0055812922220359,0.0055812922220152,0.0055812922221018,-0.0013955038774119,0.0013955038795584,8.1908971913603e-11,-7.9757525462345e-11,-1.0794387885918e-13,2.3167864590581e-12,-0.0014245146719091,0.0014245147270454,-0.0014245147256713,0.0014245146732626,-0.0014245146711023,0.0014245147277363,-0.0014245147248804,0.0014245146739717,-0.0013669588419998,0.0013669590031959,-0.0013669590001902,0.0013669588449913,5.0450008786862e-13,-1.8922317818532e-12,-5.484109523042e-13,-6.2733477652967e-13,-0.0013955038792186,0.0013955038777405,-0.0014245146997909,0.0014245146991542,-0.0014245146996913,0.001424514699093,-0.0014245147004777,0.001424514698375,-0.0014245147005405,0.0014245146983837,-0.001366958923656,0.0013669589218512,-0.0013669589236506,0.0013669589215023,-0.0013669589220563,0.0013669589231712,-0.0013669589244535,0.0013669589209466,-8.0796167144319e-11,8.0906953406934e-11,-0.0013955038784371,0.0013955038785596,2.5298462443456e-14,1.0592585227322e-13,-0.0014245147264607,0.0014245146726749,-0.0014245147262515,0.0014245146725078,-0.0014245146725326,0.0014245147265491,-0.0014245146723774,0.0014245147264202,-0.0013669588433282,0.001366959001749,-0.0013669590016171,0.0013669588435321,0.0038447258825635,0.003581277299565,0.77025751775376,0.71962407070668,1368840,32768,0.0057977238326283,0.0057977238326053,0.0057977238326832,37.782680165216,37.772938412369,0.00021746144132173,0.00021746144132173,0.00021746144132173,194527.0709535,0.017545461318607
36337359,0.99588140849619,0.016748130063961,0.0055827100213052,0.0055827100212845,0.005582710021371,-0.0013955282655774,0.0013955282677159,8.1900875749171e-11,-7.9756819719199e-11,-1.2780374274221e-13,2.3111610426754e-12,-0.0014245606280151,0.0014245606831318,-0.0014245606817794,0.0014245606293615,-0.0014245606271993,0.0014245606838715,-0.001424560680958,0.0014245606300919,-0.0013669625599082,0.001366962721108,-0.0013669627181812,0.0013669625628664,4.7363488372059e-13,-1.9374546944419e-12,-5.5881513446358e-13,-6.4949427604276e-13,-0.0013955282673935,0.0013955282658894,-0.0014245606558925,0.0014245606552745,-0.0014245606557866,0.0014245606551865,-0.0014245606565985,0.0014245606544558,-0.00142456065666,0.0014245606544788,-0.0013669626414612,0.0013669626395687,-0.0013669626415295,0.001366962639399,-0.001366962640031,0.0013669626409405,-0.0013669626424746,0.001366962638638,-8.0798139672295e-11,8.0896238175453e-11,-0.0013955282666028,0.0013955282667222,1.4063688011044e-14,1.0632045786535e-13,-0.0014245606825557,0.0014245606287797,-0.0014245606823723,0.0014245606286384,-0.0014245606286377,0.0014245606826458,-0.0014245606284808,0.0014245606825456,-0.0013669625612043,0.0013669627196696,-0.0013669627195003,0.0013669625613037,0.0038448125100035,0.0035826734509625,0.76859244997176,0.70067057525883,1368840,32768,0.0057978248318254,0.005797824831804,0.0057978248318911,37.636650560183,37.626631919859,0.00021629320448146,0.00021629320448146,0.00021629320448146,195120.15923454,0.017545769719702
36423759,0.99611719091442,0.016752098540399,0.0055840328467847,0.005584032846764,0.0055840328468505,-0.001395528043672,0.001395528045817,8.1905343553859e-11,-7.9752187684234e-11,-1.231947070745e-13,2.3186605782756e-12,-0.0014245823845822,0.0014245824396875,-0.0014245824383395,0.0014245823859201,-0.0014245823837635,0.0014245824404431,-0.0014245824375224,0.0014245823866663,-0.0013669413159242,0.0013669414771997,-0.0013669414741741,0.0013669413188877,4.615106070501e-13,-1.9525665857252e-12,-5.4171362749111e-13,-6.6289895477432e-13,-0.0013955280454943,0.0013955280439846,-0.0014245824124521,0.0014245824118495,-0.0014245824123584,0.0014245824117682,-0.001424582413178,0.0014245824110276,-0.0014245824132425,0.00142458241105,-0.0013669413975356,0.0013669413956535,-0.0013669413975655,0.0013669413954493,-0.0013669413960682,0.0013669413969102,-0.0013669413985355,0.0013669413946485,-8.0784990662223e-11,8.0909174456729e-11,-0.0013955280446974,0.0013955280448253,-2.0654663131866e-15,1.2060593321859e-13,-0.0014245824391227,0.0014245823853484,-0.001424582438926,0.0014245823852014,-0.0014245823852088,0.001424582439218,-0.0014245823850416,0.0014245824391078,-0.0013669413172464,0.001366941475791,-0.0013669414756076,0.0013669413174436,0.0038447959829619,0.0035839756006178,0.76676491555472,0.68171707981096,1368840,32768,0.00579782388271,0.0057978238826888,0.0057978238827796,37.490368920314,37.480325427349,0.00021512295136251,0.00021512295136251,0.00021512295136251,195791.05132637,0.017545766904905
36510159,0.99633779636247,0.016755796050323,0.0055852653500927,0.005585265350072,0.0055852653501586,-0.001395504941835,0.0013955049440002,8.1913085611462e-11,-7.976711158126e-11,-1.2205815356013e-13,2.3298534128128e-12,-0.0014245814589264,0.0014245815140082,-0.0014245815126498,0.0014245814602487,-0.0014245814580688,0.0014245815147343,-0.0014245815118287,0.0014245814609875,-0.0013668968351925,0.0013668969962141,-0.0013668969932792,0.0013668968379349,5.0480622557514e-13,-1.9191576063466e-12,-5.5722012436651e-13,-6.651795909848e-13,-0.001395504943672,0.0013955049421681,-0.0014245814866873,0.0014245814861645,-0.0014245814867012,0.0014245814861211,-0.0014245814875508,0.0014245814854077,-0.0014245814876482,0.0014245814853093,-0.0013668969166907,0.0013668969146379,-0.0013668969166398,0.0013668969145332,-0.0013668969151609,0.0013668969163012,-0.0013668969174524,0.0013668969140482,-8.0775720592476e-11,8.0941020483855e-11,-0.0013955049428385,0.0013955049430196,2.4992912954253e-14,1.3439965888856e-13,-0.0014245815133946,0.0014245814596756,-0.0014245815131401,0.00142458145958,-0.0014245814595427,0.0014245815135866,-0.0014245814593204,0.0014245815133964,-0.001366896836462,0.0013668969950746,-0.0013668969946145,0.0013668968365759,0.00384468376523,0.0035851886533072,0.76352719176938,0.64361939518235,1368840,32768,0.0057977281505794,0.0057977281505893,0.0057977281506267,37.344061745213,37.334018934839,0.0002139524939617,0.0002139524939617,0.0002139524939617,196535.3280663,0.017545474754204
36596559,0.9965442923228,0.016759207080563,0.0055864023601725,0.0055864023601518,0.0055864023602384,-0.0013954194999063,0.0013954195020681,8.1930963359427e-11,-7.9764834944927e-11,-1.4475398962969e-13,2.3423758537902e-12,-0.0014245396003209,0.0014245396554394,-0.0014245396540678,0.0014245396016396,-0.0014245395994567,0.0014245396561476,-0.001424539653183,0.0014245396023837,-0.0013667688474228,0.0013667690088923,-0.0013667690059554,0.0013667688506217,4.8333820493785e-13,-1.9758913437581e-12,-5.8168702397835e-13,-6.7919916269651e-13,-0.0013954195017564,0.0013954195002076,-0.00142453962817,0.0014245396275642,-0.0014245396280705,0.0014245396275049,-0.0014245396289173,0.0014245396266974,-0.0014245396290015,0.0014245396267465,-0.001366768929253,0.0013667689273249,-0.0013667689291201,0.00136676892715,-0.001366768927704,0.0013667689285938,-0.0013667689301654,0.0013667689263406,-8.080550391791e-11,8.092669453915e-11,-0.0013954195009434,0.0013954195010654,5.4207167537653e-15,1.0442860389548e-13,-0.0014245396548294,0.0014245396010762,-0.0014245396546627,0.0014245396009477,-0.0014245396009203,0.0014245396549222,-0.001424539600792,0.0014245396548434,-0.0013667688488334,0.0013667690073266,-0.0013667690073768,0.0013667688489125,0.0038443119568968,0.0035863090746142,0.75235125064871,0.49481447623482,1368840,32768,0.005797374142626,0.0057973741426042,0.0057973741426971,37.197752423184,37.187712442329,0.00021278201938547,0.00021278201938547,0.00021278201938547,198601.35917573,0.017544394248731
36682959,0.99673766566466,0.016762396929807,0.005587465643254,0.0055874656432334,0.0055874656433199,-0.0013950707326259,0.0013950707348221,8.1962318283908e-11,-7.9727231270164e-11,-1.0705331782992e-13,2.3546415967273e-12,-0.0014243533261793,0.0014243533813124,-0.0014243533798744,0.0014243533276644,-0.0014243533254675,0.0014243533818814,-0.0014243533789231,0.0014243533283751,-0.0013662635098547,0.00136626367105,-0.0013662636679024,0.0013662635126183,4.8538449536626e-13,-1.9507609350043e-12,-4.8487524621759e-13,-5.6435237706933e-13,-0.0013950707345302,0.0013950707330918,-0.001424353354964,0.0014243533546524,-0.0014243533550963,0.0014243533545692,-0.0014243533558145,0.0014243533537854,-0.0014243533557642,0.0014243533537018,-0.0013662635917114,0.0013662635898979,-0.0013662635919614,0.001366263589479,-0.0013662635884319,0.0013662635892739,-0.0013662635909194,0.0013662635868929,-8.0764639989805e-11,8.0961333657419e-11,-0.0013950707337508,0.0013950707339175,2.8305929390934e-14,1.088621743353e-13,-0.0014243533817039,0.0014243533280651,-0.0014243533816666,0.001424353327897,-0.0014243533278409,0.0014243533818133,-0.0014243533276413,0.0014243533817314,-0.0013662635093616,0.0013662636681998,-0.0013662636678461,0.0013662635097489,0.0038428402610821,0.0035873561547313,0.75133974880215,0.50361884622485,1368840,32768,0.0057959291618412,0.0057959291622027,0.0057959291622984,37.051441906424,37.041405949818,0.00021161153525139,0.00021161153525139,0.00021161153525139,208436.88814138,0.017539983621519
36769359,0.99691882908634,0.016765349901797,0.0055884499672504,0.0055884499672302,0.0055884499673168,-0.0013950391727228,0.0013950391749694,8.1975249300639e-11,-7.9695382184309e-11,-8.7039517473076e-14,2.3574064534393e-12,-0.0014243229301299,0.0014243229851421,-0.0014243229836959,0.0014243229316015,-0.0014243229294433,0.0014243229863397,-0.0014243229832919,0.0014243229323658,-0.0013662309168938,0.001366231078189,-0.0013662310752274,0.0013662309204877,4.7330280563006e-13,-1.9445775944893e-12,-5.5764740543102e-13,-6.0380955403259e-13,-0.00139503917461,0.0013950391731357,-0.0014243229583955,0.0014243229579568,-0.0014243229582643,0.0014243229576582,-0.0014243229588174,0.00142432295677,-0.0014243229590819,0.00142432295689,-0.0013662309984414,0.001366230996467,-0.0013662309987897,0.0013662309967995,-0.0013662309967839,0.0013662309969651,-0.0013662309990744,0.0013662309951814,-8.0754826877824e-11,8.0952286963201e-11,-0.0013950391737655,0.0013950391739237,4.0556231623198e-14,8.841753419914e-14,-0.001424322984769,0.0014243229311083,-0.001424322984621,0.0014243229309283,-0.0014243229310431,0.0014243229848819,-0.0014243229311017,0.0014243229850624,-0.0013662309177881,0.0013662310758412,-0.0013662310760769,0.0013662309179541,0.0038426925477236,0.0035883261933086,0.74241183315494,0.39412218432033,1368840,32768,0.0057957984187259,0.0057957984188369,0.0057957984187198,36.90513109025,36.895099457309,0.000210441048722,0.000210441048722,0.000210441048722,207782.97304018,0.017539584561408
36855759,0.9970886472042,0.016768133407271,0.0055893778024083,0.0055893778023882,0.0055893778024747,-0.0013947175385751,0.0013947175407222,8.1906603221259e-11,-7.9758024388279e-11,-1.2467101491548e-13,2.3152318006695e-12,-0.0014241388953411,0.0014241389504438,-0.001424138949086,0.0014241388966624,-0.0014241388944953,0.0014241389512021,-0.0014241389482527,0.0014241388974221,-0.0013657773815728,0.0013657775428808,-0.0013657775398402,0.0013657773844736,4.6441707708296e-13,-1.9473796853579e-12,-5.9339637214815e-13,-6.3262155619865e-13,-0.0013947175404355,0.001394717538907,-0.0014241389236673,0.0014241389230702,-0.0014241389235802,0.0014241389230105,-0.0014241389244207,0.0014241389222201,-0.0014241389244649,0.0014241389222641,-0.0013657774630635,0.0013657774610494,-0.0013657774630244,0.0013657774609945,-0.001365777461054,0.0013657774618354,-0.0013657774633714,0.0013657774595567,-8.0796718715704e-11,8.0904215108234e-11,-0.0013947175396377,0.0013947175397451,2.9059318140131e-14,7.0082182566841e-14,-0.0014241389503658,0.0014241388965817,-0.0014241389501738,0.0014241388964074,-0.001424138896456,0.0014241389504534,-0.0014241388963027,0.0014241389503337,-0.0013657773822013,0.0013657775408088,-0.0013657775405648,0.0013657773823487,0.003841333193475,0.003589239018289,0.74664028773133,0.48233473831714,1368840,32768,0.0057944658748845,0.0057944658749784,0.005794465875062,36.761053556129,36.751173458722,0.00020928842844903,0.00020928842844903,0.00020928842844903,216015.45407614,0.017535517099961
36942159,0.99725019028488,0.016770796793409,0.0055902655977876,0.0055902655977676,0.0055902655978541,-0.0013953793592727,0.0013953793614323,8.1926509613132e-11,-7.9767949379195e-11,-1.1082367323638e-13,2.3330382566945e-12,-0.0014246958191539,0.0014246958743484,-0.0014246958728734,0.001424695820388,-0.0014246958184776,0.001424695875192,-0.0014246958725071,0.001424695821411,-0.0013665394566378,0.0013665396179609,-0.001366539614781,0.0013665394591859,4.5934699667632e-13,-1.9561544761176e-12,-5.5269258620911e-13,-6.1142596841519e-13,-0.0013953793611103,0.0013953793595744,-0.0014246958473122,0.0014246958465026,-0.0014246958471242,0.0014246958463987,-0.0014246958480209,0.0014246958457812,-0.0014246958479177,0.0014246958458469,-0.001366539538312,0.0013665395364379,-0.001366539538019,0.0013665395363119,-0.0013665395367876,0.0013665395375127,-0.0013665395391522,0.0013665395353341,-8.078304095708e-11,8.0947761277928e-11,-0.0013953793603107,0.0013953793604354,4.6856921494389e-14,1.063455747451e-13,-0.0014246958740846,0.0014246958200696,-0.0014246958737462,0.001424695819952,-0.00142469581998,0.0014246958740227,-0.0014246958198768,0.0014246958738455,-0.0013665394576504,0.001366539616633,-0.0013665396162057,0.0013665394579497,0.003844090305854,0.0035901111082637,0.75121815219199,0.57054729231395,1368840,32768,0.005797207645657,0.0057972076456148,0.0057972076457423,36.885901058077,36.893817057454,0.00021028720846462,0.00021028720846462,0.00021028720846462,208983.54944084,0.017543886436078
37028559,0.99740393070626,0.01677334807863,0.0055911160261943,0.0055911160261743,0.0055911160262609,-0.001396050595104,0.0013960505972521,8.1954334468985e-11,-7.9782142239731e-11,-1.4095322338754e-13,2.3027758282497e-12,-0.0014252729003372,0.0014252729555412,-0.0014252729540473,0.0014252729015938,-0.0014252728994722,0.0014252729560923,-0.0014252729533149,0.0014252729022931,-0.0013673023102842,0.0013673024712456,-0.0013673024683133,0.0013673023126496,5.4392597167022e-13,-1.872508266746e-12,-4.8145470365399e-13,-5.9153495842483e-13,-0.0013960505968696,0.0013960505954686,-0.0014252729280644,0.001425272927593,-0.0014252729281083,0.001425272927461,-0.0014252729288017,0.0014252729269053,-0.001425272928676,0.0014252729267045,-0.0013673023915499,0.0013673023894211,-0.0013673023916117,0.0013673023893188,-0.0013673023898591,0.001367302391327,-0.0013673023929729,0.001367302388756,-8.080821401159e-11,8.0964501237122e-11,-0.0013960505961218,0.0013960505962792,-1.2486147968515e-14,9.8010211737661e-14,-0.0014252729548333,0.00142527290091,-0.0014252729546805,0.0014252729008151,-0.0014252729008318,0.0014252729548915,-0.0014252729005881,0.0014252729548583,-0.0013673023107755,0.001367302469856,-0.0013673024688639,0.0013673023111932,0.0038468895286904,0.0035909452024285,0.75613196944446,0.65875984631078,1368840,32768,0.0057999883916269,0.0057999883915899,0.00579998839172,37.02686569897,37.036460656189,0.00021141492559175,0.00021141492559175,0.00021141492559175,202543.5957783,0.017552374894829
37114959,0.99755018939214,0.016775793253152,0.0055919310843686,0.0055919310843486,0.0055919310844351,-0.0013967042133598,0.0013967042154629,8.1908822976977e-11,-7.9810708778807e-11,-1.540173536991e-13,2.3094326248892e-12,-0.0014258383760964,0.0014258384313344,-0.0014258384299179,0.0014258383775073,-0.0014258383754571,0.0014258384319583,-0.0014258384291135,0.0014258383782838,-0.0013680419894528,0.0013680421508107,-0.0013680421480824,0.0013680419921841,5.0712591941597e-13,-1.9287958413169e-12,-5.3052793979443e-13,-6.7429393019505e-13,-0.0013967042151683,0.0013967042136398,-0.0014258384041895,0.0014258384034209,-0.001425838404115,0.0014258384033088,-0.001425838404733,0.0014258384027457,-0.001425838404818,0.0014258384025969,-0.0013680420710726,0.0013680420690871,-0.0013680420714898,0.0013680420693531,-0.0013680420696982,0.001368042070992,-0.0013680420721903,0.0013680420682496,-8.0912492355369e-11,8.0843697398185e-11,-0.0013967042144365,0.0013967042144202,-1.102048980219e-13,3.5308480173697e-14,-0.00142583843084,0.0014258383769376,-0.0014258384306786,0.0014258383767705,-0.0014258383769122,0.0014258384308239,-0.0014258383767136,0.001425838430799,-0.0013680419909185,0.0013680421497464,-0.001368042149418,0.0013680419906969,0.0038496152873547,0.0035917433052956,0.76176913096733,0.7469724003076,1368840,32768,0.0058026961422734,0.0058026961422433,0.0058026961423438,37.169337968487,37.179104254921,0.00021255470374789,0.00021255470374789,0.00021255470374789,196526.45576272,0.017560640600093
37201359,0.9976892661873,0.016778140527972,0.0055927135093086,0.0055927135092886,0.0055927135093752,-0.0013973398785063,0.0013973398806544,8.1979418702678e-11,-7.9773334332336e-11,-1.3950332650443e-13,2.3371370138332e-12,-0.0014263905833221,0.0014263906384753,-0.0014263906373261,0.0014263905848558,-0.0014263905826925,0.0014263906395541,-0.0014263906365391,0.0014263905855223,-0.0013687585632809,0.0013687587245203,-0.0013687587208944,0.001368758565691,4.1582779674624e-13,-2.0331326538989e-12,-5.6660316125059e-13,-7.1682371917448e-13,-0.0013973398803517,0.0013973398787592,-0.0014263906113173,0.0014263906107982,-0.0014263906112563,0.0014263906104121,-0.0014263906120846,0.0014263906098171,-0.0014263906121409,0.0014263906096595,-0.0013687586450128,0.0013687586430427,-0.0013687586447884,0.0013687586427549,-0.0013687586433329,0.0013687586443324,-0.0013687586456226,0.0013687586419176,-8.0773286196257e-11,8.1016020839704e-11,-0.0013973398794961,0.0013973398797044,3.2824938397134e-14,1.8403937772334e-13,-0.0014263906379511,0.0014263905840551,-0.001426390637723,0.001426390584005,-0.001426390584075,0.0014263906383706,-0.0014263905838535,0.0014263906381189,-0.0013687585644555,0.0013687587233563,-0.0013687587227658,0.0013687585652606,0.0038522662027489,0.0035925080833159,0.76905403917948,0.83518495430442,1368840,32768,0.005805329507812,0.0058053295077086,0.0058053295078943,37.311964290025,37.321747853654,0.0002136957143202,0.0002136957143202,0.0002136957143202,190827.69471005,0.017568679305143
37287759,0.99782145128665,0.016780379596808,0.0055934598655873,0.0055934598655673,0.0055934598656538,-0.0013979590639273,0.0013979590660898,8.1968815791296e-11,-7.9767615624685e-11,-1.5259210312188e-13,2.3348651420609e-12,-0.0014269292141875,0.0014269292693375,-0.001426929267986,0.001426929215541,-0.0014269292133907,0.0014269292700941,-0.0014269292671653,0.0014269292163184,-0.0013694534153089,0.0013694535768054,-0.0013694535736735,0.0013694534184259,4.8016033143147e-13,-1.9796072890621e-12,-5.0574281461005e-13,-6.9200000693362e-13,-0.0013979590657616,0.0013979590642484,-0.001426929242105,0.0014269292415053,-0.0014269292420131,0.0014269292413915,-0.0014269292428196,0.0014269292406672,-0.0014269292429033,0.001426929240675,-0.0013694534969152,0.0013694534951601,-0.0013694534970212,0.0013694534949723,-0.0013694534955543,0.0013694534964233,-0.0013694534980739,0.0013694534940537,-8.0815417262123e-11,8.0957731149826e-11,-0.001397959064953,0.001397959065098,-3.4555767874423e-14,1.5289053518145e-13,-0.0014269292687693,0.0014269292149668,-0.0014269292685531,0.0014269292148527,-0.0014269292148322,0.0014269292688693,-0.0014269292146433,0.001426929268778,-0.0013694534165848,0.0013694535752229,-0.0013694535751234,0.0013694534168985,0.0038548494113665,0.0035932369309434,0.77179364359653,0.83535768926572,1368840,32768,0.0058078945829583,0.0058078945829436,0.0058078945830284,37.454603285547,37.464391452387,0.00021483682628437,0.00021483682628437,0.00021483682628437,185309.98526682,0.017576509642993
37374159,0.99794702640774,0.01678248366484,0.0055941612215977,0.0055941612215777,0.0055941612216643,-0.0013984123331554,0.0013984123354254,8.2072479271507e-11,-7.9706010212571e-11,-7.8973881519776e-14,2.370270472217e-12,-0.0014273803068916,0.0014273803621413,-0.0014273803607662,0.0014273803082472,-0.0014273803060394,0.0014273803628745,-0.0014273803597634,0.0014273803090496,-0.001369905890669,0.0013699060529943,-0.0013699060491839,0.0013699058945083,4.7046292179832e-13,-1.9511099831646e-12,-5.2812160154171e-13,-7.3205410683777e-13,-0.0013984123350193,0.0013984123334919,-0.0014273803346733,0.0014273803341208,-0.001427380334799,0.0014273803340784,-0.0014273803353029,0.0014273803332462,-0.0014273803355878,0.0014273803333493,-0.0013699059725513,0.0013699059708271,-0.0013699059731122,0.0013699059706492,-0.0013699059713308,0.001369905971913,-0.0013699059732166,0.0013699059699675,-8.0818515873345e-11,8.0996878071561e-11,-0.0013984123342182,0.0013984123343505,-8.0887764228444e-14,1.239347727013e-13,-0.0014273803615009,0.0014273803077226,-0.0014273803612835,0.0014273803075208,-0.0014273803074575,0.0014273803615675,-0.0014273803072928,0.0014273803613553,-0.0013699058922099,0.0013699060507861,-0.0013699060513872,0.0013699058929192,0.0038567422179192,0.003593922407365,0.76324219783879,0.69221870270664,1368840,32768,0.0058097722408847,0.0058097722407406,0.0058097722408597,37.597237372715,37.60703505112,0.00021597789898172,0.00021597789898172,0.00021597789898172,184525.17410188,0.017582241746124
37460559,0.99806626505448,0.016784464687809,0.0055948215625876,0.0055948215625676,0.0055948215626542,-0.0013985904142921,0.0013985904163924,8.1936446309573e-11,-7.9823903081613e-11,-1.2772474515553e-13,2.2881022765167e-12,-0.0014276856432919,0.0014276856983564,-0.0014276856971352,0.0014276856445342,-0.0014276856423888,0.0014276856992784,-0.001427685696338,0.0014276856455115,-0.0013699608850996,0.0013699610470147,-0.0013699610437564,0.0013699608879759,4.5179749201439e-13,-1.9361739100396e-12,-4.8307330126577e-13,-6.8780725266644e-13,-0.001398590416127,0.0013985904146145,-0.0014276856714977,0.0014276856709131,-0.0014276856714765,0.0014276856706894,-0.0014276856720792,0.0014276856701291,-0.0014276856722589,0.0014276856700437,-0.001369960967616,0.0013699609659151,-0.0013699609681622,0.0013699609657376,-0.0013699609656061,0.0013699609661587,-0.0013699609676713,0.0013699609635191,-8.0793440168803e-11,8.100343466538e-11,-0.0013985904152817,0.0013985904154822,-2.2656543152276e-14,1.8286476654808e-13,-0.0014276856981171,0.0014276856440872,-0.0014276856979897,0.0014276856443245,-0.0014276856440867,0.0014276856983643,-0.0014276856440323,0.001427685698173,-0.0013699608863762,0.0013699610454474,-0.0013699610452235,0.0013699608866994,0.0038574860707517,0.0035945680473428,0.75669953325505,0.60349791642628,1368840,32768,0.0058105097862205,0.0058105097863387,0.0058105097863853,37.739874779567,37.749678649853,0.00021711899823653,0.00021711899823653,0.00021711899823653,191992.83601925,0.017584493631406
37546959,0.99817943252105,0.016786334830779,0.0055954449435776,0.0055954449435576,0.0055954449436442,-0.0013988375536894,0.0013988375558991,8.197148970961e-11,-7.9734326994571e-11,-1.6283031976315e-15,2.346629606194e-12,-0.0014280243954661,0.0014280244506673,-0.0014280244491775,0.0014280243968392,-0.0014280243946342,0.0014280244512819,-0.0014280244484383,0.0014280243975781,-0.0013701202724401,0.0013701204340733,-0.0013701204307989,0.0013701202751431,4.6664292084967e-13,-1.8529543935152e-12,-4.8608459162586e-13,-6.4305756091528e-13,-0.00139883755562,0.0013988375541835,-0.0014280244249494,0.0014280244241595,-0.0014280244247353,0.0014280244241822,-0.0014280244253774,0.00142802442349,-0.0014280244255132,0.0014280244233061,-0.001370120355039,0.0013701203531865,-0.0013701203549768,0.0013701203529625,-0.0013701203514383,0.0013701203522945,-0.0013701203533814,0.0013701203496777,-8.0781276540393e-11,8.0960544563878e-11,-0.0013988375548424,0.0013988375550414,2.2863419185297e-14,1.8169439053756e-13,-0.0014280244514065,0.0014280243976097,-0.001428024451211,0.0014280243974354,-0.0014280243976446,0.0014280244516151,-0.0014280243974383,0.0014280244514457,-0.0013701202721544,0.0013701204313721,-0.0013701204308661,0.0013701202727855,0.0038585163401919,0.0035951774789006,0.75270473987947,0.5607572743346,1368840,32768,0.0058115334662094,0.0058115334666558,0.0058115334668221,37.882513287648,37.892322248586,0.00021826010630118,0.00021826010630118,0.00021826010630118,197258.2872928,0.017587618885387
37633359,0.99828674674598,0.016788098518957,0.0055960328396364,0.0055960328396168,0.0055960328397034,-0.0013991473980449,0.0013991474001272,8.1887555156106e-11,-7.9823780555944e-11,-8.0607243386398e-14,2.2369129579623e-12,-0.0014283844255213,0.0014283844807689,-0.0014283844793062,0.0014283844269625,-0.0014283844247045,0.001428384481381,-0.0014283844787684,0.0014283844277688,-0.0013703823607193,0.0013703825215444,-0.0013703825190429,0.0013703823632455,4.6320646700745e-13,-1.8273589989663e-12,-4.3614105854298e-13,-5.9773750423543e-13,-0.0013991473998026,0.0013991473984248,-0.0014283844537761,0.0014283844533755,-0.001428384453884,0.0014283844532262,-0.0014283844541684,0.0014283844525917,-0.0014283844544513,0.0014283844526135,-0.0013703824418272,0.001370382440367,-0.0013703824419637,0.0013703824402035,-0.0013703824400099,0.0013703824407045,-0.001370382442064,0.0013703824387671,-8.0843494463208e-11,8.0904437983778e-11,-0.0013991473991004,0.001399147399195,-6.1935754964024e-15,1.5717563956857e-13,-0.0014283844805997,0.0014283844268435,-0.0014283844803302,0.0014283844266391,-0.0014283844267052,0.0014283844805544,-0.001428384426495,0.0014283844805292,-0.0013703823614038,0.0013703825200037,-0.0013703825194653,0.0013703823611892,0.0038598075021285,0.0035957521306468,0.74858652227929,0.51801663224291,1368840,32768,0.0058128169502343,0.0058128169503495,0.0058128169504902,38.018184319303,38.027535363523,0.00021934547455442,0.00021934547455442,0.00021934547455442,199969.18978281,0.017591537172739
37719759,0.99838726060403,0.016789741263076,0.0055965804210093,0.0055965804209898,0.0055965804210764,-0.0013990056989521,0.0013990057010547,8.192288031224e-11,-7.9776435943466e-11,-9.4316471637709e-14,2.2519371460424e-12,-0.0014283002123064,0.0014283002673099,-0.0014283002660273,0.0014283002135587,-0.0014283002116209,0.0014283002681606,-0.0014283002654858,0.0014283002145604,-0.0013701875907451,0.0013701877522333,-0.0013701877492905,0.001370187594032,4.2952161370365e-13,-1.888635068201e-12,-4.9115273091533e-13,-6.6418576840422e-13,-0.0013990057008388,0.0013990056993496,-0.0014283002405988,0.0014283002399229,-0.0014283002405597,0.0014283002397791,-0.0014283002413447,0.0014283002392207,-0.0014283002413664,0.0014283002389978,-0.0013701876730958,0.001370187671116,-0.0013701876728985,0.0013701876708407,-0.001370187671547,0.0013701876724582,-0.0013701876738175,0.0013701876702082,-8.0811861958971e-11,8.092405538448e-11,-0.0013990057000431,0.0013990057001759,-2.8638860396591e-14,1.4582942736404e-13,-0.0014283002673071,0.0014283002135133,-0.0014283002669652,0.001428300213423,-0.0014283002133404,0.00142830026738,-0.0014283002131591,0.0014283002672728,-0.0013701875925408,0.00137018775101,-0.0013701877511569,0.001370187592794,0.0038592041564754,0.0035962871314925,0.74438277850788,0.47527599015123,1368840,32768,0.0058122298918038,0.0058122298921805,0.0058122298922438,37.927155112578,37.921440566318,0.00021861724090062,0.00021861724090062,0.00021861724090062,202987.03879426,0.017589745198337
37806159,0.99848136416298,0.016791270457096,0.0055970901523496,0.0055970901523302,0.0055970901524168,-0.0013988246900601,0.0013988246922191,8.1941440039371e-11,-7.9777486381964e-11,-7.0361085811244e-14,2.2919438062194e-12,-0.0014281732435211,0.0014281732986927,-0.0014281732973199,0.0014281732448548,-0.0014281732427869,0.0014281732994346,-0.001428173296593,0.0014281732456333,-0.0013699554079233,0.0013699555689401,-0.001369955566271,0.0013699554110741,4.8245423194262e-13,-1.850817047045e-12,-4.9737624667355e-13,-6.6214562484685e-13,-0.0013988246919673,0.0013988246905336,-0.001428173271915,0.0014281732712591,-0.0014281732718599,0.0014281732711659,-0.0014281732725782,0.0014281732705225,-0.0014281732728522,0.0014281732704554,-0.0013699554896909,0.0013699554879056,-0.0013699554900088,0.0013699554876361,-0.0013699554874966,0.0013699554888651,-0.0013699554899276,0.0013699554862885,-8.0781387772289e-11,8.0974349259801e-11,-0.0013988246911765,0.0013988246913835,1.7680606928418e-14,1.8308308340806e-13,-0.0014281732985598,0.0014281732447577,-0.0014281732983436,0.0014281732446556,-0.0014281732445329,0.001428173298577,-0.0014281732443233,0.0014281732985398,-0.0013699554091485,0.0013699555673583,-0.0013699555672743,0.0013699554090323,0.0038584340852467,0.003596784877838,0.74011223659381,0.43253534805955,1368840,32768,0.0058114800024067,0.0058114800028665,0.0058114800029888,37.822481496975,37.815345769113,0.0002177798519758,0.0002177798519758,0.0002177798519758,206007.71442713,0.017587456079123
37892559,0.99856948924124,0.01679270940609,0.0055975698020141,0.0055975698019948,0.0055975698020814,-0.0013986298702319,0.0013986298723469,8.191036592984e-11,-7.9797519711136e-11,-9.7100268947553e-14,2.2697200145527e-12,-0.0014280343222158,0.0014280343773384,-0.0014280343759927,0.0014280343235495,-0.0014280343214239,0.0014280343780611,-0.0014280343752004,0.0014280343242705,-0.0013697080167364,0.0013697081778955,-0.0013697081750217,0.0013697080195826,4.470539016337e-13,-1.8917759722485e-12,-5.2196737778431e-13,-6.7323628603476e-13,-0.0013986298720379,0.001398629870551,-0.0014280343502553,0.0014280343496535,-0.0014280343501721,0.0014280343495496,-0.0014280343509423,0.0014280343488558,-0.0014280343510241,0.0014280343488646,-0.0013697080982339,0.001369708096431,-0.0013697080983358,0.0013697080962173,-0.0013697080966963,0.0013697080975174,-0.0013697080990135,0.0013697080952527,-8.0806170897535e-11,8.0938055956772e-11,-0.0013986298712458,0.0013986298713859,-1.1871284399234e-14,1.4072828908266e-13,-0.0014280343769312,0.0014280343231378,-0.0014280343767242,0.0014280343230118,-0.0014280343229997,0.0014280343770255,-0.00142803432282,0.0014280343769321,-0.0013697080178423,0.0013697081764141,-0.0013697081761433,0.0013697080179746,0.0038576057946789,0.0035972523187268,0.74379036033749,0.50982928634831,1368840,32768,0.0058106729030221,0.005810672903043,0.0058106729031319,37.716528344193,37.709250971908,0.00021693222675354,0.00021693222675354,0.00021693222675354,209156.63326996,0.017584992300042
37978959,0.99865204246385,0.016794059861074,0.0055980199536755,0.0055980199536562,0.0055980199537428,-0.001398708406181,0.0013987084082635,8.1901103918671e-11,-7.9804835605288e-11,-1.390598694635e-13,2.2895048219051e-12,-0.0014280290722288,0.0014280291273206,-0.0014280291261174,0.0014280290735459,-0.0014280290715094,0.0014280291282249,-0.0014280291253718,0.0014280290742791,-0.001369868462172,0.0013698686235472,-0.0013698686209136,0.0013698684652544,4.3936440124854e-13,-1.9610748552152e-12,-5.5940491056397e-13,-7.3277705534043e-13,-0.0013987084080172,0.0013987084064303,-0.0014280291003119,0.0014280290994327,-0.0014280291001966,0.0014280290994694,-0.0014280291011357,0.0014280290987747,-0.0014280291011428,0.0014280290987716,-0.0013698685438771,0.0013698685421562,-0.0013698685439537,0.0013698685418839,-0.0013698685424069,0.0013698685433496,-0.0013698685447606,0.001369868540902,-8.0789401174544e-11,8.0953323990344e-11,-0.0013987084071572,0.0013987084073171,1.8134740113785e-15,1.7727490790266e-13,-0.0014280291267935,0.0014280290729683,-0.00142802912673,0.0014280290730071,-0.0014280290729055,0.0014280291270066,-0.0014280290727801,0.0014280291270397,-0.0013698684635125,0.0013698686222147,-0.001369868622004,0.00136986846364,0.0038579186782046,0.0035976902977447,0.74523146291933,0.54633599062179,1368840,32768,0.005810998333756,0.0058109983337624,0.005810998333818,37.610445965921,37.603156174704,0.00021608356772737,0.00021608356772737,0.00021608356772737,203503.02253116,0.017585985602624
38065359,0.99872940165738,0.016795326967191,0.0055984423223811,0.0055984423223618,0.0055984423224484,-0.0013986841400095,0.0013986841421473,8.1941302984735e-11,-7.9774887343716e-11,-1.2555422322819e-13,2.300654187182e-12,-0.0014279671247426,0.0014279671798655,-0.0014279671785234,0.0014279671260707,-0.0014279671238695,0.0014279671805453,-0.0014279671777225,0.0014279671267451,-0.0013698812583451,0.0013698814197866,-0.0013698814167624,0.0013698812613083,4.5358084929876e-13,-1.9446422395733e-12,-5.1981735523073e-13,-6.9028973565182e-13,-0.0013986841418326,0.0013986841403209,-0.001427967152607,0.0014279671519867,-0.0014279671525673,0.0014279671519223,-0.0014279671532989,0.0014279671511919,-0.0014279671534289,0.0014279671511952,-0.00136988134011,0.001369881338344,-0.0013698813401543,0.0013698813379959,-0.0013698813385288,0.0013698813396273,-0.0013698813410643,0.0013698813370405,-8.0795572397782e-11,8.0957122344895e-11,-0.0013986841410172,0.0013986841411612,-1.1591675294041e-14,1.6023678134691e-13,-0.0014279671793119,0.0014279671254112,-0.0014279671790929,0.0014279671253595,-0.0014279671253546,0.0014279671793434,-0.0014279671251937,0.0014279671793146,-0.0013698812597117,0.0013698814184185,-0.0013698814181414,0.0013698812599083,0.003857802714224,0.0035981005988559,0.7461501895534,0.57156189409705,1368840,32768,0.0058108978504855,0.0058108978504789,0.0058108978505303,37.504350282072,37.497061377499,0.00021523480225657,0.00021523480225657,0.00021523480225657,200836.72551035,0.017585678789945
38151759,0.99880191751183,0.016796515215729,0.005598838405227,0.0055988384052077,0.0055988384052943,-0.0013986282063835,0.0013986282085308,8.1941949141465e-11,-7.9782087241411e-11,-1.2605820783181e-13,2.3164786449322e-12,-0.0014278855626002,0.0014278856177361,-0.0014278856163859,0.001427885563931,-0.0014278855617875,0.0014278856184957,-0.0014278856155622,0.0014278855646932,-0.0013698505899561,0.0013698507512756,-0.0013698507482294,0.001369850592857,4.8338276240018e-13,-1.9312740597267e-12,-5.1265469169224e-13,-7.0105346565079e-13,-0.0013986282082057,0.0013986282067023,-0.0014278855904723,0.0014278855898991,-0.00142788559041,0.0014278855897963,-0.0014278855912054,0.0014278855890729,-0.0014278855912839,0.0014278855890495,-0.0013698506715626,0.0013698506697009,-0.0013698506717027,0.0013698506695261,-0.001369850670079,0.0013698506709753,-0.0013698506725067,0.0013698506686921,-8.0797534631955e-11,8.0962792495205e-11,-0.0013986282073948,0.0013986282075535,-2.6403252222298e-14,1.6342280166323e-13,-0.001427885617176,0.0014278855633766,-0.0014278856169412,0.0014278855632698,-0.0014278855632314,0.001427885617286,-0.0014278855630511,0.0014278856171793,-0.001369850591218,0.0013698507499179,-0.0013698507496114,0.0013698505914824,0.0038575547475153,0.0035984847852202,0.74643321490973,0.58467674854881,1368840,32768,0.0058106661691216,0.0058106661691086,0.0058106661691919,37.398253237066,37.390966580294,0.00021438602589653,0.00021438602589653,0.00021438602589653,198953.60175668,0.017584971489072
38238159,0.99886991558837,0.016797629967923,0.0055992099892917,0.0055992099892724,0.005599209989359,-0.00139854046491,0.0013985404670599,8.19410349341e-11,-7.9783907126991e-11,-1.3141504418414e-13,2.3243765213046e-12,-0.0014277855725148,0.0014277856276564,-0.0014277856262895,0.0014277855738669,-0.0014277855716895,0.0014277856284094,-0.0014277856254778,0.0014277855745991,-0.001369775247199,0.0013697754083956,-0.0013697754055089,0.0013697752501264,4.894087841917e-13,-1.9385216618468e-12,-5.1505985351032e-13,-7.0025763702163e-13,-0.0013985404667349,0.0013985404652277,-0.0014277856003956,0.0014277855997988,-0.0014277856003202,0.0014277855996908,-0.0014277856011088,0.001427785598982,-0.0014277856012035,0.0014277855989816,-0.0013697753288804,0.0013697753269827,-0.0013697753288974,0.0013697753267866,-0.00136977532734,0.0013697753282474,-0.0013697753298616,0.0013697753259181,-8.0808457886492e-11,8.0952792241883e-11,-0.001398540465924,0.0013985404660806,-1.6273708731722e-14,1.7018018346515e-13,-0.0014277856270851,0.0014277855732951,-0.0014277856268632,0.0014277855731646,-0.0014277855731541,0.0014277856271783,-0.0014277855729416,0.0014277856270846,-0.0013697752486269,0.001369775407168,-0.0013697754068982,0.0013697752487226,0.003857174191396,0.0035988446445149,0.74678342797145,0.59779160300057,1368840,32768,0.0058103027087956,0.0058103027087806,0.0058103027088677,37.29215602961,37.284871783089,0.00021353724823688,0.00021353724823688,0.00021353724823688,197878.25371759,0.017583861927794
38324559,0.9989337451598,0.016798676961164,0.0055995589870386,0.0055995589870193,0.0055995589871059,-0.001398474035115,0.0013984740372586,8.1932924711273e-11,-7.9778019483325e-11,-1.3095846989687e-13,2.3265286908514e-12,-0.0014277064600833,0.0014277065152055,-0.001427706513862,0.001427706461408,-0.0014277064592517,0.0014277065159505,-0.0014277065130311,0.0014277064621713,-0.0013697214430507,0.0013697216043313,-0.0013697216012804,0.0013697214459884,4.7675755303107e-13,-1.9528551063229e-12,-5.3190304484474e-13,-7.08641822067e-13,-0.0013984740369439,0.0013984740354205,-0.0014277064879575,0.0014277064873642,-0.0014277064878774,0.0014277064872565,-0.0014277064886765,0.0014277064865242,-0.0014277064887687,0.0014277064865261,-0.001369721524601,0.0013697215226809,-0.0013697215247461,0.0013697215225232,-0.0013697215232198,0.0013697215240402,-0.0013697215255994,0.0013697215217842,-8.0794435785446e-11,8.0953001206087e-11,-0.0013984740361256,0.0013984740362803,-1.7815808680451e-14,1.6022910511082e-13,-0.0014277065146302,0.0014277064608469,-0.0014277065144271,0.0014277064607201,-0.0014277064607185,0.0014277065147319,-0.0014277064605299,0.0014277065146583,-0.0013697214442834,0.0013697216029183,-0.0013697216026418,0.0013697214445411,0.003856883243753,0.0035991820890835,0.74720032148105,0.61090645745233,1368840,32768,0.0058100275334377,0.0058100275334186,0.0058100275335047,37.199969124318,37.1936084,0.00021279975299454,0.00021279975299454,0.00021279975299454,196798.41150676,0.017583021874254
38410959,0.99899395350384,0.016799677788028,0.0055998925959934,0.0055998925959741,0.0055998925960607,-0.0013985707867751,0.0013985707888888,8.1914398688995e-11,-7.9794801147128e-11,-1.3178215061635e-13,2.2942759114458e-12,-0.0014277882535483,0.0014277883087518,-0.001427788307414,0.0014277882548408,-0.0014277882528104,0.0014277883094704,-0.0014277883065553,0.0014277882556652,-0.0013698326647493,0.0013698328259079,-0.0013698328228981,0.0013698326675688,4.7325677762442e-13,-1.9250551320636e-12,-5.0644070505468e-13,-6.9800158829531e-13,-0.0013985707885819,0.0013985707870693,-0.0014277882814614,0.0014277882808423,-0.0014277882814187,0.0014277882807772,-0.0014277882821595,0.001427788280064,-0.0014277882823152,0.0014277882800149,-0.0013698327462232,0.0013698327444143,-0.0013698327465561,0.0013698327442789,-0.0013698327445601,0.0013698327456808,-0.0013698327471356,0.0013698327434628,-8.0775438189339e-11,8.0970305383339e-11,-0.0013985707877537,0.0013985707879512,3.4967461179828e-15,1.9645129266551e-13,-0.0014277883081134,0.0014277882543622,-0.0014277883078886,0.0014277882541996,-0.0014277882542209,0.0014277883082747,-0.0014277882539522,0.0014277883081612,-0.0013698326661088,0.0013698328247534,-0.001369832824327,0.0013698326663294,0.0038572770565427,0.0035995036616142,0.75737622584631,0.77956916741985,1368840,32768,0.005810428348556,0.0058104283485298,0.005810428348641,37.194212482695,37.1936084,0.00021275369986155,0.00021275369986155,0.00021275369986155,195653.35796652,0.017584245417701
38497359,0.9990507625648,0.01680062616244,0.0056002087207975,0.0056002087207782,0.0056002087208648,-0.0013989688055453,0.0013989688076844,8.1929680810372e-11,-7.9782684340817e-11,-1.1829885663937e-13,2.3058860273529e-12,-0.0014280267584652,0.0014280268135991,-0.0014280268122507,0.0014280267598062,-0.0014280267576631,0.0014280268143487,-0.0014280268114404,0.0014280267605505,-0.0013703840357214,0.0013703841969718,-0.0013703841940098,0.0013703840386478,4.75322155705e-13,-1.921022961126e-12,-4.9756456444998e-13,-6.9250205042006e-13,-0.0013989688073578,0.0013989688058638,-0.0014280267863473,0.0014280267857647,-0.0014280267862793,0.0014280267856492,-0.0014280267870531,0.0014280267849466,-0.0014280267871509,0.0014280267849396,-0.0013703841173004,0.0013703841155163,-0.0013703841174379,0.0013703841152649,-0.0013703841158935,0.0013703841167554,-0.0013703841182939,0.0013703841144795,-8.0799002998862e-11,8.095006029593e-11,-0.0013989688065536,0.0013989688067109,-2.2982444960906e-14,1.7311809371401e-13,-0.0014280268130348,0.0014280267592375,-0.0014280268128134,0.0014280267591255,-0.001428026759103,0.0014280268131327,-0.0014280267589071,0.0014280268130514,-0.0013703840370431,0.0013703841956562,-0.0013703841953879,0.001370384037248,0.0038589280775144,0.003599807836486,0.76064075078276,0.79944244,1368840,32768,0.0058120773297416,0.0058120773297246,0.0058120773298137,37.193669432612,37.1936084,0.0002127493554609,0.0002127493554609,0.0002127493554609,185555.45959745,0.017589279015911
38583759,0.99910436551034,0.016801523451299,0.0056005078170836,0.0056005078170643,0.0056005078171509,-0.0013990830180328,0.0013990830201726,8.1930160736887e-11,-7.978238770282e-11,-1.1922106376069e-13,2.3069488184148e-12,-0.0014281206998368,0.0014281207549706,-0.001428120753622,0.0014281207011774,-0.0014281206990329,0.0014281207557209,-0.0014281207528114,0.0014281207019228,-0.00137051562374,0.0013705157849958,-0.0013705157820323,0.0013705156266688,4.7696413495543e-13,-1.9213701269909e-12,-4.989257287497e-13,-6.9294468395674e-13,-0.0013990830198457,0.0013990830183514,-0.001428120727718,0.0014281207271359,-0.0014281207276509,0.00142812072702,-0.0014281207284245,0.0014281207263174,-0.0014281207285227,0.00142812072631,-0.0013705157053095,0.0013705157035226,-0.0013705157054485,0.0013705157032804,-0.00137051570391,0.0013705157047828,-0.001370515706315,0.0013705157024929,-8.0798927177649e-11,8.0950349051815e-11,-0.0013990830190412,0.0013990830191989,-2.18995662774e-14,1.7327876527619e-13,-0.0014281207544082,0.0014281207006102,-0.0014281207541868,0.0014281207004993,-0.0014281207004763,0.0014281207545058,-0.0014281207002793,0.0014281207544243,-0.0013705156250472,0.0013705157836645,-0.0013705157833968,0.0013705156252526,0.0038593979051174,0.0036000951642012,0.76261079167268,0.79944244,1368840,32768,0.0058125504604172,0.0058125504603999,0.0058125504604891,37.193614660598,37.1936084,0.00021274891728478,0.00021274891728478,0.00021274891728478,183890.81075089,0.017590723405283
38670159,0.999154943213,0.016802371986767,0.0056007906622397,0.0056007906622204,0.005600790662307,-0.001399157557222,0.0013991575593634,8.1931656926474e-11,-7.9781835837327e-11,-1.1981845727544e-13,2.3087256464869e-12,-0.0014281926847496,0.0014281927398843,-0.0014281927385357,0.0014281926860912,-0.0014281926839456,0.0014281927406357,-0.001428192737723,0.0014281926868378,-0.0013705906155252,0.0013705907767814,-0.0013705907738192,0.0013705906184605,4.7799530933611e-13,-1.9227164976249e-12,-5.0012675088283e-13,-6.9101271356534e-13,-0.0013991575590362,0.0013991575575411,-0.0014281927126339,0.00142819271205,-0.0014281927125643,0.0014281927119352,-0.0014281927133412,0.0014281927112299,-0.0014281927134382,0.0014281927112231,-0.0013705906970998,0.0013705906953089,-0.0013705906972395,0.0013705906950698,-0.0013705906957017,0.0013705906965705,-0.0013705906981011,0.0013705906942821,-8.0800228373192e-11,8.0949988033432e-11,-0.0013991575582322,0.0013991575583882,-2.1772864265707e-14,1.7029065067869e-13,-0.0014281927393219,0.0014281926855239,-0.0014281927391019,0.0014281926854117,-0.0014281926853896,0.0014281927394193,-0.0014281926851949,0.0014281927393378,-0.0013705906168424,0.0013705907754512,-0.0013705907751892,0.0013705906170417,0.0038597022711644,0.0036003664396827,0.76429758562184,0.79944244,1368840,32768,0.0058128592246904,0.0058128592246735,0.0058128592247628,37.193609045292,37.1936084,0.00021274887236234,0.00021274887236234,0.00021274887236234,183323.53388579,0.017591666057421
38756559,0.99920266623806,0.016803174159294,0.0056010580530821,0.0056010580530628,0.0056010580531494,-0.0013992271081187,0.0013992271102649,8.1934923120811e-11,-7.9778257828985e-11,-1.1926394480365e-13,2.3110862214317e-12,-0.0014282604363185,0.0014282604914596,-0.0014282604901089,0.0014282604376671,-0.0014282604355101,0.0014282604922173,-0.0014282604892961,0.0014282604384,-0.0013706601218925,0.0013706602831394,-0.0013706602801696,0.0013706601248514,4.7219416302774e-13,-1.9303203241568e-12,-5.0532565088353e-13,-6.9670268679939e-13,-0.0013992271099414,0.0013992271084339,-0.0014282604642158,0.0014282604636288,-0.0014282604641422,0.0014282604635069,-0.0014282604649145,0.0014282604627888,-0.001428260465013,0.0014282604627829,-0.0013706602034839,0.0013706602016748,-0.0013706602035975,0.0013706602014333,-0.0013706602020436,0.0013706602029274,-0.0013706602044771,0.0013706602006298,-8.080066865386e-11,8.0949209910144e-11,-0.001399227109132,0.0013992271092866,-2.083098127488e-14,1.7168743153741e-13,-0.0014282604908986,0.0014282604370835,-0.0014282604906759,0.0014282604369745,-0.0014282604369623,0.0014282604909912,-0.0014282604367737,0.0014282604909085,-0.0013706601232274,0.0013706602817988,-0.0013706602815681,0.0013706601234211,0.0038599855606244,0.0036006224716263,0.76575531915227,0.79944244,1368840,32768,0.0058131473274472,0.0058131473274301,0.0058131473275199,37.193608467049,37.1936084,0.00021274886773639,0.00021274886773639,0.00021274886773639,182821.23958911,0.01759254562402
38842959,0.99924769554252,0.016803932311572,0.0056013107705079,0.0056013107704886,0.0056013107705752,-0.0013992920993121,0.0013992921014535,8.1932372492849e-11,-7.9781812014525e-11,-1.214203495152e-13,2.3100760758204e-12,-0.0014283239951228,0.0014283240502559,-0.0014283240488931,0.0014283239964503,-0.0014283239943044,0.0014283240509998,-0.0014283240480888,0.0014283239972174,-0.0013707249327438,0.0013707250940025,-0.0013707250910356,0.001370724935688,4.7813748146344e-13,-1.9255405289998e-12,-4.9969791104241e-13,-6.9019303272368e-13,-0.0013992921011256,0.0013992920996312,-0.0014283240230153,0.0014283240224274,-0.0014283240229281,0.0014283240223112,-0.0014283240237098,0.0014283240215928,-0.0014283240238049,0.0014283240216023,-0.0013707250143281,0.0013707250125354,-0.0013707250144455,0.0013707250122808,-0.0013707250129037,0.0013707250137823,-0.0013707250153162,0.0013707250115018,-8.0798221140394e-11,8.0952698921204e-11,-0.0013992921003202,0.0013992921004802,-1.8085212215063e-14,1.7361716670297e-13,-0.0014283240496975,0.0014283239958807,-0.0014283240494683,0.0014283239957771,-0.0014283239957685,0.0014283240497911,-0.0014283239955717,0.0014283240497061,-0.0013707249340601,0.0013707250926719,-0.0013707250924166,0.0013707249342651,0.0038602496401383,0.0036008640484715,0.76702618672285,0.79944244,1368840,32768,0.0058134165433671,0.0058134165433487,0.005813416543439,37.19360840742,37.1936084,0.00021274886725936,0.00021274886725936,0.00021274886725936,182370.00822923,0.017593367525025
38880000,0.99926651755487,0.016804249428839,0.0056014164762636,0.0056014164762444,0.005601416476331,-0.0013993207926176,0.0013993207947608,8.1932897065059e-11,-7.9781227679435e-11,-1.2104430217966e-13,2.311069457238e-12,-0.0014283514448178,0.0014283514999508,-0.0014283514986027,0.0014283514461578,-0.001428351444012,0.0014283515007051,-0.0014283514977905,0.0014283514469095,-0.0013707533000945,0.0013707534613572,-0.0013707534583893,0.0013707533030331,4.7839882642071e-13,-1.9258914006338e-12,-5.0093881431014e-13,-6.9135293846582e-13,-0.0013993207944327,0.0013993207929369,-0.0014283514727027,0.001428351472119,-0.0014283514726325,0.0014283514720061,-0.00142835147341,0.0014283514712981,-0.0014283514735049,0.0014283514712909,-0.0013707533816745,0.0013707533798838,-0.0013707533818003,0.0013707533796362,-0.0013707533802648,0.0013707533811345,-0.001370753382676,0.0013707533788485,-8.0800674947785e-11,8.095017164547e-11,-0.0013993207936285,0.0013993207937838,-2.0833775307171e-14,1.7077222420224e-13,-0.0014283514993915,0.001428351445588,-0.0014283514991703,0.0014283514454784,-0.001428351445457,0.0014283514994869,-0.0014283514452659,0.0014283514994036,-0.001370753301406,0.0013707534600201,-0.0013707534597591,0.0013707533016094,0.003860366883219,0.0036009650436584,0.76753955401396,0.79944244,1368840,32768,0.005813535396719,0.005813535396701,0.0058135353967894,37.193608402009,37.1936084,0.00021274886721607,0.00021274886721607,0.00021274886721607,182097.28427538,0.017593730393557
