time,ASR_ext,ASR_strain,ASR_strain_xx,ASR_strain_yy,ASR_strain_zz,disp_x_101,disp_x_102,disp_x_103,disp_x_104,disp_x_105,disp_x_106,disp_x_p1_neg,disp_x_p1_pos,disp_x_p2_neg,disp_x_p2_pos,disp_x_p3_neg,disp_x_p3_pos,disp_x_p4_neg,disp_x_p4_pos,disp_x_p5_neg,disp_x_p5_pos,disp_x_p6_neg,disp_x_p6_pos,disp_y_101,disp_y_102,disp_y_103,disp_y_104,disp_y_105,disp_y_106,disp_y_p1_neg,disp_y_p1_pos,disp_y_p2_neg,disp_y_p2_pos,disp_y_p3_neg,disp_y_p3_pos,disp_y_p4_neg,disp_y_p4_pos,disp_y_p5_neg,disp_y_p5_pos,disp_y_p6_neg,disp_y_p6_pos,disp_y_p7_neg,disp_y_p7_pos,disp_y_p8_neg,disp_y_p8_pos,disp_z_101,disp_z_102,disp_z_103,disp_z_104,disp_z_105,disp_z_106,disp_z_p1_neg,disp_z_p1_pos,disp_z_p2_neg,disp_z_p2_pos,disp_z_p3_neg,disp_z_p3_pos,disp_z_p4_neg,disp_z_p4_pos,disp_z_p5_neg,disp_z_p5_pos,disp_z_p6_neg,disp_z_p6_pos,error,error_ASR,humidity,humidity_bc,ndof,nelem,strain_xx,strain_yy,strain_zz,temp,temp_bc,thermal_strain_xx,thermal_strain_yy,thermal_strain_zz,vonmises,vstrain
5940846,0,0,0,0,0,0,0,0,0,0,0,0,0,0,0,0,0,0,0,0,0,0,0,0,0,0,0,0,0,0,0,0,0,0,0,0,0,0,0,0,0,0,0,0,0,0,0,0,0,0,0,0,0,0,0,0,0,0,0,0,0,0,0,0,0,0,0,0,0,0,0,0,0,0,0,0,0,0,0
6027246,0.015340110928849,0.0002591429800051,8.6380993335034e-05,8.6380993335034e-05,8.6380993335034e-05,-6.7897523473795e-05,6.7897523470316e-05,1.5537977946763e-11,-1.5543803331301e-11,-3.0966009524371e-13,2.8122341984697e-13,-6.6907698865688e-05,6.6907710726972e-05,-6.6907710823883e-05,6.6907698580761e-05,-6.690770309773e-05,6.6907715537803e-05,-6.6907715380851e-05,6.6907703258394e-05,-6.8267271868169e-05,6.8267289876022e-05,-6.8267289692476e-05,6.8267271977798e-05,1.9244307274255e-12,1.3265443793915e-12,2.378982590259e-12,2.3266338935198e-12,-6.7897523362484e-05,6.7897523563812e-05,-6.6907707584664e-05,6.6907705709861e-05,-6.6907708623696e-05,6.6907706464367e-05,-6.6907708695935e-05,6.6907706319012e-05,-6.6907707765032e-05,6.6907705435706e-05,-6.8267272523492e-05,6.8267288023382e-05,-6.8267283667154e-05,6.826729935981e-05,-6.8267273998145e-05,6.8267300263445e-05,-6.826727263866e-05,6.8267297939649e-05,-1.5453338745668e-11,1.5524156194376e-11,-6.7897523430923e-05,6.7897523506839e-05,2.4307213313671e-14,7.8636458004304e-14,-6.6907713934284e-05,6.6907699700176e-05,-6.6907713949219e-05,6.6907699918693e-05,-6.690769974271e-05,6.6907713970014e-05,-6.6907699903768e-05,6.6907714102403e-05,-6.8267283424811e-05,6.826730243137e-05,-6.8267302194157e-05,6.8267283635099e-05,0.00086746042543264,0.0010635888824249,0.77165638002545,0.42383388871033,1368840,32768,0.00028286622050977,0.00028286622047267,0.00028286622049655,35.161486664749,36.774836811382,0.00019649189331799,0.00019649189331799,0.00019649189331799,353210.82024551,0.00084895921902314
6113646,0.032929185298205,0.00055576036154016,0.00018525345383718,0.00018525345381122,0.00018525345389176,-9.4287841837037e-05,9.4287841872902e-05,1.4624691453656e-11,-1.4593285828517e-11,-5.8889987716005e-14,9.8702988367928e-14,-9.4224513251374e-05,9.4224523104178e-05,-9.4224523110323e-05,9.4224513221389e-05,-9.4224513775777e-05,9.4224523692886e-05,-9.4224523610578e-05,9.4224513858427e-05,-9.370647509263e-05,9.3706502445023e-05,-9.3706502351406e-05,9.3706475171483e-05,4.9964480604709e-13,3.344071002691e-13,1.2429041569694e-12,5.2784904185351e-13,-9.4287841513591e-05,9.4287842183493e-05,-9.4224517948956e-05,9.4224518755903e-05,-9.4224518362507e-05,9.4224518742222e-05,-9.4224518173994e-05,9.4224518928698e-05,-9.4224518231754e-05,9.4224518461089e-05,-9.3706487120588e-05,9.370649044148e-05,-9.3706488514369e-05,9.3706490566329e-05,-9.3706487885551e-05,9.3706490711773e-05,-9.370648776503e-05,9.3706490376835e-05,-1.440259073868e-11,1.4661623597463e-11,-9.4287841733034e-05,9.4287841991646e-05,-2.1990230419438e-13,4.9441951163213e-13,-9.4224523647703e-05,9.4224513534804e-05,-9.4224523155064e-05,9.4224513535503e-05,-9.4224513533171e-05,9.4224523663483e-05,-9.4224513063434e-05,9.4224523645759e-05,-9.370647562017e-05,9.3706503676762e-05,-9.3706503173835e-05,9.3706476142448e-05,0.0007704578981971,0.00097779921148976,0.770299721763,0.44262044786978,1368840,32768,0.00039278871368906,0.00039278871366229,0.00039278871371976,36.616278146673,36.767416042842,0.00020813022517338,0.00020813022517338,0.00020813022517338,317588.97146776,0.0011790610554649
6200046,0.051070471331377,0.00086123742069996,0.00028707914022955,0.000287079140204,0.00028707914026642,-0.00011892453803784,0.000118924538093,1.4743534499553e-11,-1.4689423593781e-11,-7.4993462677663e-14,1.3025995447133e-13,-0.00011935158530534,0.00011935159517702,-0.00011935159518048,0.00011935158527484,-0.00011935158563247,0.00011935159558121,-0.00011935159545793,0.00011935158575312,-0.00011767097824956,0.00011767100653428,-0.00011767100640902,0.00011767097837119,1.1375429878131e-13,-1.0277526102162e-13,9.2217246061727e-13,1.9527005669263e-13,-0.00011892453795772,0.000118924538161,-0.00011935158997899,0.00011935159069529,-0.00011935159035644,0.00011935159065606,-0.0001193515901809,0.00011935159083111,-0.00011935159028403,0.00011935159037091,-0.00011767099137344,0.00011767099331021,-0.00011767099209076,0.00011767099273664,-0.00011767099205,0.00011767099273457,-0.00011767099207774,0.00011767099244676,-1.4507573924898e-11,1.4756712598809e-11,-0.00011892453794502,0.00011892453819534,-2.3264117973636e-13,4.9290673799338e-13,-0.00011935159551423,0.00011935158556043,-0.00011935159506003,0.00011935158561123,-0.00011935158556855,0.00011935159552196,-0.00011935158513607,0.000119351595554,-0.00011767097778978,0.00011767100693845,-0.00011767100644045,0.00011767097830401,0.00068068961862143,0.00088903644498728,0.76944528446691,0.4614070070293,1368840,32768,0.00049539587862197,0.00049539587859674,0.00049539587864179,36.745239780309,36.7599952743,0.00020916191824247,0.00020916191824247,0.00020916191824247,418107.26793348,0.0014872934672712
6286446,0.069564873070773,0.0011719841290958,0.00039066137636394,0.00039066137633951,0.00039066137639234,-0.000143764671432,0.00014376467149627,1.3989902529845e-11,-1.3926447225714e-11,-8.2855615876633e-14,1.4894719241257e-13,-0.00014470616933544,0.00014470617881252,-0.00014470617881581,0.00014470616930636,-0.00014470616958664,0.00014470617903997,-0.00014470617890039,0.0001447061697232,-0.00014181031898718,0.00014181034560076,-0.00014181034545622,0.00014181031913289,8.3026445216737e-14,-1.6005333106884e-13,7.8021447013056e-13,6.9018586382503e-14,-0.00014376467147959,0.00014376467143726,-0.00014470617387306,0.00014470617430084,-0.00014470617423127,0.00014470617436668,-0.00014470617407049,0.0001447061745275,-0.00014470617418391,0.00014470617397213,-0.00014181033131793,0.00014181033329797,-0.00014181033232307,0.00014181033279801,-0.00014181033197692,0.00014181033313558,-0.00014181033205498,0.00014181033262856,-1.3785079132648e-11,1.401824299127e-11,-0.00014376467135892,0.00014376467159369,-2.3205602849468e-13,4.7721422290365e-13,-0.00014470617894764,0.00014470616962602,-0.00014470617852311,0.00014470616969479,-0.00014470616964223,0.00014470617894367,-0.00014470616923861,0.00014470617899696,-0.00014181031903473,0.00014181034629796,-0.00014181034582812,0.0001418103195311,0.00059001984511348,0.00079853568877411,0.76894834030208,0.48019356618868,1368840,32768,0.00059883956817779,0.00059883956815402,0.00059883956822848,36.751520608302,36.752574505758,0.00020921216486642,0.00020921216486642,0.00020921216486642,524640.31291767,0.0017981352205516
6372846,0.08837314733732,0.0014874110623838,0.00049580368745927,0.00049580368743608,0.00049580368748845,-0.0001689705137703,0.00016897051381994,1.2803673025695e-11,-1.2755613883575e-11,-7.1383517811942e-14,1.2231248402581e-13,-0.00017049498377189,0.00017049499224871,-0.00017049499225165,0.00017049498374451,-0.00017049498431073,0.00017049499260941,-0.00017049499249973,0.00017049498441865,-0.00016625925366149,0.00016625927800824,-0.00016625927789588,0.00016625925377727,-1.2874013325377e-13,-3.2950958076731e-13,5.5341688393525e-13,-1.4081248503995e-13,-0.00016897051403368,0.00016897051354577,-0.00017049498839068,0.00017049498811519,-0.00017049498843128,0.00017049498800029,-0.00017049498826077,0.00017049498817114,-0.00017049498867918,0.00017049498780874,-0.00016625926509558,0.0001662592666235,-0.00016625926607533,0.00016625926601796,-0.00016625926567146,0.00016625926639201,-0.00016625926580852,0.00016625926587211,-1.263429411187e-11,1.2852929304038e-11,-0.00016897051370595,0.00016897051392689,-2.2960040130652e-13,4.6199814362678e-13,-0.00017049499285022,0.00017049498415621,-0.00017049499240912,0.00017049498419527,-0.00017049498418033,0.00017049499283801,-0.00017049498376,0.00017049499286299,-0.00016625925359351,0.00016625927864207,-0.00016625927818809,0.00016625925406204,0.00049782873197833,0.00070654525267641,0.76871100534483,0.49898012534835,1368840,32768,0.00070379517803491,0.00070379517801246,0.00070379517812364,36.745501582048,36.745153737216,0.00020916401265638,0.00020916401265638,0.00020916401265638,622757.3556602,0.0021136191588278
6459246,0.10747127877714,0.0018074814733981,0.00060249382446356,0.0006024938244419,0.00060249382449266,-0.00019456057527084,0.00019456057529739,1.1535203673622e-11,-1.150998971595e-11,-3.8989882415268e-14,6.7028172923562e-14,-0.00019671674394408,0.00019671675161457,-0.00019671675160748,0.0001967167439268,-0.00019671674498032,0.00019671675189395,-0.0001967167518405,0.00019671674503172,-0.00019106227666956,0.00019106229860176,-0.00019106229854364,0.00019106227673334,-4.3261364424424e-13,-5.3800477020592e-13,2.6897556239297e-13,-4.1012580549699e-13,-0.00019456057578817,0.00019456057476957,-0.00019671674887108,0.00019671674758252,-0.0001967167484496,0.00019671674752854,-0.00019671674825268,0.00019671674772741,-0.0001967167491211,0.0001967167473135,-0.00019106228721629,0.00019106228813311,-0.0001910622881207,0.00019106228749153,-0.00019106228780641,0.00019106228776709,-0.00019106228786066,0.00019106228737152,-1.1373500863532e-11,1.1620542434229e-11,-0.00019456057515654,0.00019456057540644,-2.0733621013875e-13,4.6872433520507e-13,-0.00019671675261848,0.00019671674411807,-0.0001967167521738,0.00019671674414425,-0.00019671674410687,0.00019671675263937,-0.00019671674368564,0.00019671675265305,-0.00019106227645237,0.00019106229916258,-0.00019106229868498,0.00019106227694179,0.00040413648818135,0.00061314196070648,0.76926478258064,0.52660975027229,1368840,32768,0.0008103393068717,0.00081033930684986,0.0008103393068608,36.738224933839,36.737732968674,0.00020910579947071,0.00020910579947071,0.00020910579947071,703529.22956976,0.0024339799199745
6545646,0.1268362683278,0.0021334173066626,0.00071113910222863,0.000711139102208,0.00071113910222593,-0.00022065271069701,0.00022065271069818,9.9546855676596e-12,-9.9548848851e-12,-1.0234216763468e-14,1.2179230874033e-14,-0.00022342536192355,0.00022342536854892,-0.00022342536854277,0.00022342536190568,-0.00022342536242086,0.00022342536866613,-0.00022342536866203,0.00022342536242298,-0.00021643457081872,0.00021643458963861,-0.00021643458963357,0.0002164345708297,5.8743470133193e-14,3.2225184660376e-14,7.3936220343338e-13,8.6534091737014e-14,-0.00022065271073552,0.00022065271064983,-0.00022342536534807,0.00022342536544356,-0.00022342536535417,0.00022342536540959,-0.00022342536514109,0.00022342536562479,-0.0002234253655646,0.00022342536520914,-0.00021643457935467,0.00021643458120722,-0.00021643458024339,0.00021643458054722,-0.00021643457988214,0.00021643458079952,-0.0002164345799428,0.00021643458047278,-9.829336779332e-12,1.0097060008659e-11,-0.00022065271057815,0.00022065271084821,-1.838553429043e-13,4.6565290329991e-13,-0.00022342536905784,0.00022342536211021,-0.00022342536855697,0.0002234253620608,-0.0002234253620702,0.00022342536910845,-0.00022342536159074,0.00022342536904603,-0.00021643457045635,0.0002164345902083,-0.00021643458972005,0.00021643457095602,0.00030858635778662,0.00051790793810041,0.77334261535868,0.60574588862279,1368840,32768,0.00091896214017264,0.00091896214015214,0.00091896214023754,36.73081898901,36.730312200132,0.00020904655191208,0.00020904655191208,0.00020904655191208,743014.80726468,0.0027606964302475
6632046,0.14694301594236,0.0024730846278561,0.00082436154262525,0.00082436154260567,0.00082436154262516,-0.00024857193421484,0.00024857193417578,8.9847431913805e-12,-9.0386005313699e-12,1.1962891894805e-14,-3.3031314445429e-14,-0.00025190754919116,0.0002519075551601,-0.00025190755518986,0.00025190754922612,-0.000251907549592,0.00025190755520644,-0.00025190755533345,0.00025190754954788,-0.00024372187280475,0.00024372188975484,-0.00024372188976422,0.00024372187265384,1.0559152425141e-13,1.4791854001367e-13,8.3349714017568e-13,1.5856823305521e-13,-0.00024857193414519,0.00024857193422445,-0.00025190755212053,0.00025190755245279,-0.00025190755222509,0.00025190755240141,-0.00025190755200065,0.00025190755264034,-0.00025190755228955,0.00025190755227704,-0.00024372188007866,0.0002437218821991,-0.00024372188117664,0.00024372188143615,-0.00024372188084972,0.00024372188176854,-0.00024372188082209,0.00024372188134522,-8.8471611664757e-12,9.2107931533564e-12,-0.00024857193405984,0.00024857193436773,-1.9225162316841e-13,4.7911912426905e-13,-0.00025190755560529,0.0002519075494286,-0.00025190755504869,0.00025190754935152,-0.00025190754934948,0.00025190755566618,-0.00025190754887612,0.00025190755558746,-0.00024372187212258,0.00024372189022341,-0.0002437218896164,0.00024372187271012,0.0002062705309483,0.00041841672973148,0.77647616652091,0.66417631103695,1368840,32768,0.0010351782202892,0.0010351782202456,0.0010351782203662,37.0632829026,37.085272565519,0.0002117062632208,0.0002117062632208,0.0002117062632208,738986.02628833,0.0031103696782027
6718446,0.16796914485861,0.0028300199565556,0.00094333998552114,0.00094333998549781,0.00094333998553668,-0.00027810265666348,0.00027810265662139,8.3619713122222e-12,-8.3961834876519e-12,2.0175471888477e-14,-6.1977091936502e-14,-0.00028198994774754,0.00028198995326288,-0.00028198995327122,0.00028198994773293,-0.00028198994807207,0.00028198995333036,-0.00028198995341391,0.00028198994800089,-0.00027268014331209,0.00027268015916783,-0.00027268015913059,0.00027268014324986,2.0375554379035e-13,2.8257608808271e-13,9.0516044355801e-13,2.5199019893122e-13,-0.00027810265647608,0.00027810265680073,-0.00028198995030613,0.00028198995090752,-0.00028198995044909,0.0002819899508173,-0.00028198995020472,0.00028198995106883,-0.00028198995048191,0.00028198995071586,-0.00027268015022278,0.0002726801523254,-0.00027268015105382,0.00027268015168356,-0.00027268015084451,0.00027268015181263,-0.0002726801507919,0.00027268015168247,-8.2288306001678e-12,8.5663119594615e-12,-0.00027810265647393,0.00027810265679588,-1.6108468191472e-13,4.8832553051965e-13,-0.00028198995362479,0.00028198994791564,-0.00028198995311867,0.0002819899478765,-0.00028198994782864,0.00028198995372131,-0.00028198994736143,0.00028198995366105,-0.0002726801428645,0.000272680159725,-0.0002726801591927,0.00027268014352723,0.00010148529486877,0.00031390433858856,0.78002934221982,0.72260673345111,1368840,32768,0.0011580876711187,0.0011580876711019,0.0011580876710873,37.522771623966,37.553978135498,0.00021538217299172,0.00021538217299172,0.00021538217299172,717676.02651627,0.0034803145090562
6804846,0.1899128051246,0.0032032187211261,0.0010677395737148,0.001067739573697,0.0010677395737143,-0.00030895272537877,0.00030895272531538,7.9696269451321e-12,-8.0376888070654e-12,3.2699280471192e-14,-8.4828614426411e-14,-0.00031339249195895,0.00031339249722367,-0.00031339249723618,0.00031339249194366,-0.00031339249229956,0.00031339249726604,-0.00031339249739269,0.00031339249218647,-0.00030297729365161,0.00030297730873401,-0.00030297730873722,0.00030297729349133,2.3517900661925e-13,3.498065195333e-13,9.5398212120692e-13,3.0907866080025e-13,-0.00030895272512952,0.00030895272555951,-0.00031339249434399,0.00031339249503827,-0.00031339249448754,0.00031339249496095,-0.00031339249425208,0.00031339249522116,-0.00031339249450544,0.00031339249488514,-0.00030297729993831,0.00030297730216353,-0.00030297730089109,0.00030297730160646,-0.00030297730075178,0.00030297730164496,-0.00030297730083786,0.00030297730157244,-7.852965920811e-12,8.1829694791347e-12,-0.00030895272519162,0.00030895272552013,-1.5582398968408e-13,4.8513251041717e-13,-0.00031339249758386,0.00031339249215659,-0.00031339249709588,0.00031339249210819,-0.00031339249205122,0.00031339249770829,-0.00031339249158985,0.00031339249764113,-0.00030297729304363,0.00030297730921878,-0.00030297730862455,0.00030297729370417,5.5070852269636e-05,0.0002064451342493,0.78107988863227,0.73429362059989,1368840,32768,0.0012864722455825,0.0012864722455718,0.0012864722456191,37.990553575162,38.022683705477,0.00021912442860129,0.00021912442860129,0.00021912442860129,693415.76835058,0.0038668845213751
6891246,0.21275096320656,0.0035914531004504,0.001197151033485,0.0011971510334713,0.0011971510334941,-0.00034096546911627,0.0003409654690264,7.7190319829891e-12,-7.8025249470422e-12,4.5106357325864e-14,-1.3386120474973e-13,-0.00034600582689495,0.00034600583198023,-0.00034600583199592,0.00034600582686614,-0.00034600582721913,0.00034600583199574,-0.00034600583216806,0.00034600582705976,-0.00033439334543669,0.00033439336007188,-0.00033439336011478,0.00033439334533038,2.5635073483749e-13,4.3267681143218e-13,1.0158333640468e-12,3.7850310610757e-13,-0.00034096546878823,0.00034096546935038,-0.00034600582909506,0.00034600582994767,-0.00034600582925296,0.00034600582986354,-0.00034600582898742,0.0003460058301413,-0.00034600582924349,0.00034600582979518,-0.00033439335165006,0.00033439335396,-0.00033439335236742,0.00033439335341249,-0.00033439335235107,0.00033439335328492,-0.00033439335224835,0.00033439335329928,-7.5938226904e-12,7.9613406468022e-12,-0.00034096546890035,0.00034096546925479,-1.4066014410562e-13,4.9303101177043e-13,-0.00034600583233589,0.00034600582708662,-0.00034600583181749,0.00034600582702392,-0.00034600582695299,0.0003460058324665,-0.00034600582648972,0.00034600583240906,-0.00033439334489738,0.00033439336058146,-0.00033439336005785,0.00033439334557653,0.00015673229290951,0.00010591993127352,0.7803481339675,0.71993073791403,1368840,32768,0.001419677912214,0.0014196779122055,0.00141967791224,38.459122469947,38.491389275457,0.00022287297975957,0.00022287297975957,0.00022287297975957,688369.89837652,0.004268128533921
6977646,0.23644849659109,0.0039907010009012,0.0013302336669662,0.0013302336669548,0.0013302336669801,-0.00037383613790724,0.00037383613782705,7.4817254384235e-12,-7.559581442329e-12,9.3775958738243e-15,-9.0585806195213e-14,-0.00037961489427188,0.00037961489920416,-0.00037961489922327,0.0003796148942362,-0.0003796148945656,0.00037961489923444,-0.00037961489935869,0.00037961489441701,-0.00036646577764949,0.00036646579189979,-0.00036646579191393,0.00036646577754273,3.4895326618784e-13,4.4669888306751e-13,1.0905995799903e-12,3.7403697048612e-13,-0.0003738361375442,0.00037383613818933,-0.00037961489631747,0.00037961489731963,-0.00037961489651794,0.00037961489718541,-0.00037961489623415,0.00037961489747405,-0.00037961489650286,0.00037961489711139,-0.00036646578356486,0.00036646578598204,-0.00036646578432892,0.0003664657852822,-0.00036646578422171,0.00036646578530431,-0.00036646578420803,0.00036646578521006,-7.3457759445284e-12,7.7284712460967e-12,-0.00037383613767775,0.00037383613806489,-1.6093495119477e-13,5.5150779887414e-13,-0.00037961489956105,0.00037961489447141,-0.00037961489900517,0.00037961489444265,-0.00037961489432403,0.00037961489969867,-0.00037961489383649,0.0003796148996608,-0.00036646577697959,0.00036646579231863,-0.0003664657916961,0.00036646577771125,0.00027936231862095,9.0892114561287e-05,0.77330389174345,0.61863288197819,1368840,32768,0.0015564347146402,0.0015564347146386,0.0015564347146576,38.927765511129,38.960094845436,0.00022662212408903,0.00022662212408903,0.00022662212408903,730183.04975812,0.0046802371138449
7064046,0.26095788195093,0.0044021640896562,0.0014673880298808,0.0014673880298758,0.0014673880298997,-0.00040757873476159,0.0004075787346544,7.2593305559639e-12,-7.3614339661866e-12,3.4165515090495e-14,-1.4341423644058e-13,-0.00041423876710414,0.00041423877186881,-0.00041423877190263,0.00041423876706178,-0.00041423876739973,0.00041423877188174,-0.00041423877206202,0.00041423876722509,-0.00039926028008785,0.00039926029388523,-0.00039926029401048,0.00039926027992541,3.6017397487348e-13,5.3569106147637e-13,1.0615709667945e-12,4.7735221868797e-13,-0.00040757873433722,0.00040757873507675,-0.00041423876905247,0.00041423877008418,-0.00041423876920589,0.00041423876999563,-0.00041423876895103,0.00041423877025899,-0.00041423876917648,0.00041423876994458,-0.00039926028585413,0.00039926028816521,-0.00039926028647834,0.00039926028755844,-0.00039926028647118,0.00039926028752223,-0.00039926028636855,0.00039926028753808,-7.1386727566827e-12,7.5135369813086e-12,-0.00040757873452613,0.00040757873489868,-9.8210698259994e-14,4.8218055647969e-13,-0.0004142387722029,0.00041423876730153,-0.00041423877171161,0.00041423876723588,-0.00041423876713754,0.00041423877237141,-0.00041423876669303,0.00041423877229531,-0.00039926027948525,0.00039926029436222,-0.00039926029379058,0.00039926028010127,0.00040777172853842,0.00019082607200747,0.77099205061985,0.5989307284817,1368840,32768,0.0016967995148125,0.0016967995148083,0.0016967995148308,39.396421076893,39.428800415415,0.00023037136861514,0.00023037136861514,0.00023037136861514,804366.37851807,0.0051033946791996
7150446,0.2862241116864,0.0048236276989685,0.0016078758996498,0.0016078758996482,0.0016078758996704,-0.00044220384929543,0.00044220384918369,7.1189582854169e-12,-7.2325045225396e-12,3.1511169708337e-14,-1.5105144430559e-13,-0.00044983446137649,0.0004498344660637,-0.00044983446609679,0.00044983446133794,-0.00044983446166937,0.00044983446607177,-0.00044983446626978,0.00044983446150116,-0.00043281134779881,0.0004328113612455,-0.00043281136140949,0.0004328113476755,3.6494438796416e-13,5.4586550065424e-13,1.0892820540633e-12,4.7077905919937e-13,-0.00044220384885351,0.00044220384962505,-0.00044983446326328,0.00044983446435248,-0.00044983446342794,0.00044983446423726,-0.00044983446317834,0.00044983446452085,-0.00044983446339987,0.00044983446420234,-0.00043281135327145,0.00043281135569641,-0.00043281135398145,0.00043281135501849,-0.00043281135410129,0.00043281135497826,-0.00043281135393499,0.00043281135505595,-6.9908340965817e-12,7.3908941544333e-12,-0.00044220384904844,0.00044220384944368,-1.0944769321281e-13,5.0520725744154e-13,-0.00044983446638239,0.00044983446158413,-0.00044983446587819,0.00044983446152269,-0.00044983446139336,0.00044983446655723,-0.00044983446095107,0.00044983446650237,-0.0004328113471523,0.00043281136166073,-0.00043281136110011,0.00043281134777768,0.00054069327917471,0.00031401480224973,0.76687969830468,0.5536791793733,1368840,32768,0.0018408147485278,0.0018408147485266,0.0018408147485549,39.865077231773,39.897505985394,0.00023412061785418,0.00023412061785418,0.00023412061785418,873564.70291659,0.0055377433937875
7236846,0.31218509883892,0.0052526798096149,0.0017508932698622,0.0017508932698685,0.0017508932698842,-0.0004773795858996,0.00047737958576794,7.0101788144374e-12,-7.1412850298208e-12,3.760126307193e-14,-1.7121385776946e-13,-0.00048617991506081,0.00048617991967391,-0.00048617991973209,0.00048617991501175,-0.00048617991536122,0.00048617991967855,-0.00048617991989322,0.0004861799151525,-0.00046665813055675,0.00046665814384297,-0.00046665814399846,0.00046665813030966,4.3783664644982e-13,6.4611571749069e-13,1.1613188386831e-12,5.4802673610057e-13,-0.0004773795853697,0.00047737958630053,-0.00048617991683709,0.00048617991807822,-0.00048617991701485,0.00048617991796754,-0.00048617991673908,0.00048617991826712,-0.00048617991697852,0.00048617991793974,-0.0004666581359376,0.00046665813845934,-0.00046665813655643,0.00046665813771954,-0.0004666581366178,0.00046665813772595,-0.00046665813645025,0.00046665813780719,-6.8904875003367e-12,7.2874595495836e-12,-0.00047737958564127,0.00047737958604317,-9.0473736089466e-14,5.1927601147429e-13,-0.00048617991999811,0.00048617991527074,-0.00048617991949476,0.00048617991522341,-0.0004861799150892,0.00048617992016825,-0.00048617991464025,0.00048617992010868,-0.00046665812981629,0.00046665814429995,-0.00046665814362673,0.0004666581304969,0.00067650200040975,0.00044401969584906,0.7606027306447,0.48044187166241,1368840,32768,0.0019870984755879,0.0019870984755935,0.0019870984756231,40.333733631216,40.366211555373,0.00023786986904973,0.00023786986904973,0.00023786986904973,980701.88852451,0.0059791277789579
7323246,0.33863546183417,0.0056865677570034,0.0018955225856556,0.001895522585664,0.0018955225856839,-0.00051270423041522,0.00051270423023049,6.9011537480195e-12,-7.0951678945499e-12,6.9184857038343e-14,-2.7677930928797e-13,-0.00052289172441797,0.00052289172896542,-0.00052289172901365,0.00052289172435997,-0.00052289172475094,0.00052289172892722,-0.00052289172922523,0.00052289172445827,-0.00050040739300565,0.00050040740594893,-0.00050040740615021,0.00050040739245225,4.0605446296194e-13,7.5252764315e-13,1.2047626144468e-12,5.8542358629952e-13,-0.00051270422982555,0.00051270423082473,-0.00052289172615782,0.00052289172740323,-0.00052289172631692,0.0005228917273001,-0.00052289172600975,0.00052289172763821,-0.00052289172624268,0.00052289172731713,-0.00050040739801539,0.00050040740070134,-0.00050040739877628,0.00050040739994772,-0.00050040739888063,0.00050040739983363,-0.0005004073985975,0.00050040740012705,-6.7910573319777e-12,7.229379860643e-12,-0.00051270423012059,0.00051270423054029,-9.6149040653984e-14,5.1936997183916e-13,-0.00052289172927626,0.00052289172462661,-0.00052289172877555,0.00052289172457589,-0.00052289172442008,0.00052289172945498,-0.00052289172398059,0.00052289172939604,-0.00050040739209998,0.00050040740653665,-0.00050040740565364,0.0005004073928308,0.000813348355258,0.00057716812693122,0.75616667735888,0.43798350754416,1368840,32768,0.0021339794122465,0.002133979412256,0.002133979412278,40.723926259947,40.751192740493,0.00024099141007957,0.00024099141007957,0.00024099141007957,1115118.2964054,0.0064225110385483
7409646,0.3649401984005,0.0061151753147892,0.0020383917715823,0.0020383917715954,0.0020383917716115,-0.00054698002613188,0.00054698002592347,6.8315094785453e-12,-7.0481118026695e-12,7.1134709236403e-14,-2.837640370858e-13,-0.00055870187242089,0.00055870187690064,-0.00055870187697342,0.00055870187234243,-0.00055870187275206,0.00055870187686312,-0.00055870187720011,0.00055870187242193,-0.00053294712352597,0.00053294713644298,-0.00053294713674661,0.00053294712313096,4.7753810271523e-13,8.3501131450693e-13,1.2819217058189e-12,6.5402172596756e-13,-0.00054698002545036,0.00054698002661164,-0.00055870187402916,0.00055870187545765,-0.00055870187420555,0.00055870187534049,-0.00055870187388722,0.000558701875681,-0.00055870187410853,0.00055870187536689,-0.00053294712857999,0.00053294713141072,-0.00053294712927152,0.0005329471306893,-0.00053294712942705,0.00053294713054295,-0.00053294712912209,0.00053294713076543,-6.731191631422e-12,7.1661317119482e-12,-0.00054698002582139,0.00054698002625037,-9.2704035602406e-14,5.3134688536444e-13,-0.00055870187720804,0.00055870187262046,-0.00055870187671304,0.00055870187257421,-0.00055870187240389,0.0005587018774093,-0.00055870187196194,0.00055870187735995,-0.00053294712278141,0.00053294713702499,-0.00053294713631008,0.00053294712345511,0.00094615208937636,0.00070936234190215,0.75257882157326,0.4084419699485,1368840,32768,0.0022764780124053,0.0022764780124191,0.0022764780124394,40.776695682539,40.78119478298,0.00024141356546031,0.00024141356546031,0.00024141356546031,1243091.3564563,0.006852854492764
7496046,0.39099921292816,0.0065372448291385,0.0021790816096975,0.0021790816097127,0.0021790816097283,-0.00058070033063306,0.00058070033040411,6.7757934747487e-12,-7.0096143022711e-12,6.9960274526342e-14,-3.0527029184919e-13,-0.00059406794697295,0.00059406795140561,-0.0005940679514946,0.00059406794687794,-0.00059406794730442,0.00059406795136356,-0.0005940679517291,0.00059406794694756,-0.00056480665285005,0.00056480666568246,-0.00056480666601145,0.00056480665245083,4.0906912086621e-13,7.8692813635619e-13,1.2169932922785e-12,5.9933805828078e-13,-0.00058070033,0.00058070033104481,-0.00059406794861798,0.0005940679499254,-0.00059406794879654,0.00059406794980535,-0.00059406794847227,0.00059406795015027,-0.00059406794869007,0.00059406794984333,-0.00056480665793356,0.00056480666063053,-0.0005648066585815,0.00056480665991524,-0.00056480665878226,0.00056480665971827,-0.0005648066584632,0.00056480665999539,-6.6762479863832e-12,7.121899769086e-12,-0.00058070033030838,0.00058070033074499,-8.4721323586425e-14,5.2904919085155e-13,-0.00059406795170971,0.0005940679471674,-0.00059406795122112,0.00059406794712307,-0.00059406794694112,0.00059406795192132,-0.00059406794650554,0.00059406795187276,-0.00056480665209779,0.00056480666624643,-0.00056480666555131,0.00056480665277876,0.0010769004957272,0.00083987205774557,0.74953715049988,0.38655359522117,1368840,32768,0.0024166468430075,0.0024166468430234,0.0024166468430412,40.808867522273,40.811196825467,0.00024167094017818,0.00024167094017818,0.00024167094017818,1361721.3763362,0.0072763436992091
7582446,0.41674620313614,0.0069519476854722,0.002317315895141,0.002317315895158,0.0023173158951732,-0.00061383167027419,0.00061383167002682,6.7416722818336e-12,-6.9930489848008e-12,6.6586995224768e-14,-3.2277728643429e-13,-0.00062895024286783,0.00062895024727237,-0.00062895024737306,0.00062895024276053,-0.00062895024320227,0.00062895024722334,-0.00062895024761267,0.00062895024282103,-0.00059596559891269,0.00059596561169168,-0.00059596561204171,0.00059596559849445,4.4080510723597e-13,8.3395787610051e-13,1.2480314029091e-12,6.3797717200003e-13,-0.00061383166959464,0.00061383167071476,-0.00062895024446419,0.00062895024583894,-0.00062895024463901,0.00062895024571936,-0.00062895024431095,0.00062895024606696,-0.00062895024452786,0.00062895024576646,-0.00059596560394208,0.00059596560669667,-0.00059596560456643,0.00059596560597911,-0.00059596560477973,0.00059596560577888,-0.0005959656044677,0.00059596560608497,-6.6475148347495e-12,7.0977176843027e-12,-0.0006138316699396,0.00061383167038098,-7.821581644285e-14,5.2791875479736e-13,-0.00062895024757655,0.00062895024306198,-0.00062895024709365,0.00062895024301639,-0.0006289502428268,0.00062895024779454,-0.0006289502423973,0.00062895024774622,-0.00059596559815244,0.00059596561225854,-0.00059596561156605,0.00059596559883706,0.0012054351094553,0.00096829697585909,0.74673475551672,0.36759429586325,1368840,32768,0.0025543477365743,0.0025543477365918,0.002554347736615,40.839090387229,40.841198867954,0.00024191272309783,0.00024191272309783,0.00024191272309783,1471307.183013,0.0076925522679796
7668846,0.44212078341202,0.0073591114711518,0.0024530371570326,0.0024530371570509,0.0024530371570683,-0.00064636053282678,0.00064636053255999,6.7035241531151e-12,-6.9751021213004e-12,6.8792486672047e-14,-3.4194949485413e-13,-0.00066330687798481,0.00066330688235578,-0.0006633068824696,0.0006633068778637,-0.00066330687832105,0.0006633068822976,-0.00066330688271464,0.00066330687791254,-0.00062645476659666,0.00062645477930386,-0.00062645477968936,0.0006264547661598,4.768844903297e-13,8.9269705224724e-13,1.2868576138538e-12,6.8576602090702e-13,-0.00064636053209081,0.00064636053330517,-0.00066330687952081,0.00066330688098215,-0.00066330687969113,0.00066330688086192,-0.00066330687935995,0.00066330688121459,-0.00066330687957399,0.00066330688092067,-0.0006264547715495,0.00062645477439368,-0.00062645477217967,0.00062645477368944,-0.0006264547724096,0.00062645477347092,-0.000626454772064,0.00062645477378592,-6.618302580105e-12,7.0694921495146e-12,-0.00064636053248248,0.00064636053292599,-7.3000755171157e-14,5.241543992076e-13,-0.0006633068826591,0.00066330687817165,-0.00066330688218308,0.00066330687812527,-0.00066330687793074,0.00066330688288426,-0.00066330687750686,0.00066330688283505,-0.00062645476584312,0.00062645477988697,-0.00062645477920361,0.00062645476651794,0.0013316540498227,0.0010944266107686,0.7451537634736,0.36581857649114,1368840,32768,0.002689525636881,0.0026895256369002,0.0026895256369262,40.869115042084,40.871200910441,0.00024215292033667,0.00024215292033667,0.00024215292033667,1566844.7738279,0.0081013042220916
7755246,0.46706668703304,0.0077580243221368,0.0025860081073593,0.0025860081073791,0.0025860081073983,-0.00067829123006812,0.00067829122978219,6.676359953551e-12,-6.9670400146511e-12,7.0563491392598e-14,-3.6357071669358e-13,-0.00069709194437591,0.00069709194872496,-0.00069709194884984,0.0006970919442438,-0.00069709194471742,0.00069709194866424,-0.00069709194910854,0.00069709194428155,-0.00065632733293163,0.00065632734559316,-0.00065632734600713,0.00065632733247159,5.1775115364589e-13,9.5857224568765e-13,1.3419775329193e-12,7.3575690548452e-13,-0.00067829122926859,0.00067829123059157,-0.00069709194584738,0.00069709194741517,-0.00069709194602562,0.00069709194729004,-0.00069709194568403,0.00069709194765329,-0.0006970919458945,0.00069709194735966,-0.00065632733781236,0.00065632734076395,-0.00065632733843531,0.00065632734006284,-0.00065632733869005,0.0006563273398105,-0.00065632733832024,0.00065632734016517,-6.5941171130721e-12,7.052426935551e-12,-0.00067829122971016,0.00067829123016077,-7.179368910502e-14,5.3045079509232e-13,-0.00069709194902709,0.00069709194455989,-0.00069709194855149,0.00069709194451808,-0.00069709194431405,0.00069709194925693,-0.00069709194389065,0.0006970919492133,-0.0006563273321705,0.00065632734618204,-0.00065632734549306,0.00065632733285211,0.0014555539310966,0.0012179950049396,0.74366283406141,0.36404285711904,1368840,32768,0.0028221995320131,0.0028221995320336,0.002822199532056,40.89911918869,40.901202952928,0.00024239295350952,0.00024239295350952,0.00024239295350952,1638427.0893889,0.0085026476165974
7841646,0.49153199053438,0.0081480900370906,0.0027160300123429,0.0027160300123639,0.0027160300123838,-0.00070951855325257,0.0007095185529465,6.637480258946e-12,-6.9477751914135e-12,7.4536752365144e-14,-3.8788782676374e-13,-0.00073020582687281,0.00073020583118307,-0.00073020583131827,0.00073020582672959,-0.00073020582721773,0.00073020583110823,-0.00073020583158125,0.00073020582675187,-0.00068547543481068,0.00068547544739066,-0.00068547544783561,0.00068547543432996,5.6374293980486e-13,1.0345961585034e-12,1.3954101947058e-12,7.9321991473491e-13,-0.00070951855238231,0.0007095185538271,-0.00073020582826646,0.00073020582995088,-0.00073020582843933,0.00073020582982087,-0.00073020582808908,0.00073020583019281,-0.00073020582830336,0.00073020582990553,-0.00068547543959033,0.00068547544266498,-0.00068547544021309,0.0006854754419547,-0.00068547544047491,0.00068547544169829,-0.00068547544009074,0.00068547544207398,-6.5678388276204e-12,7.0278544803403e-12,-0.00070951855288953,0.00070951855334292,-6.8900924535816e-14,5.2929884498949e-13,-0.00073020583149125,0.00073020582704637,-0.00073020583102312,0.00073020582701018,-0.00073020582679558,0.0007302058317255,-0.00073020582637944,0.00073020583168786,-0.000685475434038,0.00068547544800099,-0.00068547544731834,0.00068547543471958,0.0015766925665966,0.0013387842010495,0.74224051744387,0.36226713774693,1368840,32768,0.0029519333468286,0.0029519333468501,0.002951933346898,40.929121209079,40.931204995415,0.00024263296967263,0.00024263296967263,0.00024263296967263,1698257.3049387,0.0088952535771496
7928046,0.51546846580883,0.0085286894522992,0.0028428964840762,0.0028428964840982,0.0028428964841248,-0.00073999222759734,0.00073999222726604,6.6113667919886e-12,-6.9474975234255e-12,8.1626212257599e-14,-4.1988649628517e-13,-0.00076258334781506,0.00076258335211115,-0.00076258335225741,0.00076258334766085,-0.00076258334817471,0.00076258335202862,-0.00076258335254137,0.00076258334766932,-0.00071386422673406,0.0007138642392657,-0.00071386423975241,0.00071386422621326,6.2142342770555e-13,1.1332859083052e-12,1.4772649440994e-12,8.6708611405558e-13,-0.00073999222663783,0.00073999222823659,-0.00076258334913379,0.00076258335095644,-0.00076258334931422,0.00076258335082405,-0.00076258334894727,0.0007625833512127,-0.00076258334915816,0.00076258335092398,-0.00071386423141063,0.00071386423464925,-0.00071386423203239,0.00071386423394178,-0.00071386423232874,0.00071386423363962,-0.00071386423189722,0.00071386423407109,-6.5460773747708e-12,7.0132075601466e-12,-0.00073999222721388,0.00073999222767398,-6.9235252557618e-14,5.3695761101945e-13,-0.00076258335241765,0.00076258334799161,-0.0007625833519454,0.00076258334795507,-0.00076258334773637,0.00076258335265612,-0.00076258334731651,0.00076258335261885,-0.00071386422594619,0.00071386423988428,-0.00071386423919115,0.00071386422663271,0.0016948507939312,0.0014565743550252,0.74087222359509,0.36049141837482,1368840,32768,0.0030785194225147,0.0030785194225376,0.0030785194225655,40.959123013746,40.961207037902,0.00024287298410997,0.00024287298410997,0.00024287298410997,1747284.8749756,0.0092784828986476
8014446,0.53883249427841,0.008899263972813,0.0029664213242466,0.0029664213242698,0.0029664213242966,-0.0007696669110514,0.00076966691070628,6.6103378234229e-12,-6.9596277705018e-12,8.1085022908209e-14,-4.3249455229419e-13,-0.00079416543852012,0.00079416544280872,-0.00079416544296737,0.00079416543835366,-0.00079416543887772,0.00079416544272246,-0.0007941654432519,0.00079416543835573,-0.00074146233312036,0.00074146234565643,-0.00074146234615858,0.000741462332581,4.0128803504363e-13,9.2317579761307e-13,1.2582747370411e-12,6.4596461916547e-13,-0.00076966691030335,0.00076966691146578,-0.00079416544005299,0.00079416544143509,-0.00079416544023471,0.00079416544130137,-0.00079416543986557,0.00079416544169308,-0.00079416544007558,0.00079416544140602,-0.00074146233801274,0.00074146234081551,-0.00074146233863418,0.0007414623401085,-0.0007414623389445,0.00074146233980205,-0.00074146233849874,0.00074146234024647,-6.54776447029e-12,7.0191962448435e-12,-0.00076966691065825,0.00076966691112274,-6.7761959330421e-14,5.4045062195742e-13,-0.00079416544311356,0.00079416543869035,-0.00079416544264388,0.00079416543865616,-0.00079416543843117,0.00079416544335619,-0.0007941654380131,0.00079416544332103,-0.00074146233232055,0.00074146234627539,-0.00074146234557798,0.00074146233301407,0.0018098309230245,0.0015711691184397,0.7395476972281,0.35871569900271,1368840,32768,0.0032017706686629,0.0032017706686867,0.0032017706687114,40.989124800732,40.991209080389,0.00024311299840585,0.00024311299840585,0.00024311299840585,1786391.0312071,0.0096517579577447
8100846,0.56160562287596,0.00925964042233,0.0030865468074185,0.0030865468074425,0.0030865468074689,-0.00079855827601412,0.00079855827565602,6.6017744967913e-12,-6.9647740544628e-12,7.8653861884392e-14,-4.4399470097254e-13,-0.00082495627272803,0.00082495627700647,-0.0008249562771743,0.00082495627255226,-0.00082495627308594,0.00082495627691676,-0.00082495627746131,0.00082495627254872,-0.00076829657113096,0.00076829658365128,-0.00076829658417798,0.00076829657057795,3.8553333986817e-13,9.1678452227391e-13,1.2379137708193e-12,6.3762716798653e-13,-0.0007985582752715,0.0007985582764104,-0.00082495627426997,0.00082495627562247,-0.00082495627444854,0.00082495627549054,-0.00082495627407933,0.00082495627588149,-0.00082495627428549,0.00082495627559961,-0.00076829657604908,0.00076829657881382,-0.0007682965766538,0.00076829657811523,-0.00076829657696779,0.00076829657779166,-0.00076829657651688,0.00076829657825404,-6.5460399347381e-12,7.0153296276718e-12,-0.00079855827561482,0.00079855827607807,-6.2159836353785e-14,5.3407786075855e-13,-0.00082495627731094,0.00082495627289326,-0.00082495627684601,0.00082495627285648,-0.00082495627263149,0.00082495627755604,-0.00082495627221797,0.00082495627751855,-0.00076829657034477,0.0007682965842847,-0.00076829658359364,0.00076829657102444,0.0019216906436676,0.0016825030680435,0.7382587507184,0.35693997963061,1368840,32768,0.0033217534380774,0.0033217534381018,0.0033217534381247,41.034730350194,41.037860889103,0.00024347784280155,0.00024347784280155,0.00024347784280155,1816364.8348159,0.010015268522972
8187246,0.58382599630507,0.0096105238276604,0.0032035079425284,0.0032035079425531,0.0032035079425788,-0.00082680553514572,0.00082680553476539,6.5936808028717e-12,-6.9780825596619e-12,8.7725672982084e-14,-4.7512354412539e-13,-0.00085508833757737,0.00085508834184823,-0.00085508834202626,0.00085508833739197,-0.00085508833794486,0.00085508834174694,-0.00085508834232752,0.00085508833737212,-0.00079451156146376,0.00079451157395865,-0.000794511574523,0.00079451156088108,3.6361878875442e-13,9.3532616172191e-13,1.2378815659208e-12,6.3069802672586e-13,-0.00082680553439536,0.00082680553552788,-0.00085508833912428,0.00085508834045864,-0.00085508833930758,0.00085508834032224,-0.00085508833892406,0.00085508834072963,-0.00085508833912881,0.00085508834044662,-0.00079451156636032,0.00079451156913538,-0.00079451156696887,0.00079451156843662,-0.00079451156731302,0.00079451156808597,-0.00079451156682257,0.00079451156859325,-6.5451867549198e-12,7.017916916279e-12,-0.0008268055347344,0.00082680553520198,-6.3275419920532e-14,5.3983118499844e-13,-0.00085508834215353,0.00085508833773844,-0.00085508834168962,0.0008550883377068,-0.00085508833747399,0.00085508834240105,-0.00085508833706145,0.00085508834236909,-0.0007945115606605,0.00079451157460142,-0.00079451157390974,0.00079451156134514,0.0020310052537815,0.0017908063804663,0.73699714946249,0.3551642602585,1368840,32768,0.0034390469913468,0.0034390469913721,0.0034390469913994,41.139113331777,41.146222284229,0.00024431290665421,0.00024431290665421,0.00024431290665421,1837906.7660414,0.010370759663172
8273646,0.60545945283635,0.0099516105982927,0.0033172035327387,0.003317203532764,0.0033172035327901,-0.00085427874969982,0.00085427874930829,6.593376900391e-12,-6.9882153383477e-12,8.4897435853375e-14,-4.8443664196959e-13,-0.00088442125755796,0.00088442126182348,-0.00088442126201048,0.00088442125736417,-0.00088442125792565,0.00088442126171953,-0.00088442126231418,0.00088442125733924,-0.00081999197266114,0.00081999198516982,-0.00081999198574844,0.00081999197207625,3.5128287149058e-13,9.297043334649e-13,1.2210767116505e-12,6.2468356340476e-13,-0.00085427874895246,0.0008542787500679,-0.00088442125911099,0.00088442126042453,-0.00088442125929251,0.00088442126029029,-0.00088442125890909,0.00088442126069656,-0.00088442125911003,0.00088442126041867,-0.00081999197759463,0.00081999198033412,-0.00081999197818836,0.00081999197964004,-0.00081999197853984,0.00081999197928357,-0.00081999197804866,0.0008199919797987,-6.5505445618307e-12,7.0202257428048e-12,-0.00085427874928379,0.00085427874974996,-5.7434907167717e-14,5.3489399759083e-13,-0.00088442126212966,0.00088442125771386,-0.0008844212616689,0.0008844212576795,-0.00088442125744882,0.00088442126237866,-0.0008844212570396,0.0008844212623434,-0.00081999197187384,0.00081999198581819,-0.00081999198514226,0.00081999197255253,0.0021372224408263,0.0018959549967118,0.73604903521654,0.3576635335582,1368840,32768,0.0035531128505737,0.0035531128505991,0.003553112850627,41.247092498658,41.254583679356,0.00024517673998926,0.00024517673998926,0.00024517673998926,1850934.7735486,0.010716589831608
8360046,0.62647211296517,0.010282562859565,0.0034275209531624,0.0034275209531881,0.0034275209532146,-0.00088097112316589,0.00088097112276488,6.5955408636951e-12,-6.9990032440787e-12,8.2996993910572e-14,-4.9270424234125e-13,-0.00091292027904844,0.00091292028330994,-0.00091292028350419,0.00091292027884633,-0.00091292027941628,0.00091292028320571,-0.00091292028381092,0.00091292027881875,-0.00084475959085572,0.00084475960337431,-0.00084475960395073,0.00084475959025577,3.4309184230914e-13,9.2809788254088e-13,1.2119957096571e-12,6.2025858093788e-13,-0.00088097112242025,0.00088097112352277,-0.00091292028060687,0.00091292028190274,-0.00091292028078923,0.00091292028176879,-0.00091292028040411,0.00091292028217511,-0.00091292028060364,0.00091292028190028,-0.00084475959580654,0.00084475959853134,-0.00084475959639408,0.00084475959784011,-0.00084475959674943,0.00084475959746744,-0.00084475959625063,0.00084475959799933,-6.5546514069576e-12,7.0271315906594e-12,-0.00088097112274478,0.00088097112321183,-5.5025230781676e-14,5.3265393367031e-13,-0.00091292028361643,0.0009129202791999,-0.00091292028315874,0.00091292027916567,-0.00091292027893332,0.00091292028386704,-0.0009129202785265,0.00091292028383228,-0.00084475959007043,0.00084475960403241,-0.00084475960335382,0.00084475959076133,0.0022402976086753,0.0019978173968584,0.73536725226008,0.36353544780395,1368840,32768,0.0036639240048132,0.0036639240048387,0.0036639240048669,41.355412458645,41.362945074483,0.00024604329966916,0.00024604329966916,0.00024604329966916,1851839.7476402,0.011052666730248
8446446,0.64683457494738,0.010603018805121,0.0035343396016808,0.0035343396017066,0.0035343396017336,-0.00090685012253882,0.00090685012213246,6.603461709954e-12,-7.0151266926949e-12,7.8143053959812e-14,-4.9166989158701e-13,-0.00094054297049979,0.00094054297476306,-0.00094054297496413,0.00094054297029124,-0.00094054297086333,0.00094054297465972,-0.00094054297526834,0.00094054297026258,-0.00086879114694767,0.00086879115948107,-0.00086879116007543,0.00086879114633814,3.3756436411098e-13,9.1687490186582e-13,1.2044976887165e-12,6.0816295045109e-13,-0.00090685012179882,0.00090685012288506,-0.00094054297206643,0.00094054297334954,-0.00094054297224981,0.00094054297321303,-0.00094054297186636,0.0009405429736192,-0.00094054297206539,0.00094054297334429,-0.00086879115190772,0.00086879115461305,-0.00086879115249769,0.00086879115392406,-0.00086879115285598,0.00086879115355893,-0.00086879115236009,0.00086879115407957,-6.5649993555408e-12,7.0390515794531e-12,-0.0009068501221142,0.00090685012258354,-5.6142167248269e-14,5.3609353447522e-13,-0.00094054297507133,0.00094054297064984,-0.00094054297461359,0.00094054297061726,-0.00094054297038063,0.00094054297532349,-0.00094054296997417,0.00094054297529048,-0.00086879114615175,0.00086879116013539,-0.0008687911594472,0.00086879114683191,0.0023400891105678,0.0020962695263644,0.73473318019398,0.3694073620497,1368840,32768,0.0037713465463964,0.0037713465464225,0.0037713465464514,41.463767142285,41.47130646961,0.00024691013713828,0.00024691013713828,0.00024691013713828,1842353.4556713,0.011378574060061
8532846,0.66652218650688,0.010912673558539,0.0036375578528196,0.0036375578528458,0.0036375578528733,-0.00093187112943161,0.00093187112902214,6.6045039428204e-12,-7.0182013340608e-12,7.3670749409175e-14,-4.911323785959e-13,-0.00096724615089437,0.0009672461551536,-0.00096724615535908,0.00096724615068031,-0.0009672461512538,0.00096724615505193,-0.00096724615566123,0.00096724615065162,-0.00089204044256594,0.0008920404551086,-0.00089204045570009,0.00089204044195689,3.3364701319512e-13,9.0811193427435e-13,1.1980691351044e-12,5.9739977925858e-13,-0.00093187112869739,0.00093187112976913,-0.00096724615246352,0.00096724615373532,-0.00096724615264992,0.00096724615359614,-0.00096724615226602,0.0009672461540023,-0.00096724615246647,0.00096724615372668,-0.0008920404475397,0.00089204045022561,-0.00089204044813589,0.00089204044954259,-0.00089204044848201,0.00089204044917193,-0.00089204044799445,0.00089204044969706,-6.5645669275747e-12,7.0419995776291e-12,-0.00093187112900402,0.0009318711294764,-5.7472391316719e-14,5.3906013502408e-13,-0.00096724615546015,0.00096724615104051,-0.0009672461550021,0.00096724615101111,-0.00096724615076944,0.00096724615571364,-0.00096724615036231,0.00096724615568394,-0.00089204044177552,0.00089204045576728,-0.00089204045507658,0.00089204044246512,0.0024364078773726,0.0021912071838843,0.73414143962789,0.37527927629544,1368840,32768,0.0038751964114579,0.0038751964114844,0.0038751964115133,41.572125440062,41.579667864737,0.0002477770035205,0.0002477770035205,0.0002477770035205,1826219.1043927,0.011693743127227
8619246,0.68551503940476,0.011211271664475,0.003737090554798,0.0037370905548245,0.0037370905548523,-0.00095601292649136,0.00095601292608034,6.616688864697e-12,-7.0308848289417e-12,6.8569140553941e-14,-4.884852535814e-13,-0.00099300316064256,0.0009930031649055,-0.00099300316511598,0.00099300316042441,-0.00099300316099788,0.00099300316480717,-0.00099300316541533,0.00099300316039714,-0.00091449077545878,0.00091449078803497,-0.00091449078861993,0.00091449077484895,3.3060845896205e-13,8.9746440660783e-13,1.2007019664379e-12,5.8110546821507e-13,-0.00095601292576318,0.00095601292682139,-0.00099300316221638,0.00099300316348242,-0.00099300316240875,0.0009930031633366,-0.00099300316202197,0.00099300316374544,-0.00099300316222732,0.00099300316346516,-0.00091449078044606,0.00091449078313648,-0.00091449078106108,0.00091449078243566,-0.00091449078140281,0.00091449078206772,-0.00091449078091947,0.00091449078259105,-6.5712806048294e-12,7.0586882736832e-12,-0.00095601292605898,0.00095601292653982,-6.287900556013e-14,5.5249428344359e-13,-0.00099300316521245,0.00099300316078804,-0.00099300316474946,0.00099300316076492,-0.00099300316051487,0.00099300316546855,-0.00099300316010269,0.00099300316544522,-0.00091449077466011,0.00091449078869541,-0.00091449078798843,0.00091449077536877,0.0025291606575395,0.0022825433697592,0.73358803647101,0.38115119054119,1368840,32768,0.0039753867030243,0.003975386703051,0.0039753867030806,41.680484126729,41.688029259864,0.00024864387301383,0.00024864387301383,0.00024864387301383,1804345.5902173,0.011997899838546
8705646,0.70379795369878,0.011498621975245,0.003832873991721,0.0038328739917477,0.0038328739917759,-0.0009792595079388,0.00097925950754299,6.6261075769619e-12,-7.0267306323202e-12,5.005450028114e-14,-4.533853258601e-13,-0.001017793906399,0.0010177939106614,-0.0010177939108739,0.0010177939061784,-0.001017793906735,0.00101779391058,-0.0010177939111558,0.0010177939061672,-0.00093612917504548,0.00093612918765769,-0.00093612918821368,0.00093612917446494,3.4310356253933e-13,8.5648521731747e-13,1.1775137189406e-12,5.7234958864235e-13,-0.00097925950723322,0.00097925950826172,-0.0010177939079816,0.0010177939092306,-0.0010177939081702,0.0010177939090883,-0.0010177939078049,0.0010177939094753,-0.0010177939080053,0.0010177939092003,-0.00093612918007657,0.00093612918270392,-0.00093612918067855,0.00093612918201507,-0.00093612918099053,0.00093612918168847,-0.00093612918056047,0.00093612918215608,-6.5753772737966e-12,7.058525087492e-12,-0.00097925950751609,0.00097925950799307,-5.7409157954338e-14,5.4356254159629e-13,-0.0010177939109673,0.0010177939065431,-0.0010177939105103,0.0010177939065164,-0.0010177939062691,0.0010177939112244,-0.0010177939058627,0.0010177939111974,-0.00093612917426319,0.00093612918829257,-0.00093612918759017,0.00093612917495926,0.0026182765222651,0.0023702130811903,0.73306991356373,0.38702310478694,1368840,32768,0.0040718521418715,0.0040718521418988,0.0040718521419284,41.788842864939,41.79639065499,0.00024951074291952,0.00024951074291952,0.00024951074291952,1777578.1634875,0.012290835801676
8792046,0.72136033004527,0.011773281089004,0.0039244270296404,0.0039244270296675,0.0039244270296958,-0.0010014831751172,0.0010014831747108,6.6127782782804e-12,-7.0332346983313e-12,5.7340483581704e-14,-4.6438675447989e-13,-0.0010415292605895,0.0010415292648417,-0.0010415292650584,0.0010415292603606,-0.0010415292609286,0.0010415292647562,-0.0010415292653443,0.0010415292603434,-0.00095676029505626,0.0009567603075924,-0.00095676030820713,0.00095676029443689,3.2905821220337e-13,8.6059729757859e-13,1.1508163433507e-12,6.0081026330593e-13,-0.0010014831744081,0.0010014831754336,-0.0010415292621783,0.0010415292634045,-0.0010415292623507,0.0010415292632795,-0.0010415292619989,0.0010415292636512,-0.0010415292621801,0.0010415292633946,-0.00095676030005117,0.00095676030264933,-0.00095676030062678,0.00095676030204632,-0.00095676030096889,0.00095676030162977,-0.00095676030049639,0.00095676030211345,-6.582133449753e-12,7.0436997903946e-12,-0.0010014831747002,0.0010014831751563,-4.4766176541682e-14,5.0142932873702e-13,-0.001041529265153,0.0010415292607314,-0.0010415292647123,0.0010415292606892,-0.0010415292604588,0.0010415292654097,-0.0010415292600703,0.0010415292653666,-0.00095676029427728,0.00095676030822679,-0.00095676030753563,0.00095676029489038,0.0027032885736581,0.0024539124588807,0.72914179483519,0.34191924354049,1368840,32768,0.0041640635460469,0.0041640635460752,0.0041640635461059,41.89720157389,41.904752050117,0.00025037761259112,0.00025037761259112,0.00025037761259112,1754621.2271019,0.012570935242106
8878446,0.73814862900665,0.012033794430554,0.0040112648101567,0.0040112648101843,0.0040112648102133,-0.0010220893293086,0.0010220893288748,6.5817597258759e-12,-7.0274204053657e-12,6.8697813093672e-14,-5.1277286455273e-13,-0.0010638294531689,0.0010638294574066,-0.001063829457631,0.0010638294529422,-0.0010638294535269,0.0010638294573033,-0.0010638294579379,0.0010638294528983,-0.00097557884772045,0.00097557886023305,-0.00097557886091027,0.00097557884707848,3.0772942260678e-13,8.9930317396416e-13,1.1418537642101e-12,6.0583316868314e-13,-0.0010220893285812,0.0010220893296151,-0.0010638294547608,0.0010638294559678,-0.0010638294549251,0.0010638294558454,-0.0010638294545561,0.0010638294562349,-0.0010638294547266,0.0010638294559814,-0.00097557885275165,0.00097557885535382,-0.00097557885326686,0.0009755788547227,-0.00097557885367419,0.00097557885433492,-0.00097557885316674,0.00097557885487924,-6.5679172369897e-12,7.0197106261883e-12,-0.00102208932888,0.0010220893293298,-3.4714851249829e-14,4.9762348912046e-13,-0.0010638294577157,0.0010638294533026,-0.0010638294572817,0.0010638294532536,-0.0010638294530331,0.0010638294579706,-0.0010638294526495,0.0010638294579212,-0.00097557884699862,0.00097557886093053,-0.00097557886027536,0.00097557884758656,0.0027817909507497,0.0025332351338236,0.72324002353577,0.27138035474796,1368840,32768,0.0042495545255197,0.0042495545255465,0.0042495545255745,41.953276745663,41.957313949165,0.0002508262139653,0.0002508262139653,0.0002508262139653,1777627.9641063,0.012830695230732
8964846,0.75401864925406,0.012280336387114,0.0040934454623433,0.0040934454623708,0.0040934454623995,-0.0010410014501535,0.0010410014496973,6.5667779776757e-12,-7.0306500125858e-12,8.2654945536386e-14,-5.5248068091796e-13,-0.0010844873151864,0.0010844873194134,-0.0010844873196408,0.0010844873149484,-0.0010844873155546,0.0010844873192813,-0.001084487319961,0.0010844873148879,-0.00099269278792151,0.000992692800378,-0.00099269280108424,0.00099269278721956,2.887020185868e-13,9.3437977886855e-13,1.1373917828735e-12,6.2462944741091e-13,-0.0010410014494083,0.001041001450456,-0.0010844873167822,0.0010844873179728,-0.0010844873169352,0.0010844873178581,-0.0010844873165573,0.0010844873182583,-0.0010844873167268,0.0010844873180099,-0.00099269279288613,0.00099269279546441,-0.00099269279340223,0.00099269279490431,-0.00099269279381513,0.00099269279444181,-0.00099269279329206,0.0009926927950526,-6.5627973639866e-12,7.0116877977508e-12,-0.001041001449718,0.0010410014501601,-3.3656604166787e-14,4.7579090609088e-13,-0.0010844873197168,0.0010844873153215,-0.0010844873193001,0.001084487315261,-0.0010844873150489,0.0010844873199766,-0.0010844873146723,0.0010844873199244,-0.00099269278713245,0.00099269280105527,-0.00099269280039649,0.00099269278771648,0.0028533042299937,0.0026078840965802,0.72420128898094,0.30552683410251,1368840,32768,0.0043280103449293,0.0043280103449573,0.004328010344986,41.83512704891,41.827332315666,0.00024988101639128,0.00024988101639128,0.00024988101639128,1814512.6350616,0.013069139683019
9051246,0.76899431196075,0.012512724903672,0.004170908301196,0.004170908301224,0.0041709083012524,-0.0010595874273376,0.001059587426886,6.5662384059239e-12,-7.0237918691562e-12,7.7432252144907e-14,-5.3892530090787e-13,-0.0011043207128369,0.0011043207170603,-0.0011043207172893,0.001104320712598,-0.0011043207132038,0.0011043207169399,-0.0011043207176068,0.0011043207125425,-0.0010099596555716,0.0010099596680347,-0.0010099596686913,0.0010099596548961,2.9098955164541e-13,9.1778463877986e-13,1.1182616025815e-12,6.3047003369089e-13,-0.0010595874266005,0.0010595874276369,-0.0011043207144335,0.0011043207156134,-0.0011043207145839,0.0011043207155087,-0.00110432071422,0.0011043207158928,-0.0011043207143783,0.0011043207156606,-0.0010099596605782,0.001009959663126,-0.0010099596610721,0.0010099596625581,-0.0010099596614759,0.0010099596620951,-0.0010099596609499,0.0010099596626911,-6.5640577078369e-12,7.0023843760816e-12,-0.0010595874269097,0.001059587427342,-2.3167615774653e-14,4.6108164956622e-13,-0.0011043207173713,0.0011043207129688,-0.0011043207169563,0.0011043207129036,-0.001104320712698,0.0011043207176255,-0.0011043207123326,0.0011043207175601,-0.0010099596548081,0.0010099596686836,-0.001009959668065,0.0010099596554126,0.0029234252317915,0.0026778707216199,0.72373298203774,0.31527569634439,1368840,32768,0.0044051081564533,0.0044051081564821,0.0044051081565118,41.706274564075,41.697350682167,0.0002488501965126,0.0002488501965126,0.0002488501965126,1761883.6818061,0.013303508591085
9137646,0.78311123661932,0.012731561028872,0.0042438536762624,0.0042438536762906,0.0042438536763191,-0.0010768963835806,0.0010768963831353,6.5812733289703e-12,-7.0326757154078e-12,6.9411761871262e-14,-5.2248315614528e-13,-0.0011228853423888,0.0011228853466173,-0.0011228853468499,0.0011228853421483,-0.0011228853427462,0.0011228853465047,-0.0011228853471593,0.0011228853420997,-0.0010259530921751,0.0010259531046796,-0.001025953105325,0.0010259530915216,2.9684765209623e-13,8.9923094087672e-13,1.1164824363456e-12,6.159842409278e-13,-0.0010768963828538,0.0010768963838759,-0.0011228853439875,0.001122885345167,-0.0011228853441433,0.0011228853450556,-0.0011228853437829,0.0011228853454374,-0.0011228853439459,0.0011228853452,-0.001025953097216,0.0010259530997492,-0.0010259530977071,0.0010259530991623,-0.0010259530981045,0.0010259530987361,-0.0010259530975972,0.0010259530992967,-6.5747764980323e-12,7.014775247549e-12,-0.001076896383154,0.0010768963835901,-2.5706626444914e-14,4.7120735493876e-13,-0.001122885346929,0.0011228853425172,-0.0011228853465093,0.0011228853424578,-0.001122885342249,0.001122885347181,-0.0011228853418791,0.0011228853471219,-0.0010259530914189,0.0010259531053204,-0.0010259531046991,0.0010259530920293,0.002988325452976,0.0027434350764208,0.72239134979704,0.31083835503535,1368840,32768,0.0044769028860899,0.0044769028861185,0.0044769028861485,41.576405192369,41.567369048668,0.00024781124153895,0.00024781124153895,0.00024781124153895,1727539.0830811,0.01352180713773
9224046,0.79640582821014,0.01293738268378,0.004312460894565,0.0043124608945933,0.004312460894622,-0.0010930474024454,0.0010930474020004,6.5689796751212e-12,-7.0208976928654e-12,6.5815165862448e-14,-5.1890920650346e-13,-0.0011402742916701,0.0011402742958878,-0.0011402742961223,0.001140274291427,-0.0011402742920236,0.0011402742957787,-0.0011402742964282,0.0011402742913802,-0.0010408158401952,0.0010408158526841,-0.0010408158533296,0.0010408158395429,2.9756664483737e-13,8.9285613562264e-13,1.1038979825567e-12,6.1997447197015e-13,-0.0010930474017226,0.0010930474027371,-0.0011402742932682,0.0011402742944366,-0.0011402742934189,0.0011402742943304,-0.0011402742930668,0.0011402742947034,-0.0011402742932242,0.001140274294472,-0.0010408158452329,0.001040815847739,-0.0010408158457171,0.0010408158471785,-0.0010408158461165,0.0010408158467483,-0.0010408158456126,0.0010408158473064,-6.5655707204389e-12,6.999205002621e-12,-0.0010930474020223,0.0010930474024517,-2.2102883595608e-14,4.5834985066786e-13,-0.0011402742961986,0.0011402742917952,-0.0011402742957851,0.0011402742917314,-0.0011402742915274,0.0011402742964494,-0.0011402742911634,0.0011402742963865,-0.0010408158394465,0.0010408158533164,-0.0010408158527057,0.001040815840041,0.0030484915608435,0.002804755092236,0.72105847577086,0.30640101372631,1368840,32768,0.0045438896824482,0.0045438896824769,0.0045438896825066,41.4464320669,41.437387415169,0.0002467714565352,0.0002467714565352,0.0002467714565352,1702847.2035801,0.013725530496249
9310446,0.80891519845766,0.013130770948762,0.0043769236495587,0.0043769236495872,0.0043769236496158,-0.0011082007969199,0.0011082007964721,6.5502740112723e-12,-7.0036842775469e-12,6.5716639460598e-14,-5.2180123580101e-13,-0.0011565960312731,0.0011565960354766,-0.0011565960357132,0.0011565960310279,-0.0011565960316268,0.0011565960353665,-0.0011565960360208,0.0011565960309789,-0.0010547554345128,0.001054755446959,-0.0010547554476058,0.0010547554338521,2.938409204204e-13,8.9196892743213e-13,1.1163203677673e-12,6.0695481088833e-13,-0.0011082007961969,0.0011082007972091,-0.0011565960328614,0.0011565960340345,-0.0011565960330216,0.0011565960339198,-0.0011565960326593,0.0011565960343025,-0.0011565960328251,0.0011565960340638,-0.0010547554395096,0.0010547554420385,-0.0010547554400121,0.0010547554414554,-0.0010547554404214,0.0010547554410332,-0.0010547554399096,0.001054755441598,-6.5414015764367e-12,6.9867894407314e-12,-0.0011082007964907,0.0011082007969295,-2.9868587535153e-14,4.759004321567e-13,-0.0011565960357876,0.0011565960313964,-0.0011565960353663,0.0011565960313412,-0.001156596031129,0.0011565960360388,-0.0011565960307565,0.0011565960359843,-0.0010547554337474,0.0010547554475976,-0.0010547554469655,0.0010547554343615,0.0031045772369282,0.0028620232711549,0.71973409318413,0.30196367241727,1368840,32768,0.004606734543719,0.004606734543748,0.0046067345437775,41.316448167084,41.30740578167,0.00024573158533667,0.00024573158533667,0.00024573158533667,1677128.4429087,0.013916695248667
9396846,0.82067666476697,0.013312340741054,0.0044374469136559,0.0044374469136845,0.0044374469137131,-0.0011224058777221,0.0011224058772674,6.5657457739147e-12,-7.023620433217e-12,7.0436789380905e-14,-5.3375022370881e-13,-0.0011719028590015,0.0011719028632137,-0.0011719028634534,0.0011719028587535,-0.0011719028593593,0.0011719028630978,-0.0011719028637653,0.0011719028586985,-0.0010678178341352,0.001067817846618,-0.0010678178472678,0.00106781783347,2.8757534712349e-13,9.0247172422595e-13,1.1049665675593e-12,6.1662972120882e-13,-0.0011224058769948,0.0011224058780085,-0.0011719028605983,0.001171902861761,-0.0011719028607509,0.0011719028616517,-0.0011719028603916,0.0011719028620337,-0.0011719028605498,0.0011719028618016,-0.0010678178391634,0.0010678178416755,-0.0010678178396535,0.0010678178411147,-0.0010678178400655,0.001067817840676,-0.0010678178395397,0.0010678178412504,-6.5631647939383e-12,6.9997988374209e-12,-0.0011224058772938,0.001122405877724,-2.4528780074371e-14,4.6026870381292e-13,-0.0011719028635257,0.001171902859123,-0.0011719028631114,0.0011719028590613,-0.0011719028588566,0.0011719028637766,-0.0011719028584917,0.0011719028637155,-0.0010678178333751,0.0010678178472499,-0.0010678178466398,0.0010678178339841,0.0031567873338105,0.0029154435038333,0.71841778135745,0.29752633110823,1368840,32768,0.0046656427637431,0.0046656427637717,0.0046656427638019,41.186463138936,41.177424148171,0.00024469170511148,0.00024469170511148,0.00024469170511148,1650714.6919814,0.014095918797927
9483246,0.83172731994245,0.013482699349349,0.004494233116421,0.0044942331164497,0.0044942331164784,-0.0011357113394643,0.0011357113389814,6.5477559117279e-12,-7.037202430061e-12,8.9874077938023e-14,-5.8113924659493e-13,-0.001186246609455,0.0011862466136621,-0.0011862466139058,0.0011862466092021,-0.0011862466098337,0.0011862466135228,-0.0011862466142393,0.0011862466091237,-0.0010800482464232,0.0010800482588397,-0.0010800482595506,0.0010800482457051,2.641353426113e-13,9.4584957553296e-13,1.0942468362162e-12,6.5015360884177e-13,-0.0011357113387117,0.0011357113397479,-0.0011862466110563,0.0011862466122047,-0.0011862466111945,0.0011862466121111,-0.0011862466108271,0.0011862466124991,-0.0011862466109705,0.001186246612283,-0.0010800482514219,0.0010800482539343,-0.0010800482518633,0.0010800482534098,-0.0010800482523349,0.0010800482529089,-0.0010800482517461,0.00108004825355,-6.5710119659773e-12,6.9870014048443e-12,-0.0011357113390313,0.0011357113394432,-1.0893608384212e-14,4.2988813191854e-13,-0.0011862466139786,0.0011862466095741,-0.0011862466135796,0.0011862466094968,-0.0011862466093101,0.0011862466142264,-0.0011862466089604,0.0011862466141496,-0.0010800482456519,0.0010800482594785,-0.0010800482588996,0.0010800482462166,0.0032053243791422,0.0029652172710695,0.71710906092846,0.29308898979919,1368840,32768,0.0047208169820027,0.0047208169820316,0.0047208169820624,41.056477988297,41.047442514672,0.00024365182390638,0.00024365182390638,0.00024365182390638,1623894.4101215,0.014263811359878
9569646,0.84210374969905,0.013642442508254,0.004547480836056,0.0045474808360848,0.0045474808361136,-0.0011481649607356,0.0011481649602417,6.5307821949692e-12,-7.0293472582664e-12,9.6544756506312e-14,-5.9862600650406e-13,-0.0011996782775607,0.0011996782817541,-0.0011996782820019,0.0011996782773045,-0.0011996782779476,0.0011996782816077,-0.0011996782823446,0.0011996782772177,-0.0010914909046314,0.0010914909170095,-0.0010914909177386,0.0010914909038934,2.5662766020114e-13,9.6259259345702e-13,1.074230477114e-12,6.7590608682712e-13,-0.0011481649599739,0.0011481649610172,-0.0011996782791621,0.0011996782802946,-0.0011996782792861,0.0011996782802142,-0.0011996782789257,0.0011996782805977,-0.0011996782790543,0.0011996782803962,-0.001091490909626,0.0010914909121115,-0.0010914909100237,0.0010914909116321,-0.0010914909105315,0.0010914909111073,-0.0010914909099179,0.0010914909117678,-6.5667504491049e-12,6.9659674885925e-12,-0.0011481649603059,0.0011481649607002,2.8917645997529e-15,3.9810730868323e-13,-0.0011996782820733,0.0011996782776755,-0.0011996782816884,0.0011996782775838,-0.0011996782774151,0.0011996782823177,-0.0011996782770791,0.0011996782822264,-0.0010914909038745,0.001091490917649,-0.001091490917102,0.0010914909044092,0.003250387282517,0.0030115423171989,0.71580744226486,0.28865164849015,1368840,32768,0.0047724559489651,0.0047724559489935,0.0047724559490246,40.926492820452,40.917460881173,0.00024261194256361,0.00024261194256361,0.00024261194256361,1596916.7126488,0.014420972127144
9656046,0.85182028979131,0.013791822931527,0.0045972743104803,0.004597274310509,0.0045972743105381,-0.0011597061397179,0.0011597061392649,6.5601738264868e-12,-7.0200454836057e-12,6.0411801519755e-14,-5.1978388566497e-13,-0.0012121400714549,0.001212140075658,-0.0012121400759041,0.0012121400712023,-0.0012121400718024,0.0012121400755496,-0.0012121400762071,0.0012121400711526,-0.0011020827624203,0.0011020827748894,-0.0011020827755433,0.0011020827617547,2.9125777874537e-13,8.8230222274332e-13,1.0517915449609e-12,6.4776744644327e-13,-0.0011597061390001,0.0011597061399968,-0.0012121400730669,0.0012121400741921,-0.0012121400731916,0.0012121400741108,-0.0012121400728677,0.0012121400744561,-0.0012121400729971,0.0012121400742538,-0.0011020827675081,0.001102082769905,-0.0011020827679067,0.0011020827694102,-0.0011020827683287,0.0011020827689616,-0.001102082767824,0.0011020827695174,-6.5760221658603e-12,6.9763428186921e-12,-0.0011597061393085,0.0011597061397035,8.2138667190688e-16,4.0175696189471e-13,-0.0012121400759777,0.0012121400715721,-0.0012121400755922,0.0012121400714823,-0.0012121400713132,0.0012121400762211,-0.0012121400709763,0.0012121400761317,-0.0011020827616965,0.0011020827754904,-0.0011020827749332,0.0011020827622284,0.0032917226215271,0.003054501200789,0.71451440943041,0.2842143071811,1368840,32768,0.0048203089254034,0.0048203089254327,0.0048203089254641,40.754638354172,40.742806050291,0.00024123710683337,0.00024123710683337,0.00024123710683337,1570129.6633606,0.014566632900439
9742446,0.8608562011679,0.013930767315024,0.0046435891049792,0.004643589105008,0.0046435891050372,-0.0011701722134921,0.0011701722130749,6.6337253442443e-12,-7.0577992714299e-12,2.6576482224358e-14,-4.556112578594e-13,-0.001223462336534,0.00122346234078,-0.0012234623410176,0.0012234623362866,-0.0012234623368463,0.0012234623406975,-0.0012234623412854,0.0012234623362653,-0.001111673185569,0.0011116731982232,-0.0011116731987764,0.0011116731849421,3.1140857491709e-13,8.0445489504339e-13,1.0844667526381e-12,5.7129840016721e-13,-0.0011701722128129,0.0011701722137676,-0.0012234623381446,0.0012234623393029,-0.0012234623383076,0.0012234623391893,-0.0012234623379761,0.0012234623395346,-0.0012234623381435,0.0012234623392988,-0.001111673190726,0.0011116731931474,-0.0011116731912411,0.001111673192573,-0.001111673191557,0.0011116731921831,-0.0011116731911748,0.0011116731926447,-6.6059341932449e-12,7.0572519352094e-12,-0.0011701722130788,0.0011701722135164,-3.4134486626629e-14,4.7538700666503e-13,-0.0012234623410861,0.0012234623366511,-0.0012234623406646,0.0012234623365935,-0.0012234623363851,0.0012234623413343,-0.0012234623360129,0.0012234623412776,-0.0011116731848282,0.0011116731988421,-0.0011116731981813,0.0011116731854668,0.0033286371084927,0.0030940362006419,0.71431757967872,0.29601911554497,1368840,32768,0.0048637020944141,0.0048637020944422,0.0048637020944724,40.458393409392,40.438148367703,0.00023886714727513,0.00023886714727513,0.00023886714727513,1543107.1639855,0.014698737107127
9828846,0.86925664577028,0.014060141153317,0.0046867137177434,0.0046867137177722,0.0046867137178014,-0.0011800198503683,0.0011800198499387,6.6586389360923e-12,-7.0826659823571e-12,3.6977105668922e-14,-4.8323906090781e-13,-0.0012340110582292,0.001234011062494,-0.0012340110627293,0.0012340110579763,-0.0012340110585493,0.0012340110623976,-0.0012340110630159,0.0012340110579443,-0.0011208027722554,0.0011208027849464,-0.0011208027854712,0.0011208027715667,3.0532834889911e-13,8.3702431183477e-13,1.1421061976749e-12,5.3758784176633e-13,-0.0011800198496762,0.0011800198506464,-0.0012340110598464,0.001234011061028,-0.0012340110600351,0.0012340110608805,-0.001234011059666,0.001234011061267,-0.0012340110598586,0.0012340110610031,-0.0011208027772973,0.0011208027798808,-0.0011208027779382,0.0011208027792268,-0.0011208027782394,0.0011208027788035,-0.0011208027778211,0.0011208027793191,-6.6108780422137e-12,7.1016302265419e-12,-0.0011800198499315,0.0011800198504038,-6.7727254508276e-14,5.3157599601233e-13,-0.0012340110627924,0.0012340110583521,-0.0012340110623469,0.0012340110583262,-0.0012340110580725,0.0012340110630526,-0.0012340110576802,0.0012340110630293,-0.0011208027714514,0.0011208027856221,-0.0011208027848609,0.0011208027722106,0.0033630036733661,0.0031304138669643,0.71511006728319,0.32158880651928,1368840,32768,0.0049045298000511,0.0049045298000835,0.0049045298001099,40.154520108281,40.133490685115,0.00023643616086625,0.00023643616086625,0.00023643616086625,1504244.6983044,0.014823045745527
9915246,0.87706752675327,0.014180543869646,0.0047268479565195,0.0047268479565486,0.0047268479565774,-0.0011892864546026,0.001189286454197,6.6660174165672e-12,-7.0748726910251e-12,2.1226116262601e-14,-4.3286748207791e-13,-0.0012438443713256,0.0012438443755876,-0.0012438443758265,0.0012438443710756,-0.0012438443716313,0.0012438443755185,-0.0012438443760901,0.001243844371066,-0.0011294855843149,0.0011294855970561,-0.0011294855976127,0.0011294855837673,3.2324468392032e-13,7.8819345064288e-13,1.1263341794993e-12,5.2707160420664e-13,-0.0011892864539349,0.0011892864548793,-0.0012438443729393,0.0012438443741203,-0.0012438443731285,0.0012438443739712,-0.0012438443727821,0.0012438443743429,-0.001243844372976,0.0012438443740744,-0.001129485589476,0.0011294855919979,-0.0011294855900718,0.0011294855913233,-0.0011294855903669,0.001129485591007,-0.0011294855899867,0.001129485591428,-6.621581009363e-12,7.0904663911188e-12,-0.0011892864541813,0.0011892864546479,-6.0167250167102e-14,5.3496806885742e-13,-0.0012438443758992,0.0012438443714499,-0.0012438443754475,0.0012438443714226,-0.0012438443711811,0.0012438443761514,-0.0012438443707799,0.0012438443761269,-0.0011294855835792,0.0011294855976607,-0.0011294855969975,0.001129485584257,0.003394992889224,0.0031638558327076,0.71532448890106,0.33640496363313,1368840,32768,0.0049429473311566,0.0049429473311867,0.0049429473312177,39.849924306975,39.828833002528,0.0002339993944558,0.0002339993944558,0.0002339993944558,1457090.8698764,0.014940029180906
10001646,0.88433200431328,0.014292649086634,0.0047642163621821,0.0047642163622113,0.0047642163622402,-0.0011977906171101,0.0011977906166582,6.6291993648628e-12,-7.0805472823761e-12,5.5787648666804e-14,-5.2173259083925e-13,-0.001252907155666,0.0012529071599104,-0.0012529071601534,0.0012529071554135,-0.0012529071560103,0.0012529071597998,-0.0012529071604543,0.0012529071553616,-0.0011374229385247,0.001137422951156,-0.0011374229518057,0.0011374229379243,2.8093582936796e-13,8.6926509160696e-13,1.1243696806898e-12,5.6301656493629e-13,-0.0011977906163984,0.0011977906173837,-0.0012529071572703,0.0012529071584441,-0.0012529071574471,0.0012529071583075,-0.0012529071570704,0.0012529071587059,-0.001252907157252,0.0012529071584488,-0.001137422943656,0.0011374229461928,-0.0011374229442056,0.001137422945536,-0.0011374229445728,0.0011374229451279,-0.0011374229440791,0.0011374229457088,-6.6157571872768e-12,7.065072813934e-12,-0.0011977906166728,0.0011977906171237,-4.7617398262345e-14,5.0987998234006e-13,-0.0012529071602208,0.0012529071557813,-0.0012529071597788,0.0012529071557411,-0.0012529071555169,0.00125290716047,-0.0012529071551247,0.0012529071604302,-0.0011374229378079,0.0011374229518049,-0.0011374229512023,0.0011374229384497,0.0034238800293862,0.003194590122232,0.71561007172968,0.35122112074698,1368840,32768,0.0049782025202594,0.004978202520288,0.0049782025203178,39.545255050063,39.52417531994,0.0002315620404005,0.0002315620404005,0.0002315620404005,1417871.6297785,0.015047395383089
10088046,0.89109028841327,0.014397056491861,0.0047990188305911,0.0047990188306203,0.0047990188306493,-0.0012056820273491,0.0012056820268824,6.6573814450961e-12,-7.1324624611089e-12,7.2031564191041e-14,-5.4117652625213e-13,-0.0012613028814944,0.0012613028857605,-0.00126130288601,0.0012613028812374,-0.0012613028818484,0.0012613028856384,-0.0012613028863201,0.001261302881175,-0.0011448059304711,0.0011448059431268,-0.0011448059438038,0.0011448059297787,2.7595630501842e-13,9.0007179754206e-13,1.1637091847773e-12,5.3447211342028e-13,-0.0012056820266234,0.0012056820276218,-0.0012613028830994,0.0012613028842951,-0.0012613028833018,0.0012613028841354,-0.0012613028828903,0.0012613028845658,-0.001261302883096,0.0012613028842869,-0.001144805935532,0.0011448059381465,-0.0011448059361519,0.0011448059374483,-0.0011448059365304,0.0011448059370743,-0.0011448059359835,0.001144805937631,-6.6372645302422e-12,7.1234874411719e-12,-0.0012056820268895,0.0012056820273702,-6.6432294068429e-14,5.5860593497213e-13,-0.0012613028860705,0.0012613028816062,-0.0012613028856084,0.0012613028815939,-0.00126130288134,0.0012613028863225,-0.0012613028809296,0.0012613028863111,-0.0011448059296462,0.0011448059438122,-0.0011448059430885,0.0011448059303382,0.0034502786600781,0.0032228199478627,0.71596128363908,0.36603727786083,1368840,32768,0.0050109164025461,0.0050109164025747,0.0050109164026048,39.240578181492,39.219517637352,0.00022912462545194,0.00022912462545194,0.00022912462545194,1379734.6628742,0.015147032306854
10174446,0.89737979427833,0.014494334109301,0.0048314447030713,0.0048314447031004,0.0048314447031294,-0.0012130037838417,0.0012130037828344,6.3136457106927e-12,-7.425037640785e-12,-1.9244353274688e-13,-8.7822058272874e-13,-0.0012690559718325,0.0012690559757773,-0.0012690559763402,0.0012690559712415,-0.0012690559723715,0.0012690559762174,-0.0012690559768229,0.0012690559714737,-0.0011516864278458,0.0011516864406342,-0.0011516864409891,0.0011516864261773,5.9083147991561e-13,1.282605758451e-12,1.6549996173683e-12,9.2574754257744e-13,-0.001213003782476,0.0012130037842147,-0.0012690559734831,0.0012690559752403,-0.0012690559731843,0.0012690559751493,-0.001269055972705,0.0012690559751787,-0.0012690559732665,0.001269055975543,-0.0011516864317132,0.0011516864354893,-0.0011516864314513,0.0011516864346961,-0.001151686432732,0.0011516864340049,-0.0011516864320717,0.001151686435197,-6.245022218858e-12,7.4747162113741e-12,-0.0012130037827951,0.0012130037839143,2.2110912762087e-13,9.4482060696724e-13,-0.0012690559763232,0.001269055972216,-0.0012690559759969,0.0012690559726783,-0.0012690559716157,0.0012690559773656,-0.0012690559706084,0.0012690559770153,-0.0011516864251627,0.0011516864410235,-0.0011516864393724,0.0011516864268543,0.0034743659284776,0.0032487377058775,0.71637344064637,0.38085343497467,1368840,32768,0.0050412678726021,0.0050412678726324,0.0050412678726714,38.935900505905,38.914859954761,0.00022668720404724,0.00022668720404724,0.00022668720404724,1342049.5164727,0.01523948246818
10260846,0.90323526419456,0.014585008218829,0.0048616694062463,0.0048616694062768,0.0048616694063061,-0.0012198007519471,0.001219800751039,6.3641225804237e-12,-7.414494433461e-12,-1.7776233418859e-13,-8.1913274076293e-13,-0.0012762611073094,0.0012762611115334,-0.0012762611123423,0.0012762611065161,-0.0012762611077682,0.0012762611116429,-0.0012762611121938,0.0012762611075192,-0.0011580768740751,0.0011580768862192,-0.0011580768870215,0.0011580768723848,6.3840899704336e-13,1.285491082071e-12,1.6722126503455e-12,9.1763358457094e-13,-0.00121980075066,0.0012198007524509,-0.0012762611082407,0.0012762611106756,-0.0012762611087193,0.0012762611103143,-0.001276261108483,0.0012762611108259,-0.0012762611084957,0.0012762611103446,-0.0011580768779817,0.0011580768815542,-0.0011580768787382,0.0011580768806175,-0.0011580768792583,0.0011580768803893,-0.001158076878862,0.0011580768811614,-6.3003074122862e-12,7.4468121520593e-12,-0.001219800750953,0.0012198007519985,1.9331974127343e-13,9.4678069414675e-13,-0.0012762611112303,0.0012762611074807,-0.0012762611116308,0.0012762611084292,-0.0012762611069966,0.001276261112991,-0.0012762611062612,0.0012762611122383,-0.0011580768719075,0.0011580768870298,-0.0011580768852762,0.0011580768733113,0.0034963402696454,0.0032725215786858,0.716842511747,0.39566959208856,1368840,32768,0.0050694431308317,0.0050694431310904,0.0050694431307602,38.631222732182,38.610202272172,0.00022424978185745,0.00022424978185745,0.00022424978185745,1306381.2826358,0.015325311429845
10347246,0.90868891553218,0.014669566907785,0.0048898556358969,0.0048898556359327,0.004889855635955,-0.0012261097712669,0.0012261097701148,6.3155668284744e-12,-7.5476502479952e-12,-3.650338484665e-13,-9.2312050518457e-13,-0.0012829406545128,0.0012829406581044,-0.0012829406592735,0.0012829406542536,-0.0012829406548421,0.0012829406580518,-0.0012829406588013,0.0012829406533626,-0.0011640205776626,0.0011640205903976,-0.0011640205917165,0.0011640205770105,6.7743627537503e-13,1.2435147173613e-12,1.5962121779901e-12,9.2805529560658e-13,-0.001226109769818,0.0012261097716833,-0.0012829406552253,0.0012829406569854,-0.0012829406557088,0.0012829406566726,-0.0012829406544112,0.001282940658068,-0.0012829406549883,0.001282940657399,-0.001164020582112,0.0011640205861071,-0.0011640205832006,0.0011640205852966,-0.0011640205831201,0.001164020584848,-0.0011640205826062,0.0011640205853572,-6.3458536679382e-12,7.4871289792314e-12,-0.0012261097702297,0.0012261097712407,2.5090689379015e-13,9.2197948121854e-13,-0.0012829406592388,0.0012829406550511,-0.0012829406585469,0.0012829406545934,-0.0012829406537612,0.0012829406593453,-0.0012829406532425,0.0012829406587805,-0.0011640205762232,0.001164020591105,-0.0011640205903611,0.0011640205778969,0.0035163526253758,0.0032943367995958,0.71736498873196,0.41048574920237,1368840,32768,0.0050955950560569,0.0050955950563046,0.0050955950562407,38.326544936272,38.305544589599,0.00022181235949017,0.00022181235949017,0.00022181235949017,1272115.3877924,0.015404983150968
10433646,0.91379047173101,0.014748768447602,0.0049162561491672,0.0049162561492066,0.004916256149228,-0.0012321334840882,0.0012321334836408,6.7075328541814e-12,-7.1740746016513e-12,7.8078202999787e-15,-4.6493909054758e-13,-0.0012893174033949,0.0012893174076766,-0.0012893174079486,0.0012893174031201,-0.0012893174037102,0.0012893174076157,-0.0012893174082048,0.0012893174031118,-0.0011697060680175,0.0011697060808468,-0.0011697060814651,0.0011697060673955,3.3318240974138e-13,8.1688951517428e-13,1.052677959058e-12,6.4328423046127e-13,-0.0012321334833805,0.0012321334843686,-0.0012893174050372,0.0012893174061955,-0.0012893174051687,0.0012893174061093,-0.0012893174048576,0.0012893174064171,-0.001289317405003,0.0012893174062229,-0.0011697060733185,0.0011697060757013,-0.0011697060737223,0.0011697060752083,-0.0011697060740759,0.0011697060747717,-0.0011697060736542,0.0011697060752281,-6.706972988932e-12,7.1458196412915e-12,-0.0012321334836654,0.0012321334840943,1.6015157806746e-14,4.2357685413551e-13,-0.0012893174080004,0.0012893174035221,-0.0012893174076181,0.0012893174034467,-0.0012893174032337,0.0012893174082771,-0.0012893174028819,0.0012893174081641,-0.0011697060673317,0.0011697060814709,-0.0011697060808806,0.0011697060678835,0.0035352529910865,0.0033144386185538,0.7179365454135,0.42530190631624,1368840,32768,0.0051205638263353,0.0051205638263772,0.0051205638263991,38.094903481349,38.078772661114,0.00021995922785079,0.00021995922785079,0.00021995922785079,1239589.7310321,0.015481055903412
10520046,0.91861388206223,0.014823849395829,0.0049412831319095,0.0049412831319489,0.0049412831319703,-0.0012382037452519,0.0012382037448087,6.7245832744792e-12,-7.1792104447548e-12,6.3431003402857e-15,-4.638345948774e-13,-0.0012956822702253,0.0012956822745165,-0.0012956822747855,0.0012956822699511,-0.0012956822705377,0.0012956822744548,-0.0012956822750402,0.0012956822699458,-0.0011754900914695,0.0011754901043258,-0.0011754901049306,0.0011754900908651,3.3643851615192e-13,8.1770966658981e-13,1.0565713401179e-12,6.4010862159159e-13,-0.0012382037445458,0.0012382037455345,-0.0012956822718731,0.0012956822730321,-0.0012956822720016,0.0012956822729401,-0.0012956822716937,0.0012956822732527,-0.0012956822718358,0.0012956822730545,-0.0011754900967438,0.0011754900991264,-0.0011754900971726,0.0011754900986292,-0.0011754900975325,0.0011754900982367,-0.0011754900971376,0.0011754900987225,-6.718089355217e-12,7.1568827739086e-12,-0.0012382037448308,0.0012382037452597,8.6208836967442e-15,4.2320363024312e-13,-0.0012956822748334,0.0012956822703482,-0.0012956822744534,0.0012956822702774,-0.0012956822700582,0.0012956822751107,-0.0012956822697074,0.0012956822750031,-0.0011754900907477,0.0011754901049029,-0.0011754901043246,0.0011754900913173,0.0035544146995869,0.0033332274866466,0.71951046710481,0.45536417046776,1368840,32768,0.0051457251608059,0.0051457251608466,0.0051457251608678,38.057928390585,38.054902645811,0.00021966342712468,0.00021966342712468,0.00021966342712468,1206973.6770885,0.015557719913006
10606446,0.92317593106872,0.014894408313135,0.0049648027710116,0.004964802771051,0.0049648027710724,-0.00124406598325,0.0012440659828271,6.7451039417046e-12,-7.1628558267301e-12,5.9615237618942e-15,-4.4412572638157e-13,-0.0013017620851938,0.0013017620894661,-0.0013017620897332,0.0013017620848904,-0.0013017620854237,0.0013017620893884,-0.0013017620899646,0.0013017620848354,-0.0011811269348247,0.001181126947856,-0.0011811269482949,0.0011811269343808,3.3439081400193e-13,7.9566381066381e-13,1.0409737283789e-12,6.1836616816155e-13,-0.0012440659825624,0.0012440659835278,-0.0013017620868009,0.0013017620879539,-0.0013017620869225,0.001301762087841,-0.0013017620866252,0.0013017620881739,-0.0013017620867946,0.0013017620880042,-0.0011811269401877,0.0011811269425697,-0.0011811269406425,0.0011811269419744,-0.0011811269409833,0.0011811269415605,-0.0011811269405775,0.0011811269420249,-6.7053400976392e-12,7.1736317034168e-12,-0.0012440659828248,0.0012440659832796,1.8773926469433e-14,4.3944766341083e-13,-0.0013017620897297,0.0013017620853225,-0.0013017620893877,0.0013017620852115,-0.0013017620849663,0.0013017620900627,-0.0013017620846505,0.0013017620899495,-0.0011811269340473,0.0011811269482389,-0.0011811269477384,0.0011811269347315,0.0035728063060878,0.0033506658470551,0.71458120242609,0.38253946269392,1368840,32768,0.0051700236474839,0.0051700236475109,0.0051700236475404,38.032816411265,38.031032630508,0.00021946253129011,0.00021946253129011,0.00021946253129011,1170054.0468919,0.015631760563985
10692846,0.92748977224317,0.014961021827764,0.0049870072758879,0.0049870072759271,0.0049870072759487,-0.0012486866252147,0.0012486866247695,6.7220115295149e-12,-7.1776478454323e-12,1.0167512918871e-14,-4.6690279526363e-13,-0.0013070640259734,0.001307064030264,-0.0013070640305356,0.0013070640257003,-0.0013070640262874,0.0013070640301991,-0.0013070640307919,0.0013070640256874,-0.0011851011978992,0.0011851012107499,-0.0011851012113461,0.0011851011972736,3.3220693954133e-13,8.203503506246e-13,1.0563126421386e-12,6.3397501485141e-13,-0.0012486866245094,0.0012486866254947,-0.0013070640276199,0.001307064028774,-0.0013070640277536,0.0013070640286835,-0.0013070640274394,0.0013070640290004,-0.0013070640275877,0.0013070640288024,-0.0011851012031765,0.0011851012055566,-0.001185101203593,0.0011851012050518,-0.0011851012039608,0.0011851012046558,-0.001185101203551,0.0011851012051229,-6.7136039040091e-12,7.1567355137014e-12,-0.0012486866247913,0.0012486866252231,1.0257745456447e-14,4.3074398812566e-13,-0.0013070640305823,0.0013070640260973,-0.0013070640302004,0.0013070640260276,-0.0013070640258083,0.0013070640308585,-0.0013070640254558,0.0013070640307516,-0.0011851011971655,0.0011851012113363,-0.0011851012107377,0.001185101197751,0.0035862297360518,0.0033668920466812,0.71305323576889,0.36772442205614,1368840,32768,0.0051891737756922,0.0051891737757334,0.0051891737757548,38.008820602783,38.007162615205,0.00021927056482226,0.00021927056482226,0.00021927056482226,1182697.462148,0.015690122653515
10779246,0.93156777184842,0.01502384265553,0.0050079475518099,0.0050079475518492,0.0050079475518708,-0.0012535127187941,0.0012535127183405,6.7143268819226e-12,-7.1781615356218e-12,1.6785957788747e-14,-4.8256478738875e-13,-0.0013122942601561,0.0013122942644439,-0.0013122942647159,0.0013122942598823,-0.0013122942604777,0.0013122942643716,-0.0013122942649804,0.0013122942598619,-0.0011895341420008,0.001189534154831,-0.0011895341554392,0.0011895341413592,3.2468593400876e-13,8.3511889945557e-13,1.0633999256269e-12,6.340912760056e-13,-0.0012535127180811,0.0012535127190733,-0.0013122942618006,0.0013122942629563,-0.0013122942619369,0.0013122942628629,-0.0013122942616129,0.0013122942631904,-0.0013122942617633,0.0013122942629898,-0.0011895341472553,0.0011895341496556,-0.0011895341476783,0.0011895341491488,-0.001189534148059,0.001189534148738,-0.0011895341476303,0.0011895341492296,-6.7087690517105e-12,7.1542483543883e-12,-0.0012535127183654,0.0012535127187994,7.4030679590026e-15,4.3483086327443e-13,-0.001312294264763,0.0013122942602799,-0.0013122942643783,0.0013122942602126,-0.0013122942599907,0.0013122942650386,-0.0013122942596358,0.0013122942649342,-0.0011895341412567,0.001189534155427,-0.0011895341548241,0.0011895341418511,0.0036005303382587,0.003381955610863,0.71146403988885,0.35290938141835,1368840,32768,0.0052091759573521,0.0052091759573934,0.0052091759574149,37.984937551296,37.983292599902,0.00021907950041036,0.00021907950041036,0.00021907950041036,1169298.9914321,0.015751081983843
10865646,0.93542185551839,0.015083088962241,0.0050276963207135,0.0050276963207527,0.0050276963207744,-0.0012580468859788,0.0012580468855202,6.7145962854573e-12,-7.1836134867155e-12,2.0735425370518e-14,-4.9141981099151e-13,-0.0013172200431404,0.0013172200474295,-0.0013172200477022,0.0013172200428661,-0.0013172200434658,0.0013172200473527,-0.0013172200479705,0.001317220042841,-0.0011936871770344,0.0011936871898593,-0.0011936871904791,0.0011936871763828,3.2005501665658e-13,8.4331082566844e-13,1.0778412197494e-12,6.2269421241336e-13,-0.0012580468852617,0.0012580468862572,-0.0013172200447813,0.0013172200459446,-0.0013172200449263,0.0013172200458426,-0.0013172200445896,0.0013172200461827,-0.0013172200447485,0.0013172200459737,-0.0011936871822715,0.0011936871847049,-0.0011936871827191,0.0011936871841712,-0.0011936871830999,0.0011936871837597,-0.0011936871826587,0.0011936871842647,-6.7071011026652e-12,7.1614926919023e-12,-0.001258046885543,0.0012580468859861,-5.5715944974949e-16,4.5259920281679e-13,-0.001317220047748,0.0013172200432635,-0.001317220047355,0.0013172200432049,-0.001317220042974,0.001317220048024,-0.0013172200426107,0.0013172200479283,-0.001193687176279,0.0011936871904712,-0.0011936871898499,0.0011936871768888,0.0036137019891658,0.0033959276995139,0.70981937900589,0.33809434078057,1368840,32768,0.005227967789724,0.0052279677897652,0.0052279677897867,37.961066090176,37.959422584599,0.00021888852872141,0.00021888852872141,0.00021888852872141,1156904.5454218,0.015808356224365
10952046,0.93906345148254,0.01513894571047,0.0050463152367899,0.0050463152368292,0.0050463152368509,-0.0012623039890176,0.0012623039885537,6.7084650021755e-12,-7.1820359466729e-12,2.5359284114807e-14,-5.0177278883279e-13,-0.0013218570682885,0.0013218570725741,-0.0013218570728478,0.0013218570680134,-0.0013218570686181,0.0013218570724921,-0.0013218570731206,0.0013218570679828,-0.0011975744275067,0.0011975744403158,-0.0011975744409451,0.0011975744268484,3.1484805807853e-13,8.5309635025679e-13,1.0801645605377e-12,6.2334804538039e-13,-0.0012623039882959,0.0012623039892954,-0.0013218570699282,0.0013218570710912,-0.0013218570700736,0.0013218570709882,-0.0013218570697318,0.0013218570713341,-0.0013218570698911,0.0013218570711246,-0.0011975744327321,0.0011975744351738,-0.0011975744331788,0.0011975744346368,-0.0011975744335693,0.001197574434217,-0.001197574433113,0.0011975744347378,-6.7034286266216e-12,7.1572913790731e-12,-0.0012623039885793,0.0012623039890224,-1.0582323776096e-15,4.5378381368657e-13,-0.0013218570728934,0.0013218570684113,-0.0013218570725001,0.0013218570683535,-0.0013218570681223,0.0013218570731691,-0.0013218570677588,0.0013218570730743,-0.0011975744267436,0.0011975744409267,-0.0011975744403082,0.001197574427355,0.0036258059642277,0.003408868401506,0.70812409321627,0.32327930014279,1368840,32768,0.0052456109404997,0.0052456109405412,0.0052456109405628,37.937195826522,37.935552569296,0.00021869756661217,0.00021869756661217,0.00021869756661217,1145473.2522787,0.015862132699515
11038446,0.94250351731155,0.015191590701605,0.0050638635671682,0.0050638635672075,0.0050638635672292,-0.0012662983338366,0.0012662983333655,6.7075425009455e-12,-7.1892396089589e-12,3.1354983303254e-14,-5.1361348593115e-13,-0.0013262204116993,0.0013262204159851,-0.0013262204162598,0.0013262204114227,-0.0013262204120344,0.0013262204158971,-0.0013262204165385,0.0013262204113857,-0.0012012095365386,0.0012012095493433,-0.001201209549985,0.0012012095358631,3.0817643836252e-13,8.6429018476342e-13,1.0838533007904e-12,6.2412516869863e-13,-0.0012662983331087,0.0012662983341133,-0.0013262204133377,0.0013262204145017,-0.0013262204134847,0.0013262204143978,-0.0013262204131353,0.0013262204147502,-0.0013262204132959,0.0013262204145402,-0.001201209541755,0.0012012095442104,-0.001201209542207,0.0012012095436693,-0.0012012095426063,0.0012012095432415,-0.0012012095421305,0.0012012095437741,-6.7056874399693e-12,7.1611704076302e-12,-0.0012662983333942,0.0012662983338383,-2.1907566033013e-15,4.5555928885879e-13,-0.0013262204163046,0.0013262204118208,-0.0013262204159098,0.0013262204117638,-0.0013262204115324,0.0013262204165802,-0.0013262204111674,0.0013262204164862,-0.0012012095357672,0.0012012095499643,-0.0012012095493399,0.0012012095363806,0.0036369011784558,0.0034208354001265,0.70638226143153,0.30846425950501,1368840,32768,0.005262164763413,0.0052621647634543,0.0052621647634761,37.913325687249,37.911682553993,0.00021850660549799,0.00021850660549799,0.00021850660549799,1134966.4505381,0.015912591757538
11124846,0.94575254520298,0.015241194509869,0.0050803981699228,0.0050803981699622,0.0050803981699839,-0.0012700436412634,0.001270043640791,6.711010336182e-12,-7.1935633592243e-12,3.1665267941918e-14,-5.1614370275241e-13,-0.0013303245121427,0.0013303245164316,-0.0013303245167065,0.0013303245118663,-0.001330324512479,0.0013303245163425,-0.0013303245169866,0.001330324511828,-0.001204605611027,0.0012046056238358,-0.001204605624483,0.0012046056103547,3.0722555564663e-13,8.6620142049413e-13,1.0844111661009e-12,6.246190065534e-13,-0.0012700436405347,0.0012700436415398,-0.0013303245137839,0.0013303245149465,-0.0013303245139307,0.0013303245148421,-0.0013303245135804,0.0013303245151962,-0.0013303245137409,0.0013303245149859,-0.0012046056162491,0.0012046056187062,-0.0012046056166956,0.0012046056181633,-0.0012046056171009,0.0012046056177321,-0.0012046056166238,0.0012046056182713,-6.7103062988663e-12,7.1641988445253e-12,-0.0012700436408206,0.0012700436412642,-2.0328496625441e-15,4.5579281113661e-13,-0.0013303245167509,0.0013303245122638,-0.0013303245163564,0.0013303245122071,-0.0013303245119758,0.0013303245170256,-0.0013303245116109,0.0013303245169323,-0.0012046056102614,0.0012046056244586,-0.0012046056238401,0.0012046056108719,0.0036470440727759,0.0034318839655238,0.70459733404333,0.29364921886722,1368840,32768,0.0052776861797379,0.0052776861797793,0.0052776861798008,37.889455561394,37.88781253869,0.00021831564449115,0.00021831564449115,0.00021831564449115,1125347.7072399,0.015959906401568
11211246,0.94881751062051,0.015288064095984,0.0050960213652947,0.005096021365334,0.0050960213653557,-0.001273530409169,0.0012735304086883,6.7073502715239e-12,-7.196033460235e-12,3.8379121661825e-14,-5.3322676911175e-13,-0.0013341547286176,0.0013341547329066,-0.0013341547331812,0.001334154728339,-0.001334154728961,0.0013341547328097,-0.0013341547334692,0.0013341547282949,-0.0012077625445863,0.0012077625573813,-0.0012077625580311,0.0012077625439108,2.9970040318193e-13,8.82491805187e-13,1.0898966161712e-12,6.2987605183663e-13,-0.0012735304084321,0.0012735304094449,-0.0013341547302561,0.0013341547314185,-0.0013341547304053,0.0013341547313151,-0.0013341547300459,0.0013341547316763,-0.0013341547302105,0.0013341547314631,-0.0012077625497747,0.0012077625522563,-0.001207762550231,0.0012077625517262,-0.0012077625506587,0.0012077625512778,-0.0012077625501557,0.0012077625518399,-6.7079264892149e-12,7.1653766908959e-12,-0.0012735304087214,0.0012735304091661,-3.5476563274168e-15,4.5471913805423e-13,-0.0013341547332252,0.0013341547287363,-0.0013341547328295,0.0013341547286802,-0.0013341547284482,0.0013341547335001,-0.0013341547280831,0.0013341547334084,-0.0012077625438092,0.0012077625579978,-0.001207762557389,0.0012077625444331,0.0036561833850325,0.0034420875967215,0.70563005821583,0.32257528048983,1368840,32768,0.0052921359429461,0.005292135942987,0.0052921359430087,37.846817825297,37.843928636001,0.00021797454260238,0.00021797454260238,0.00021797454260238,1116122.3402474,0.01600395622382
11297646,0.95170158587762,0.015332215700166,0.0051107385666884,0.0051107385667278,0.0051107385667495,-0.001277163889911,0.0012771638894385,6.7198751830141e-12,-7.2031480075963e-12,3.1194047043275e-14,-5.1721755229999e-13,-0.0013378829497289,0.0013378829540243,-0.0013378829542972,0.001337882949451,-0.0013378829500597,0.0013378829539365,-0.001337882954575,0.0013378829494141,-0.0012112968677741,0.0012112968805996,-0.0012112968812352,0.0012112968670932,3.0349575782469e-13,8.6320674727346e-13,1.0841247924965e-12,6.2617328260074e-13,-0.0012771638891821,0.0012771638901867,-0.0013378829513705,0.0013378829525327,-0.0013378829515181,0.0013378829524303,-0.0013378829511665,0.0013378829527803,-0.0013378829513266,0.0013378829525728,-0.0012112968730031,0.0012112968754497,-0.0012112968734178,0.0012112968748986,-0.0012112968738427,0.001211296874491,-0.0012112968733909,0.0012112968750172,-6.7200604126496e-12,7.1729986345213e-12,-0.0012771638894684,0.0012771638899122,1.9120004132292e-15,4.5785813039546e-13,-0.0013378829543432,0.001337882949852,-0.0013378829539492,0.001337882949794,-0.0013378829495615,0.0013378829546194,-0.0013378829491971,0.001337882954524,-0.0012112968669855,0.0012112968812096,-0.0012112968805818,0.0012112968676072,0.0036659562014771,0.0034514562884298,0.70628987725451,0.34357815625253,1368840,32768,0.0053071943291175,0.0053071943291574,0.0053071943291818,37.759053991489,37.753126687902,0.00021727243193191,0.00021727243193191,0.00021727243193191,1086866.1666818,0.016049860787474
11384046,0.95441516164101,0.015373778242359,0.0051245927474196,0.0051245927474589,0.0051245927474807,-0.001280504082527,0.0012805040820337,6.7213019629564e-12,-7.2083261435255e-12,1.2825372899544e-14,-5.0760372834865e-13,-0.0013413366601853,0.0013413366645053,-0.0013413366648211,0.001341336659897,-0.0013413366603142,0.0013413366641382,-0.0013413366648819,0.0013413366597808,-0.0012145197896293,0.0012145198023165,-0.0012145198031306,0.0012145197890137,3.1738371591004e-13,8.4547734771797e-13,1.0651994294768e-12,6.25957112734e-13,-0.0012805040818149,0.0012805040828213,-0.0013413366616638,0.0013413366629951,-0.0013413366620046,0.0013413366630921,-0.0013413366615159,0.0013413366632561,-0.0013413366615401,0.0013413366629866,-0.0012145197948982,0.0012145197970795,-0.001214519795357,0.001214519796677,-0.0012145197955787,0.001214519796252,-0.0012145197952264,0.0012145197967141,-6.7958133925657e-12,7.1010287449168e-12,-0.0012805040821716,0.0012805040824977,-6.173287880881e-14,3.7556187978354e-13,-0.0013413366648354,0.0013413366602012,-0.0013413366645549,0.001341336660073,-0.0013413366601047,0.0013413366649262,-0.0013413366597396,0.0013413366650022,-0.0012145197890585,0.0012145198028986,-0.0012145198023447,0.0012145197892922,0.0036745922842152,0.0034600389457841,0.70634519417551,0.3536780293619,1368840,32768,0.005321036929553,0.0053210369297095,0.0053210369297782,37.668538202537,37.662324739807,0.0002165483056203,0.0002165483056203,0.0002165483056203,1062123.545486,0.016092061206783
11470446,0.95696843810789,0.015412905177973,0.0051376350592902,0.0051376350593301,0.0051376350593522,-0.001283542218592,0.0012835422179892,6.6480412010223e-12,-7.2932997241115e-12,-5.5626359476431e-14,-5.8015898242368e-13,-0.001344529628269,0.0013445296322322,-0.0013445296328749,0.0013445296277693,-0.0013445296284609,0.0013445296323207,-0.0013445296329829,0.0013445296277806,-0.0012174061734871,0.0012174061859314,-0.0012174061869342,0.0012174061726795,1.5816213884346e-13,6.9142375983169e-13,9.3209543688892e-13,4.5330335777593e-13,-0.0012835422179322,0.0012835422186184,-0.0013445296296792,0.0013445296307036,-0.0013445296299275,0.0013445296308036,-0.0013445296296367,0.0013445296308621,-0.001344529629843,0.0013445296308388,-0.0012174061787241,0.0012174061808493,-0.0012174061794273,0.001217406180699,-0.0012174061797066,0.0012174061799709,-0.0012174061794247,0.0012174061804007,-6.819778483978e-12,7.0921379282898e-12,-0.001283542218154,0.0012835422184783,-8.0629301536066e-14,3.9371282528462e-13,-0.001344529632698,0.0013445296280093,-0.0013445296326003,0.0013445296282048,-0.0013445296279833,0.0013445296331332,-0.00134452962745,0.0013445296329348,-0.0012174061729656,0.0012174061868615,-0.0012174061862784,0.0012174061731982,0.0036820619109658,0.0034678864796074,0.70644612080653,0.36377790247135,1368840,32768,0.0053336273971793,0.0053336273971161,0.0053336273972852,37.577763581972,37.571522791707,0.00021582210865577,0.00021582210865577,0.00021582210865577,1043045.9669757,0.016130446482686
11556846,0.95937106142412,0.015449741204055,0.0051499137346512,0.0051499137346904,0.0051499137347133,-0.0012863980756039,0.0012863980750946,6.7061913657512e-12,-7.250525030849e-12,-3.544009380005e-15,-5.2285138019041e-13,-0.001347530027497,0.001347530031843,-0.001347530032173,0.0013475300272162,-0.0013475300280309,0.0013475300318431,-0.0013475300324784,0.00134753002718,-0.0012201220134681,0.0012201220259281,-0.0012201220270163,0.0012201220131022,3.3726116749107e-13,8.695017314366e-13,1.1549353645762e-12,6.6356699318973e-13,-0.0012863980748226,0.0012863980758739,-0.0013475300291052,0.0013475300305046,-0.0013475300293078,0.0013475300304129,-0.001347530029034,0.0013475300306798,-0.0013475300289876,0.001347530030599,-0.0012201220186359,0.0012201220213882,-0.0012201220195075,0.0012201220208307,-0.0012201220197172,0.0012201220201287,-0.0012201220193381,0.0012201220209751,-6.7369297208332e-12,7.1896843306671e-12,-0.0012863980751227,0.0012863980755946,-1.3369297459493e-14,4.764923846612e-13,-0.0013475300320986,0.0013475300277311,-0.0013475300318744,0.0013475300278539,-0.0013475300274904,0.0013475300324932,-0.0013475300268743,0.0013475300324086,-0.0012201220131979,0.0012201220270001,-0.0012201220266031,0.0012201220137139,0.0036888491534674,0.003475046883488,0.70658967656532,0.37387777558068,1368840,32768,0.0053454623551663,0.0053454623551621,0.0053454623552053,37.486962831561,37.480720843604,0.00021509570265249,0.00021509570265249,0.00021509570265249,1024757.2786675,0.016166529659811
11643246,0.96163211882679,0.015484425069477,0.0051614750231251,0.0051614750231642,0.0051614750231873,-0.0012890825679095,0.0012890825671653,6.6115721974783e-12,-7.3811358054854e-12,-1.2634496377749e-13,-6.8150200411099e-13,-0.0013503464276552,0.0013503464319382,-0.0013503464324009,0.0013503464271693,-0.0013503464281377,0.001350346431879,-0.0013503464326812,0.0013503464269954,-0.001222679552692,0.0012226795654384,-0.0012226795663436,0.001222679551741,3.018426906777e-13,8.6488157846145e-13,1.1038534250944e-12,6.2252612931289e-13,-0.0012890825670302,0.0012890825680133,-0.0013503464295526,0.0013503464304996,-0.0013503464294151,0.0013503464303202,-0.0013503464292521,0.0013503464307411,-0.0013503464292789,0.0013503464305412,-0.0012226795575122,0.0012226795603871,-0.0012226795581644,0.001222679559609,-0.0012226795583804,0.0012226795587965,-0.0012226795581266,0.0012226795596495,-6.6593413852212e-12,7.3040902179987e-12,-0.0012890825672183,0.0012890825678776,9.1103422735324e-14,5.7295623187453e-13,-0.0013503464321483,0.0013503464279073,-0.0013503464317288,0.0013503464278877,-0.0013503464274273,0.0013503464326562,-0.001350346426985,0.0013503464326533,-0.0012226795513085,0.0012226795660669,-0.0012226795650306,0.0012226795523022,0.003694998924954,0.0034815661353903,0.70677330498689,0.3839776486901,1368840,32768,0.0053565870534932,0.0053565870534284,0.005356587053537,37.396159394842,37.389918895505,0.00021436927515874,0.00021436927515874,0.00021436927515874,1007168.2232157,0.016200448457208
11729646,0.96376016238214,0.01551708714146,0.0051723623804528,0.0051723623804916,0.0051723623805151,-0.0012916059554897,0.0012916059549489,6.7282043991505e-12,-7.2779277231273e-12,-9.426770842151e-16,-5.7267068177436e-13,-0.0013529895534146,0.0013529895575564,-0.0013529895580359,0.00135298955309,-0.0013529895538861,0.0013529895576869,-0.0013529895585044,0.0013529895530189,-0.0012250883568623,0.0012250883696965,-0.0012250883706475,0.0012250883560798,2.4610230527292e-13,8.2846886731537e-13,1.0436149712202e-12,5.7890087379921e-13,-0.0012916059547833,0.0012916059556499,-0.0013529895551113,0.0013529895561193,-0.0013529895553516,0.0013529895561336,-0.0013529895547988,0.0013529895563526,-0.0013529895552071,0.0013529895563045,-0.0012250883623478,0.0012250883645802,-0.00122508836251,0.0012250883640115,-0.0012250883630493,0.001225088363439,-0.0012250883626749,0.0012250883638801,-6.8002716681331e-12,7.1723390958462e-12,-0.0012916059550252,0.0012916059554189,-2.0524225940162e-14,4.4288820536345e-13,-0.0013529895579733,0.0013529895536728,-0.0013529895576679,0.0013529895535498,-0.0013529895532408,0.0013529895581473,-0.0013529895530808,0.0013529895583114,-0.0012250883563743,0.0012250883704966,-0.0012250883699834,0.0012250883565832,0.0037005535708237,0.0034874873853475,0.70699479245992,0.39407752179948,1368840,32768,0.0053670440324121,0.0053670440324011,0.0053670440324235,37.305355678009,37.299116947409,0.00021364284542407,0.00021364284542407,0.00021364284542407,990247.10753533,0.016232332371609
11816046,0.9657632365354,0.015547853447388,0.0051826178157623,0.0051826178158009,0.0051826178158244,-0.0012939782047385,0.0012939782042987,6.7571201040308e-12,-7.194141400389e-12,7.1895744810818e-14,-5.3178875421859e-13,-0.0013554700673205,0.0013554700717662,-0.0013554700718422,0.0013554700670929,-0.0013554700676977,0.0013554700718443,-0.001355470072147,0.0013554700669885,-0.0012273576803302,0.001227357693177,-0.0012273576942184,0.0012273576800527,3.0787100651679e-13,9.2265228419428e-13,1.1219961355529e-12,6.5632550852976e-13,-0.0012939782040368,0.0012939782050914,-0.0013554700690853,0.0013554700701921,-0.0013554700693912,0.0013554700700494,-0.0013554700688808,0.0013554700705351,-0.0013554700688794,0.0013554700702419,-0.0012273576859815,0.001227357688138,-0.0012273576860384,0.0012273576876671,-0.0012273576867027,0.0012273576871568,-0.0012273576858953,0.0012273576876155,-6.8272317856965e-12,7.0937360853496e-12,-0.0012939782044105,0.0012939782046839,-6.3423180112442e-14,4.0216739053287e-13,-0.001355470072186,0.0013554700672491,-0.001355470071657,0.0013554700673916,-0.0013554700673397,0.0013554700720707,-0.0013554700670841,0.0013554700721593,-0.0012273576799708,0.0012273576939237,-0.0012273576934121,0.0012273576800295,0.0037055540039488,0.0034928517809287,0.70733435359201,0.40547583980431,1368840,32768,0.0053768746119767,0.0053768746121653,0.0053768746120954,37.214551926609,37.208314999312,0.00021291641541287,0.00021291641541287,0.00021291641541287,973961.61991967,0.016262307202109
11902446,0.9676489051221,0.015576904527016,0.0051923015089713,0.0051923015090106,0.0051923015090337,-0.0012962269074731,0.0012962269069908,6.7436331631065e-12,-7.2446917384639e-12,2.2496077466158e-14,-5.1023100102845e-13,-0.0013578131153511,0.0013578131196662,-0.001357813119957,0.0013578131150716,-0.0013578131156862,0.0013578131195776,-0.0013578131202321,0.0013578131150333,-0.0012295209067629,0.0012295209196017,-0.0012295209203055,0.0012295209060904,2.9787622361525e-13,8.4182104765072e-13,1.054101268518e-12,6.3150694319049e-13,-0.001296226906748,0.001296226907736,-0.0013578131170072,0.0013578131181693,-0.0013578131171555,0.0013578131180768,-0.0013578131168257,0.0013578131184057,-0.001357813116955,0.0013578131182099,-0.0012295209120505,0.0012295209144721,-0.0012295209124665,0.0012295209139384,-0.0012295209129066,0.0012295209135325,-0.0012295209123651,0.0012295209140047,-6.7589756944027e-12,7.1985825000106e-12,-0.0012962269070317,0.0012962269074659,1.1119101495552e-14,4.3218885575065e-13,-0.0013578131199908,0.001357813115488,-0.0013578131196036,0.0013578131154207,-0.0013578131151889,0.0013578131202756,-0.0013578131148335,0.0013578131201675,-0.0012295209060782,0.0012295209202913,-0.0012295209196904,0.001229520906623,0.0037101108131324,0.0034977095223673,0.70932143871692,0.44264557729741,1368840,32768,0.0053861932042102,0.0053861932042518,0.0053861932042801,37.123748108664,37.117513051213,0.00021218998486931,0.00021218998486931,0.00021218998486931,957761.54457353,0.01629072149262
11988846,0.96942548633129,0.015604362776028,0.0052014542586421,0.0052014542586814,0.0052014542587045,-0.0012986110192818,0.001298611018817,6.7316131773676e-12,-7.2077806307787e-12,3.5670145595655e-14,-5.0309204264814e-13,-0.0013601524370276,0.0013601524413372,-0.0013601524416156,0.0013601524367482,-0.001360152437345,0.0013601524412413,-0.0013601524418885,0.001360152436709,-0.0012319460559682,0.0012319460687832,-0.0012319460694549,0.001231946055251,3.0414409095973e-13,8.5413678906034e-13,1.0392727509308e-12,6.5966955343031e-13,-0.0012986110185636,0.0012986110195557,-0.001360152438691,0.0013601524398326,-0.0013601524388244,0.0013601524397499,-0.0013601524384914,0.001360152440079,-0.0013601524386331,0.0013601524398916,-0.0012319460612433,0.0012319460636197,-0.0012319460616365,0.001231946063176,-0.0012319460621333,0.0012319460626913,-0.001231946061592,0.0012319460631992,-6.7450331791605e-12,7.1640222910954e-12,-0.0012986110188587,0.00129861101927,2.2749716776474e-14,4.0081631416026e-13,-0.0013601524416486,0.0013601524371387,-0.0013601524412809,0.0013601524370613,-0.0013601524368553,0.0013601524419206,-0.0013601524365198,0.0013601524418074,-0.0012319460552212,0.0012319460694317,-0.0012319460688135,0.0012319460557636,0.0037152715947117,0.0035021017727577,0.71143578957243,0.4798153147905,1368840,32768,0.0053960733310254,0.0053960733310679,0.0053960733310875,37.045708883402,37.040321094773,0.00021156567106721,0.00021156567106721,0.00021156567106721,932496.39763771,0.016320847178427
12075246,0.97110194187602,0.01563036390668,0.0052101213021928,0.0052101213022321,0.0052101213022552,-0.0013009251108762,0.001300925110407,6.7275004794783e-12,-7.2068438358678e-12,2.9091875969041e-14,-5.0379437413357e-13,-0.0013624134974355,0.0013624135017303,-0.0013624135020121,0.0013624134971496,-0.0013624134977572,0.0013624135016424,-0.0013624135022925,0.0013624134971201,-0.0012343098426906,0.0012343098555162,-0.0012343098561464,0.0012343098420312,3.1173321205847e-13,8.5573121094008e-13,1.0330980866214e-12,6.6864963203625e-13,-0.001300925110153,0.0013009251111495,-0.0013624134990921,0.0013624135002188,-0.0013624134992133,0.0013624135001511,-0.0013624134988847,0.0013624135004614,-0.001362413499024,0.0013624135002903,-0.0012343098479659,0.0012343098503314,-0.0012343098483049,0.0012343098498679,-0.0012343098487992,0.0012343098494191,-0.0012343098483025,0.0012343098499317,-6.7420583876853e-12,7.1620671449414e-12,-0.0013009251104518,0.0013009251108616,2.9758826182405e-14,3.9271053237457e-13,-0.0013624135020408,0.0013624134975379,-0.0013624135016793,0.001362413497465,-0.0013624134972665,0.0013624135023142,-0.001362413496933,0.0013624135022051,-0.0012343098419691,0.0012343098561065,-0.0012343098555541,0.0012343098425229,0.0037202134745812,0.0035060740819427,0.71367035931982,0.51698505228359,1368840,32768,0.0054056632517257,0.0054056632517658,0.0054056632517884,36.995479608526,36.991963786491,0.00021116383686821,0.00021116383686821,0.00021116383686821,908210.49062878,0.016350088581421
12161646,0.97268409424783,0.015654991696661,0.0052183305655199,0.0052183305655592,0.0052183305655823,-0.0013031250021747,0.0013031250016846,6.7135306121305e-12,-7.2113165227597e-12,1.8152386633519e-14,-5.275330606977e-13,-0.0013645559450215,0.0013645559493395,-0.0013645559496241,0.0013645559447292,-0.0013645559453605,0.0013645559491974,-0.0013645559498888,0.0013645559446627,-0.0012365647883275,0.0012365648011956,-0.00123656480187,0.0012365647877459,3.0370057509707e-13,8.6015748748507e-13,1.0433752138387e-12,6.642755597788e-13,-0.0013031250014363,0.0013031250024385,-0.0013645559466568,0.0013645559477713,-0.0013645559467657,0.0013645559477325,-0.0013645559464977,0.0013645559480736,-0.0013645559465769,0.0013645559478888,-0.0012365647936341,0.0012365647959537,-0.0012365647940065,0.0012365647954305,-0.001236564794389,0.0012365647949935,-0.0012365647940498,0.0012365647955705,-6.7427649543355e-12,7.1520248046692e-12,-0.0013031250017374,0.0013031250021466,2.3084088914576e-14,4.0049814740945e-13,-0.001364555949614,0.0013645559451286,-0.0013645559492872,0.001364555945031,-0.0013645559448513,0.0013645559498906,-0.0013645559445067,0.0013645559497833,-0.0012365647875372,0.0012365648016421,-0.0012365648011704,0.0012365647880853,0.0037247526886697,0.003509654637737,0.71602425608638,0.55415478977668,1368840,32768,0.0054147798754327,0.0054147798754648,0.0054147798754839,36.946944781358,36.943606478208,0.00021077555825086,0.00021077555825086,0.00021077555825086,884935.78519078,0.016377887412276
12248046,0.97417729838104,0.015678323013159,0.0052261076710191,0.0052261076710583,0.0052261076710813,-0.0013052137760986,0.0013052137756402,6.7210277360397e-12,-7.1915658908338e-12,3.4076723685365e-14,-5.0373790527042e-13,-0.0013665807257462,0.0013665807300651,-0.0013665807303289,0.0013665807254721,-0.0013665807260811,0.0013665807299654,-0.0013665807305599,0.0013665807254456,-0.0012387154602663,0.001238715473114,-0.0012387154737509,0.0012387154596078,3.0543728674761e-13,8.5430684268884e-13,1.020018309729e-12,6.7567441743388e-13,-0.0013052137753827,0.0013052137763771,-0.0013665807274365,0.0013665807285141,-0.001366580727529,0.0013665807284431,-0.0013665807272067,0.001366580728794,-0.0013665807273067,0.0013665807285912,-0.0012387154654924,0.0012387154679408,-0.0012387154660133,0.0012387154675163,-0.0012387154663926,0.0012387154670241,-0.0012387154659559,0.001238715467588,-6.722878385386e-12,7.1598097433153e-12,-0.0013052137756764,0.0013052137761014,4.121003517936e-14,3.8381186304634e-13,-0.0013665807303912,0.0013665807258829,-0.0013665807299828,0.0013665807258227,-0.0013665807255742,0.0013665807306653,-0.0013665807252444,0.0013665807304961,-0.0012387154596169,0.0012387154737272,-0.0012387154731716,0.0012387154601401,0.0037289012200346,0.0035128691829624,0.71850596898201,0.59132452726977,1368840,32768,0.0054234359845766,0.0054234359846203,0.0054234359846574,36.898569010847,36.895249169925,0.00021038855208678,0.00021038855208678,0.00021038855208678,862580.93404605,0.016404282536977
12334446,0.97558660074198,0.015700310975256,0.005233436991718,0.0052334369917573,0.0052334369917803,-0.0013071871285125,0.0013071871280299,6.7114072064108e-12,-7.2075182270303e-12,2.934510352723e-14,-5.272006002659e-13,-0.0013684868839304,0.0013684868882264,-0.0013684868885018,0.0013684868836484,-0.0013684868842625,0.0013684868881282,-0.0013684868887734,0.0013684868835961,-0.0012407510454478,0.001240751058266,-0.001240751058941,0.0012407510447241,3.0183351448744e-13,8.6937849990712e-13,1.0260047444946e-12,6.7784705694358e-13,-0.0013071871277789,0.0013071871287835,-0.0013684868855814,0.001368486886712,-0.0013684868856993,0.0013684868866478,-0.0013684868853796,0.0013684868869627,-0.0013684868855122,0.0013684868868023,-0.0012407510507133,0.0012407510530579,-0.0012407510510717,0.0012407510526251,-0.0012407510514827,0.0012407510521389,-0.0012407510510341,0.0012407510527007,-6.7382815618883e-12,7.1506231121958e-12,-0.0013071871280852,0.0013071871284884,2.8408426259725e-14,3.7498892669863e-13,-0.0013684868885327,0.0013684868840539,-0.0013684868881807,0.0013684868839581,-0.0013684868837629,0.0013684868888136,-0.0013684868834267,0.0013684868886812,-0.0012407510446802,0.0012407510588576,-0.001240751058283,0.0012407510452035,0.0037326474826066,0.0035157200281834,0.71721500785362,0.56285953100856,1368840,32768,0.0054316136887912,0.0054316136888325,0.0054316136888559,36.850209394787,36.846891861642,0.00021000167515829,0.00021000167515829,0.00021000167515829,841316.75566665,0.016429219542591
12420846,0.97691676656324,0.015720919664899,0.0052403065549323,0.0052403065549716,0.0052403065549947,-0.001308524136776,0.0013085241362835,6.705680910757e-12,-7.2167136519987e-12,2.0965477166123e-14,-5.424720749093e-13,-0.0013700188531893,0.0013700188574789,-0.001370018857755,0.0013700188529234,-0.0013700188535669,0.0013700188573935,-0.0013700188580787,0.0013700188528947,-0.0012419061986098,0.0012419062114036,-0.0012419062121023,0.0012419061978288,3.2778098651586e-13,9.020985591553e-13,1.0676059147839e-12,7.0785005213738e-13,-0.0013085241360116,0.0013085241370704,-0.0013700188548086,0.001370018856,-0.0013700188549439,0.0013700188559544,-0.0013700188546127,0.0013700188562806,-0.0013700188547529,0.0013700188560839,-0.001241906203791,0.0012419062062188,-0.0012419062041263,0.0012419062057805,-0.0012419062044783,0.0012419062052365,-0.0012419062041106,0.0012419062058403,-6.7357802853594e-12,7.1567431605267e-12,-0.0013085241363391,0.0013085241367534,3.2621650489793e-14,3.9082820752536e-13,-0.0013700188578121,0.0013700188533209,-0.0013700188574531,0.0013700188532339,-0.0013700188530262,0.0013700188580657,-0.0013700188526568,0.001370018857954,-0.0012419061977397,0.0012419062119592,-0.0012419062113302,0.0012419061982712,0.0037338970688021,0.0035182097986188,0.71198263358266,0.47621929592546,1368840,32768,0.0054371533762907,0.0054371533763375,0.0054371533763592,36.801851522544,36.798534553359,0.00020961481218035,0.00020961481218035,0.00020961481218035,840244.40199353,0.016446115604305
12507246,0.97817229393597,0.015740364553407,0.0052467881844351,0.0052467881844744,0.0052467881844975,-0.0013092617988077,0.0013092617982586,6.6751726662923e-12,-7.2275068516856e-12,-2.5931560749796e-15,-5.7446574458348e-13,-0.0013711847562889,0.0013711847604855,-0.0013711847608287,0.0013711847559157,-0.0013711847566753,0.001371184760403,-0.0013711847612342,0.001371184755963,-0.0012422487828803,0.0012422487956397,-0.0012422487963302,0.0012422487821485,3.428928189774e-13,9.2599047633245e-13,1.0726955240057e-12,7.0097287987733e-13,-0.0013092617980803,0.0013092617991506,-0.0013711847579424,0.001371184759119,-0.0013711847579678,0.0013711847589394,-0.0013711847576177,0.0013711847593755,-0.0013711847578485,0.0013711847591125,-0.0012422487882864,0.0012422487907209,-0.0012422487886456,0.0012422487903525,-0.0012422487895953,0.0012422487901216,-0.0012422487889225,0.00124224879088,-6.725800649054e-12,7.1473130368458e-12,-0.0013092617984264,0.0013092617988281,2.2385757306951e-14,3.9177814909353e-13,-0.0013711847608764,0.0013711847563824,-0.0013711847605296,0.0013711847563115,-0.0013711847560923,0.0013711847611785,-0.0013711847557486,0.0013711847610122,-0.0012422487827077,0.0012422487968888,-0.0012422487963725,0.0012422487832329,0.0037327809515669,0.0035203866266207,0.71170005421994,0.47591061483623,1368840,32768,0.0054402085847641,0.0054402085851043,0.0054402085851532,36.753493692593,36.750177245076,0.00020922794954075,0.00020922794954075,0.00020922794954075,857830.60073269,0.016455437770671
12593646,0.97935742947957,0.015758458249167,0.0052528194163551,0.0052528194163945,0.0052528194164176,-0.0013106070519453,0.001310607051527,6.7792563689596e-12,-7.1788859840786e-12,6.4080454150818e-14,-5.0876533992104e-13,-0.0013726488536133,0.0013726488579438,-0.0013726488582488,0.0013726488534731,-0.0013726488540262,0.0013726488579088,-0.0013726488584815,0.0013726488533981,-0.0012434859934514,0.0012434860065112,-0.0012434860069991,0.0012434859928301,3.1583126333641e-13,8.9959051812717e-13,1.0947278215224e-12,6.3056138384138e-13,-0.0013106070512215,0.0013106070522505,-0.0013726488553016,0.0013726488564233,-0.0013726488553983,0.0013726488564251,-0.0013726488551197,0.0013726488566941,-0.0013726488552354,0.0013726488564909,-0.0012434859987378,0.0012434860011224,-0.0012434859992466,0.0012434860007639,-0.0012434859994761,0.0012434860003213,-0.0012434859992455,0.001243486001013,-6.7570120485083e-12,7.1711277210882e-12,-0.0013106070515309,0.0013106070519512,-4.8425285346655e-14,4.1371197903008e-13,-0.001372648858283,0.0013726488536815,-0.0013726488578351,0.001372648853659,-0.0013726488534303,0.0013726488585293,-0.0013726488530627,0.0013726488584377,-0.0012434859926523,0.001243486007031,-0.0012434860064589,0.0012434859932656,0.0037341880154287,0.0035222229400836,0.70172563878423,0.32738109658313,1368840,32768,0.0054457827858858,0.0054457827858851,0.0054457827859059,36.705136027301,36.701819936795,0.0002088410882184,0.0002088410882184,0.0002088410882184,850674.86998747,0.016472438496386
12680046,0.98047618360163,0.015775576572477,0.0052585255241251,0.0052585255241643,0.0052585255241873,-0.0013104870065895,0.0013104870061083,6.7159961838678e-12,-7.2024464407934e-12,3.679711116763e-14,-5.3538840895749e-13,-0.0013733275026163,0.001373327506907,-0.0013733275071885,0.001373327502339,-0.0013733275029538,0.0013733275068102,-0.0013733275074673,0.0013733275022871,-0.0012426405374726,0.0012426405502953,-0.0012426405509577,0.0012426405368075,2.966834953464e-13,8.7997399975129e-13,1.098909487893e-12,6.1877156754159e-13,-0.0013104870058611,0.0013104870068724,-0.0013733275043572,0.0013733275055277,-0.0013733275045109,0.0013733275054166,-0.0013733275041433,0.0013733275057793,-0.001373327504312,0.0013733275055673,-0.0012426405426311,0.0012426405450842,-0.0012426405430954,0.0012426405445642,-0.0012426405433893,0.001242640543976,-0.0012426405429007,0.0012426405445898,-6.7146718125617e-12,7.1729587239759e-12,-0.0013104870061491,0.0013104870065955,-1.5704049663827e-14,4.6234478744881e-13,-0.0013733275073233,0.0013733275028339,-0.0013733275069336,0.0013733275027926,-0.0013733275025543,0.0013733275075983,-0.0013733275021769,0.0013733275075175,-0.001242640536531,0.0012426405507405,-0.0012426405501334,0.001242640537143,0.0037297216578755,0.0035237983117708,0.70322043695456,0.36436694467297,1368840,32768,0.0054452827257681,0.0054452827258423,0.0054452827258654,36.656778213206,36.653462628512,0.00020845422570565,0.00020845422570565,0.00020845422570565,894260.31328232,0.016470921941141
12766446,0.981529000402,0.01579167252012,0.0052638908400059,0.0052638908400453,0.0052638908400684,-0.0013119044830542,0.0013119044825805,6.7218641810751e-12,-7.2035114670811e-12,2.5933090114839e-14,-5.1467286533254e-13,-0.0013746543721174,0.0013746543764087,-0.0013746543766876,0.0013746543718381,-0.0013746543724537,0.0013746543763221,-0.0013746543769621,0.0013746543717999,-0.0012441412596842,0.0012441412725341,-0.0012441412731677,0.0012441412590213,3.0436743707784e-13,8.5583938410605e-13,1.0896079779301e-12,6.0833938623757e-13,-0.0013119044823299,0.0013119044833256,-0.0013746543737623,0.0013746543749259,-0.0013746543739162,0.0013746543748172,-0.0013746543735605,0.0013746543751731,-0.0013746543737247,0.001374654374958,-0.0012441412649043,0.0012441412673673,-0.0012441412653677,0.0012441412667994,-0.0012441412657728,0.0012441412663749,-0.0012441412653231,0.0012441412669247,-6.7186156920789e-12,7.1761593614927e-12,-0.0013119044826092,0.0013119044830578,-9.7906126682094e-15,4.6911199248005e-13,-0.0013746543767324,0.0013746543722401,-0.001374654376332,0.0013746543721922,-0.0013746543719553,0.0013746543770065,-0.0013746543715814,0.0013746543769211,-0.0012441412588795,0.0012441412731232,-0.0012441412724979,0.0012441412595147,0.0037315151396121,0.0035251025389253,0.70305793231695,0.372530427021,1368840,32768,0.0054511568359833,0.0054511568360266,0.0054511568360505,36.549195386,36.541963289633,0.00020759356308799,0.00020759356308799,0.00020759356308799,874336.79591942,0.016488835349268
12852846,0.98251380409039,0.015806731373198,0.0052689104576986,0.0052689104577381,0.0052689104577612,-0.0013127343052665,0.0013127343049138,6.7492065810777e-12,-7.1462900386859e-12,2.9942791150637e-14,-4.9580520643245e-13,-0.0013755288569729,0.0013755288612354,-0.0013755288612236,0.0013755288565102,-0.0013755288570678,0.0013755288615986,-0.001375528861721,0.0013755288570704,-0.0012449309321192,0.001244930945388,-0.001244930945845,0.0012449309311362,3.8133038003041e-13,9.1266223644221e-13,1.1637420367149e-12,6.7617484332268e-13,-0.0013127343045844,0.001312734305712,-0.0013755288582975,0.0013755288599808,-0.0013755288583336,0.0013755288593621,-0.0013755288581854,0.0013755288601242,-0.0013755288583027,0.0013755288598748,-0.0012449309374049,0.0012449309402502,-0.0012449309379695,0.0012449309398572,-0.0012449309381472,0.0012449309395074,-0.001244930937973,0.0012449309396836,-6.7555431522056e-12,7.1052519100196e-12,-0.0013127343049542,0.001312734305298,-6.5706139781356e-14,4.2186093596739e-13,-0.0013755288617583,0.0013755288567507,-0.0013755288611999,0.0013755288571903,-0.0013755288568855,0.0013755288619013,-0.0013755288564716,0.0013755288619713,-0.0012449309311465,0.0012449309458674,-0.0012449309455034,0.0012449309320211,0.0037309629982863,0.0035261295512202,0.70295991325762,0.38069390936904,1368840,32768,0.0054545952741061,0.0054545952743468,0.0054545952742553,36.324253931392,36.309134985491,0.00020579403145113,0.00020579403145113,0.00020579403145113,865006.54009495,0.016499322580304
12939246,0.9834351653346,0.015820821150245,0.0052736070500477,0.0052736070500873,0.0052736070501101,-0.0013134746687925,0.0013134746682224,6.6464679549663e-12,-7.2714190984319e-12,-1.7403115405594e-14,-5.6062210867352e-13,-0.0013763067501502,0.0013763067543278,-0.0013763067542697,0.0013763067502457,-0.0013763067506191,0.0013763067541724,-0.0013763067550417,0.0013763067501642,-0.0012456380105348,0.001245638023967,-0.0012456380245285,0.001245638010703,1.2613038209752e-13,6.7934077601737e-13,9.6471208753146e-13,4.9203005705479e-13,-0.0013134746682022,0.0013134746688673,-0.0013763067519113,0.0013763067526467,-0.0013763067519556,0.0013763067529594,-0.001376306751619,0.0013763067532159,-0.0013763067519923,0.0013763067528724,-0.001245638015131,0.0012456380182768,-0.0012456380168425,0.0012456380186127,-0.0012456380168261,0.001245638017318,-0.0012456380167763,0.0012456380178758,-6.8517444486162e-12,7.0307105989702e-12,-0.0013134746684273,0.0013134746685541,-1.3508763787127e-13,3.3541934140465e-13,-0.0013763067551329,0.001376306750018,-0.0013763067544838,0.0013763067501061,-0.0013763067502635,0.0013763067549959,-0.0013763067498509,0.0013763067548538,-0.0012456380097919,0.0012456380237028,-0.001245638024067,0.0012456380100917,0.0037301038897977,0.0035269010178669,0.7029189282709,0.38885739171701,1368840,32768,0.0054576630279955,0.0054576630281086,0.0054576630279261,36.092159645205,36.076306681323,0.00020393727716164,0.00020393727716164,0.00020393727716164,855938.94576331,0.01650867931919
13025646,0.98429765401188,0.015834012457212,0.0052780041523701,0.0052780041524099,0.0052780041524324,-0.0013141430427153,0.0013141430423982,6.7883940898085e-12,-7.0972984176992e-12,1.6767893634712e-13,-4.5420535963216e-13,-0.0013770070952079,0.0013770071003388,-0.0013770070995228,0.0013770070951752,-0.0013770070954037,0.0013770070993919,-0.0013770071010009,0.0013770070948262,-0.0012462783716683,0.0012462783860151,-0.001246278385662,0.0012462783718217,2.060389409459e-13,8.3098708450321e-13,1.1316127241257e-12,5.4035258083486e-13,-0.0013141430421223,0.0013141430430874,-0.0013770070968798,0.0013770070980786,-0.0013770070972406,0.0013770070983601,-0.0013770070969277,0.001377007098742,-0.0013770070970582,0.0013770070981675,-0.0012462783773189,0.0012462783800282,-0.0012462783774106,0.001246278379448,-0.001246278378257,0.001246278378801,-0.0012462783783114,0.0012462783792123,-6.9642351297502e-12,6.8889791052406e-12,-0.0013141430425554,0.0013141430425577,-2.496341385543e-13,3.45989518493e-13,-0.0013770070999729,0.0013770070949812,-0.0013770070999076,0.0013770070950908,-0.0013770070952319,0.0013770071001187,-0.001377007094947,0.001377007100135,-0.0012462783709494,0.0012462783855627,-0.0012462783854027,0.001246278372195,0.003729011366001,0.003527439647651,0.70292892019602,0.39702087406505,1368840,32768,0.0054604324793891,0.0054604324795885,0.0054604324793883,35.85939474056,35.843478377177,0.00020207515792448,0.00020207515792448,0.00020207515792448,847159.97282264,0.016517126324883
13112046,0.98510551031698,0.015846370655945,0.0052821235519476,0.0052821235519876,0.0052821235520099,-0.0013147455462506,0.0013147455460346,6.8962242074372e-12,-7.1204010060487e-12,1.5509402668983e-13,-4.6806370097523e-13,-0.0013776365617285,0.0013776365663253,-0.0013776365658598,0.0013776365615083,-0.001377636561577,0.0013776365657963,-0.0013776365664504,0.0013776365609851,-0.001246857573723,0.0012468575868089,-0.0012468575877855,0.0012468575745588,4.533342980072e-13,1.0795760785154e-12,1.3896355475879e-12,7.8531350921135e-13,-0.0013147455454529,0.0013147455469434,-0.0013776365628202,0.0013776365649914,-0.0013776365634885,0.0013776365645913,-0.0013776365622861,0.0013776365653192,-0.0013776365625124,0.0013776365644554,-0.001246857580133,0.0012468575819121,-0.001246857579453,0.0012468575813533,-0.0012468575799291,0.0012468575817638,-0.0012468575798245,0.0012468575819049,-6.5000760741966e-12,7.4848255790105e-12,-0.0013147455457052,0.0013147455466819,2.2503036077106e-13,8.1910868267435e-13,-0.0013776365661737,0.0013776365621593,-0.0013776365659864,0.0013776365619769,-0.0013776365609262,0.0013776365671631,-0.0013776365606351,0.0013776365670665,-0.0012468575727681,0.0012468575869483,-0.0012468575864364,0.0012468575739718,0.003727710335194,0.0035277664244424,0.70298492275561,0.40518435641312,1368840,32768,0.0054629289839495,0.0054629289841796,0.0054629289841608,35.626562412085,35.610650073016,0.00020021249929668,0.00020021249929668,0.00020021249929668,838661.73824856,0.016524740912553
13198446,0.98586264396036,0.015857955875546,0.0052859852918144,0.0052859852918546,0.005285985291877,-0.0013152868994804,0.0013152868990201,6.7882686230532e-12,-7.2689411153091e-12,-2.7270637488979e-14,-6.4416049780955e-13,-0.0013782003131777,0.0013782003172265,-0.0013782003178197,0.0013782003129139,-0.0013782003129484,0.0013782003167796,-0.001378200317652,0.0013782003126622,-0.0012473798790275,0.001247379892173,-0.0012473798929245,0.0012473798783318,3.1303381938463e-13,9.4230315446192e-13,1.2848295728679e-12,6.4486597625767e-13,-0.0013152868986895,0.0013152868999146,-0.0013782003147727,0.0013782003160922,-0.0013782003151551,0.0013782003155062,-0.0013782003138418,0.0013782003159506,-0.0013782003141439,0.0013782003153018,-0.0012473798840231,0.0012473798874697,-0.0012473798846649,0.0012473798862154,-0.0012473798848358,0.0012473798858513,-0.0012473798848183,0.0012473798865078,-6.8131660977466e-12,7.2128136240831e-12,-0.0013152868990942,0.0013152868995066,-4.8140029355148e-14,5.9439557691725e-13,-0.0013782003183077,0.0013782003129803,-0.0013782003173207,0.0013782003128707,-0.0013782003129958,0.0013782003179906,-0.0013782003122605,0.0013782003178451,-0.0012473798782487,0.0012473798926577,-0.0012473798916664,0.0012473798789299,0.0037262196823818,0.0035279005928051,0.70308282030041,0.41334783876116,1368840,32768,0.0054651721012567,0.0054651721014715,0.0054651721014646,35.393723189297,35.377821768875,0.00019834978551438,0.00019834978551438,0.00019834978551438,830432.51789324,0.016531582719793
13284846,0.9865726591481,0.015868817135976,0.0052896057119577,0.0052896057119981,0.0052896057120205,-0.0013157708229986,0.0013157708226388,6.884477566289e-12,-7.2028920742384e-12,8.3656444353049e-14,-4.7276043984602e-13,-0.0013787026513337,0.0013787026558358,-0.0013787026562606,0.0013787026515724,-0.001378702651948,0.0013787026556914,-0.0013787026566984,0.0013787026514285,-0.0012478482772663,0.0012478482906743,-0.0012478482914168,0.0012478482770741,2.6585608416147e-13,8.3034028073321e-13,1.1072307042738e-12,5.0193816613357e-13,-0.0013157708223651,0.0013157708233314,-0.00137870265283,0.0013787026544505,-0.0013787026535376,0.0013787026536964,-0.0013787026529993,0.0013787026551913,-0.0013787026533719,0.0013787026544072,-0.0012478482830427,0.0012478482851923,-0.0012478482835507,0.0012478482847636,-0.0012478482839593,0.0012478482840535,-0.0012478482833692,0.0012478482850694,-7.1316728381725e-12,6.9269659741796e-12,-0.001315770822987,0.0013157708227819,-3.6565509419375e-13,2.472466820777e-13,-0.0013787026569158,0.0013787026515865,-0.0013787026560461,0.0013787026511506,-0.0013787026518509,0.0013787026559578,-0.0013787026517381,0.0013787026557619,-0.0012478482775239,0.0012478482907023,-0.0012478482909608,0.0012478482771769,0.0037245544757713,0.0035278586242416,0.7028097489947,0.41498894775083,1368840,32768,0.0054671772475866,0.0054671772477093,0.0054671772478592,35.160883291214,35.144993464714,0.00019648706632971,0.00019648706632971,0.00019648706632971,822471.48783088,0.0165376987642
13371246,0.98723887979971,0.015878984652784,0.0052929948842269,0.0052929948842673,0.0052929948842899,-0.0013161399430156,0.0013161399425409,6.8378373440569e-12,-7.291523425435e-12,2.7529864863879e-14,-5.4876500031181e-13,-0.0013791180106491,0.0013791180150136,-0.0013791180152802,0.0013791180103784,-0.001379118010978,0.0013791180149037,-0.0013791180155616,0.0013791180103108,-0.0012481764785487,0.0012481764916969,-0.0012481764923386,0.0012481764779526,2.9093305337139e-13,8.7754248579707e-13,1.1326870148363e-12,5.6750451606776e-13,-0.0013161399422855,0.0013161399432903,-0.001379118012289,0.001379118013508,-0.0013791180124776,0.0013791180133611,-0.0013791180120855,0.001379118013764,-0.0013791180122706,0.0013791180135086,-0.0012481764838806,0.0012481764864601,-0.0012481764844713,0.0012481764858422,-0.0012481764848302,0.0012481764853879,-0.0012481764843992,0.0012481764860484,-6.8142668876476e-12,7.2845742847853e-12,-0.0013161399425578,0.0013161399430252,-4.6776071023139e-14,5.1627602223955e-13,-0.0013791180153117,0.0013791180107477,-0.0013791180148779,0.0013791180107217,-0.0013791180104649,0.0013791180155805,-0.0013791180100611,0.0013791180155246,-0.0012481764778401,0.0012481764923657,-0.0012481764917649,0.00124817647853,0.0037224837208994,0.0035276528239693,0.70108395392957,0.39352647549138,1368840,32768,0.0054687065675412,0.0054687065675811,0.0054687065675961,34.928043440274,34.912165160566,0.00019462434752219,0.00019462434752219,0.00019462434752219,816877.06571308,0.016542363974998
13457646,0.98786437275721,0.015888506698253,0.0052961688993833,0.0052961688994237,0.0052961688994462,-0.001316244084621,0.001316244084116,6.8708813934074e-12,-7.3670435301124e-12,4.0336767739434e-14,-5.8621650325293e-13,-0.0013793742609527,0.0013793742653406,-0.0013793742656108,0.0013793742606748,-0.0013793742613079,0.0013793742652222,-0.0013793742659221,0.0013793742605925,-0.0012481429466374,0.0012481429597975,-0.0012481429605063,0.001248142945985,2.7505889125733e-13,9.1238118620457e-13,1.1807566345777e-12,5.7497175853686e-13,-0.0013162440838638,0.0013162440848986,-0.0013793742626253,0.0013793742638524,-0.0013793742628381,0.0013793742636892,-0.001379374262386,0.0013793742641266,-0.0013793742625987,0.0013793742638607,-0.0012481429519138,0.0012481429546357,-0.0012481429525198,0.0012481429539409,-0.0012481429529217,0.0012481429534033,-0.0012481429524406,0.0012481429540852,-6.8658791344583e-12,7.3410157370083e-12,-0.0013162440841433,0.0013162440846269,-5.1603482372565e-14,5.5169949890019e-13,-0.0013793742656689,0.0013793742610657,-0.0013793742652238,0.0013793742610697,-0.0013793742607923,0.0013793742659336,-0.0013793742603711,0.0013793742658984,-0.0012481429458323,0.001248142960443,-0.0012481429598076,0.0012481429465257,0.0037193991818301,0.0035272981741444,0.69926771669971,0.37206400323196,1368840,32768,0.0054691375221548,0.0054691375222075,0.0054691375222237,34.695203594574,34.679336856413,0.00019276162875659,0.00019276162875659,0.00019276162875659,818909.97639749,0.016543680459347
13544046,0.9884528606522,0.015897444840381,0.0052991482800926,0.005299148280133,0.0052991482801555,-0.0013163489323067,0.0013163489318015,6.8946149624808e-12,-7.3581786244586e-12,5.023411244117e-14,-6.2702055083493e-13,-0.0013796225920759,0.0013796225966214,-0.0013796225968345,0.0013796225917841,-0.0013796225930162,0.0013796225966617,-0.0013796225979059,0.0013796225920113,-0.0012481161280699,0.0012481161415526,-0.0012481161419203,0.0012481161272878,2.3049348799392e-13,9.2434240903272e-13,1.1366260121497e-12,5.5054571061821e-13,-0.0013163489315941,0.0013163489325542,-0.0013796225941842,0.0013796225950637,-0.0013796225942693,0.0013796225949669,-0.0013796225942078,0.0013796225955148,-0.0013796225941486,0.0013796225950974,-0.0012481161337151,0.0012481161354298,-0.001248116134113,0.0012481161357364,-0.001248116135444,0.0012481161343188,-0.0012481161346177,0.0012481161353843,-6.7538905556325e-12,7.472169024483e-12,-0.0013163489317133,0.0013163489324274,2.9396572543123e-14,6.2159404014052e-13,-0.001379622597175,0.0013796225926755,-0.0013796225964104,0.0013796225931267,-0.001379622592399,0.0013796225973292,-0.0013796225917592,0.0013796225971171,-0.0012481161268327,0.0012481161419853,-0.0012481161416509,0.0012481161283704,0.0037163786718108,0.0035268135197221,0.69768634156131,0.35551473247766,1368840,32768,0.0054695714128324,0.0054695714129154,0.0054695714128997,34.490237666382,34.476213486064,0.00019112190133105,0.00019112190133105,0.00019112190133105,821205.38394408,0.01654500577784
13630446,0.98900833590868,0.015905877420277,0.0053019591400579,0.0053019591400983,0.0053019591401208,-0.001316552079925,0.001316552079341,6.8665166443946e-12,-7.3708042387547e-12,6.6907720720942e-14,-6.7488314748898e-13,-0.0013799547406033,0.0013799547449658,-0.0013799547453657,0.0013799547402976,-0.0013799547412155,0.0013799547452546,-0.0013799547460339,0.0013799547404215,-0.0012482031021769,0.0012482031154587,-0.0012482031166733,0.0012482031015649,2.0557289635971e-13,9.5828648971141e-13,1.1209430500769e-12,5.0278893426083e-13,-0.0013165520791898,0.0013165520801305,-0.0013799547426852,0.0013799547434622,-0.001379954743075,0.0013799547433801,-0.001379954742691,0.0013799547438277,-0.0013799547424929,0.0013799547434357,-0.0012482031074419,0.0012482031099959,-0.0012482031081902,0.0012482031094596,-0.0012482031085573,0.0012482031084709,-0.0012482031082184,0.0012482031092917,-6.9955261150085e-12,7.2130641752524e-12,-0.0013165520795316,0.0013165520798138,-1.5927975175998e-13,4.5776525087993e-13,-0.0013799547458061,0.0013799547405974,-0.0013799547451341,0.0013799547408592,-0.0013799547404633,0.0013799547455275,-0.001379954740382,0.0013799547455716,-0.0012482031010906,0.0012482031159242,-0.0012482031155398,0.0012482031016315,0.0037138233040274,0.0035262216241798,0.69738201169866,0.35974826750915,1368840,32768,0.0054704127550136,0.0054704127551261,0.0054704127551779,34.33565403843,34.325009532124,0.00018988523230744,0.00018988523230744,0.00018988523230744,822361.8086289,0.016547573391234
13716846,0.98953293491413,0.015913838013512,0.0053046126711362,0.0053046126711768,0.0053046126711993,-0.0013169208892024,0.001316920888598,6.8669470430109e-12,-7.4239506151694e-12,1.2700729648486e-14,-5.8490819027981e-13,-0.0013803570447818,0.0013803570490118,-0.0013803570495326,0.0013803570447392,-0.0013803570450054,0.001380357048898,-0.0013803570500112,0.0013803570438837,-0.0012485443210186,0.0012485443344629,-0.0012485443352239,0.0012485443202554,9.5919952064247e-14,6.930623568325e-13,1.0262532074925e-12,4.1835798415664e-13,-0.0013169208886489,0.001316920889273,-0.0013803570468286,0.0013803570474689,-0.001380357046608,0.0013803570472758,-0.0013803570464934,0.001380357047826,-0.0013803570464087,0.0013803570475569,-0.0012485443266584,0.0012485443291193,-0.0012485443274731,0.0012485443285445,-0.00124854432778,0.0012485443279874,-0.0012485443274352,0.0012485443283448,-7.0296185440964e-12,7.2288125176808e-12,-0.001316920888836,0.0013169208891078,-1.9910412338805e-13,4.0909023786816e-13,-0.001380357049633,0.0013803570449372,-0.001380357049409,0.0013803570447395,-0.0013803570446977,0.0013803570497129,-0.0013803570445108,0.0013803570497339,-0.0012485443206564,0.0012485443350811,-0.0012485443348203,0.0012485443208785,0.0037119952382082,0.0035255328150848,0.69711156716152,0.36398180254069,1368840,32768,0.0054719409016667,0.0054719409019183,0.0054719409019638,34.18412824615,34.17380557817,0.0001886730259692,0.0001886730259692,0.0001886730259692,817011.65016165,0.016552234645814
13803246,0.99002856339429,0.015921356961845,0.005307118987247,0.0053071189872877,0.0053071189873102,-0.0013172557431646,0.0013172557427518,7.0040214437173e-12,-7.3748400566397e-12,1.0778570722063e-13,-5.1722384622536e-13,-0.001380717244129,0.0013807172486026,-0.0013807172489452,0.001380717243906,-0.0013807172438576,0.0013807172487304,-0.0013807172493647,0.001380717243561,-0.0012488581168655,0.0012488581305779,-0.0012488581307082,0.0012488581164702,2.8762641909268e-13,9.2906291188342e-13,1.1978452890016e-12,5.6241937729761e-13,-0.0013172557424908,0.0013172557434967,-0.0013807172457605,0.0013807172468142,-0.0013807172460123,0.0013807172467519,-0.0013807172453655,0.0013807172472652,-0.0013807172459119,0.0013807172469308,-0.0012488581218549,0.0012488581246218,-0.0012488581231724,0.0012488581245206,-0.0012488581232116,0.0012488581238214,-0.00124885812269,0.0012488581243118,-7.0140026093878e-12,7.3373054385907e-12,-0.0013172557428131,0.0013172557431861,-1.6648447283716e-13,4.6503791105809e-13,-0.0013807172490175,0.0013807172440099,-0.0013807172483354,0.0013807172440563,-0.0013807172441365,0.0013807172490319,-0.0013807172434008,0.0013807172490414,-0.0012488581157927,0.0012488581308091,-0.0012488581303951,0.0012488581170049,0.0037100852388907,0.00352475631616,0.69687168711822,0.36821533757219,1368840,32768,0.0054733283443024,0.0054733283444498,0.0054733283444742,34.032887629396,34.022601624226,0.00018746310103517,0.00018746310103517,0.00018746310103517,811719.75470169,0.016556466755163
13889646,0.99049699297397,0.015928461641394,0.0053094872137634,0.0053094872138041,0.0053094872138266,-0.0013175582351501,0.0013175582346404,6.967195686366e-12,-7.4842317736214e-12,-1.592851339485e-14,-5.3648902239333e-13,-0.0013810417459024,0.0013810417502275,-0.0013810417507826,0.0013810417455957,-0.0013810417462995,0.0013810417501231,-0.0013810417511318,0.0013810417450927,-0.0012491424351768,0.0012491424489688,-0.0012491424484571,0.0012491424344136,-5.2783328682011e-14,4.7795234006056e-13,8.2896076405297e-13,1.0675806214389e-13,-0.0013175582348381,0.0013175582350136,-0.001381041748062,0.0013810417484745,-0.0013810417482701,0.0013810417482903,-0.0013810417472403,0.0013810417485713,-0.0013810417481599,0.0013810417484737,-0.0012491424411764,0.0012491424422535,-0.0012491424419342,0.0012491424417668,-0.0012491424407076,0.0012491424409493,-0.0012491424405543,0.0012491424421352,-7.0637585011442e-12,7.3468164127428e-12,-0.0013175582347602,0.0013175582350595,-2.4472840606812e-13,4.7543721101367e-13,-0.001381041750606,0.0013810417455951,-0.0013810417499273,0.0013810417459917,-0.0013810417459486,0.0013810417507706,-0.0013810417452201,0.0013810417509093,-0.0012491424336955,0.0012491424485453,-0.0012491424480798,0.001249142434754,0.0037080992463191,0.0035239003705626,0.69665963100495,0.37244887260367,1368840,32768,0.0054745816901785,0.0054745816903055,0.0054745816902393,33.881675528655,33.871397670272,0.00018625340422924,0.00018625340422924,0.00018625340422924,806551.04906726,0.016560289873529
13976046,0.99093987766794,0.015935177556672,0.0053117258521893,0.0053117258522301,0.0053117258522525,-0.0013178302565185,0.0013178302558484,6.909020934153e-12,-7.572917417277e-12,-8.7048576019873e-14,-6.359183966589e-13,-0.0013813332540065,0.0013813332584151,-0.0013813332588925,0.0013813332537285,-0.0013813332544699,0.0013813332581398,-0.0013813332593107,0.0013813332536968,-0.0012493985405919,0.0012493985536962,-0.0012493985543423,0.0012493985401134,4.243858882436e-13,9.8176541950505e-13,1.3598811624463e-12,6.2832862852111e-13,-0.0013178302555288,0.0013178302567084,-0.0013813332557103,0.0013813332571587,-0.0013813332559047,0.001381333256774,-0.0013813332554383,0.0013813332572421,-0.0013813332557401,0.0013813332571417,-0.0012493985456974,0.0012493985486257,-0.0012493985462837,0.0012493985479169,-0.001249398546803,0.0012493985474823,-0.0012493985455575,0.001249398548089,-7.1392624298451e-12,7.3095293459547e-12,-0.0013178302560275,0.0013178302562369,-3.0891920978901e-13,4.2453970707395e-13,-0.0013813332590312,0.0013813332538256,-0.001381333258345,0.0013813332541539,-0.0013813332539998,0.0013813332587899,-0.001381333253793,0.0013813332592077,-0.0012493985396791,0.0012493985539896,-0.001249398553834,0.0012493985404539,0.0037060443001507,0.0035229726068181,0.69647311146886,0.37668240763512,1368840,32768,0.0054757087780234,0.0054757087777546,0.0054757087778108,33.730466326313,33.720193716327,0.0001850437306105,0.0001850437306105,0.0001850437306105,801510.59585388,0.016563727905122
14062446,0.99135876274791,0.015941527539861,0.0053138425132526,0.0053138425132932,0.0053138425133156,-0.0013180735348417,0.0013180735342084,6.9088677623617e-12,-7.4719760892006e-12,-7.2255439704739e-14,-6.4331640594892e-13,-0.001381593798591,0.0013815938029292,-0.0013815938035947,0.0013815937983784,-0.0013815937992734,0.0013815938029964,-0.0013815938040018,0.0013815937987104,-0.0012496278795006,0.0012496278930833,-0.0012496278932285,0.0012496278791836,6.0027860307719e-13,1.1839473018109e-12,1.4410107428168e-12,8.1761193428134e-13,-0.0013180735337499,0.0013180735352419,-0.0013815938003545,0.0013815938019812,-0.0013815938005872,0.0013815938017442,-0.0013815938000035,0.0013815938021097,-0.0013815938006262,0.0013815938019009,-0.0012496278842349,0.0012496278875777,-0.0012496278846631,0.0012496278869172,-0.0012496278856411,0.0012496278867425,-0.0012496278853616,0.0012496278873453,-6.8175137296353e-12,7.5329264625027e-12,-0.0013180735341886,0.001318073534893,4.9400814368443e-14,6.7057951425614e-13,-0.0013815938035653,0.0013815937990099,-0.0013815938028796,0.0013815937991893,-0.0013815937984304,0.001381593804004,-0.0013815937981327,0.0013815938041057,-0.0012496278780686,0.001249627893178,-0.0012496278928954,0.0012496278798406,0.0037039267932491,0.0035219799122627,0.69620544373193,0.37925191891654,1368840,32768,0.0054767167667277,0.0054767167666073,0.005476716766793,33.579257423774,33.568989762375,0.00018383405939019,0.00018383405939019,0.00018383405939019,796596.70329476,0.016566802684786
14148846,0.99175509237588,0.015947508233836,0.005315836077911,0.0053158360779515,0.0053158360779739,-0.0013182719576892,0.0013182719571661,6.9422035675051e-12,-7.418217849125e-12,-1.7080301737918e-14,-5.9402338240519e-13,-0.0013818165523218,0.0013818165566934,-0.00138181655703,0.0013818165521591,-0.0013818165527652,0.0013818165566416,-0.0013818165573427,0.0013818165520119,-0.0012498055109159,0.0012498055247044,-0.0012498055254213,0.0012498055105753,3.293465857467e-13,9.1857323233593e-13,1.1676447998411e-12,6.4189806692526e-13,-0.0013182719569167,0.0013182719579836,-0.0013818165539128,0.0013818165552812,-0.0013818165541544,0.0013818165551519,-0.0013818165538364,0.0013818165555144,-0.001381816553945,0.0013818165552654,-0.0012498055164823,0.0012498055191584,-0.0012498055171715,0.0012498055186567,-0.0012498055173782,0.0012498055179116,-0.0012498055170887,0.0012498055185528,-6.961386981465e-12,7.3675772491017e-12,-0.0013182719572501,0.0013182719576608,-5.8848172816951e-14,4.6519528860326e-13,-0.0013818165571111,0.0013818165523534,-0.0013818165567266,0.0013818165524088,-0.0013818165521773,0.0013818165573556,-0.0013818165515924,0.0013818165572884,-0.0012498055101615,0.0012498055250228,-0.0012498055248399,0.001249805510939,0.0037016822724793,0.0035209240825535,0.69297482286022,0.33507912015238,1368840,32768,0.0054775388514645,0.0054775388515576,0.0054775388515798,33.42804867904,33.417785808426,0.00018262438943232,0.00018262438943232,0.00018262438943232,792380.1271242,0.016569310595222
14235246,0.99213021661606,0.015953141478035,0.0053177138259771,0.0053177138260177,0.0053177138260401,-0.001317996775116,0.0013179967746305,6.9373489511045e-12,-7.4109024255473e-12,3.4012666818729e-14,-5.4849536149027e-13,-0.0013817925910111,0.0013817925954413,-0.0013817925957208,0.0013817925907515,-0.0013817925913623,0.001381792595343,-0.0013817925960201,0.001381792590684,-0.0012493033810315,0.001249303394325,-0.001249303394948,0.0012493033803425,2.8748801155623e-13,8.8173347541228e-13,1.1379063847999e-12,5.8561905091645e-13,-0.0013179967744145,0.0013179967754192,-0.0013817925930228,0.0013817925942158,-0.0013817925932248,0.001381792594073,-0.0013817925928002,0.0013817925944876,-0.0013817925930102,0.0013817925942303,-0.0012493033861129,0.0012493033887558,-0.0012493033866647,0.001249303388097,-0.0012493033868336,0.0012493033873478,-0.001249303386326,0.001249303387994,-6.9103481289022e-12,7.4066123507238e-12,-0.0013179967746832,0.0013179967751633,-2.4368196744787e-14,5.2514422191038e-13,-0.0013817925960935,0.0013817925914352,-0.0013817925956553,0.001381792591443,-0.001381792591171,0.001381792596346,-0.00138179259076,0.0013817925962919,-0.0012493033796021,0.0012493033943557,-0.0012493033936695,0.0012493033803312,0.003697576018581,0.0035198113093369,0.6895606376735,0.2909063213882,1368840,32768,0.0054763976986974,0.0054763976988787,0.0054763976989056,33.276839940999,33.266581854477,0.00018141471952799,0.00018141471952799,0.00018141471952799,803315.19575053,0.01656583309884
14321646,0.99248393788059,0.015958455889696,0.0053194852965305,0.0053194852965714,0.0053194852965938,-0.0013175289216278,0.0013175289211444,6.8841418118402e-12,-7.3753061012259e-12,2.9369279259267e-14,-5.3486430732138e-13,-0.001381588773934,0.0013815887783626,-0.0013815887786249,0.0013815887736615,-0.0013815887742985,0.0013815887782697,-0.0013815887789439,0.0013815887736184,-0.0012485987503249,0.0012485987634032,-0.0012485987640784,0.0012485987496604,3.1087682645576e-13,8.8370188586692e-13,1.1697654703502e-12,5.6830313872921e-13,-0.0013175289209272,0.0013175289219465,-0.0013815887759448,0.0013815887771405,-0.0013815887761481,0.0013815887769942,-0.0013815887757362,0.0013815887774023,-0.0013815887759357,0.0013815887771472,-0.0012485987553875,0.0012485987580998,-0.0012485987560939,0.0012485987574789,-0.0012485987559371,0.0012485987566816,-0.0012485987555323,0.0012485987571402,-6.8713431440071e-12,7.3569163394911e-12,-0.0013175289212042,0.0013175289216816,-6.6634582006318e-14,5.3188172196673e-13,-0.0013815887790091,0.0013815887743755,-0.0013815887785643,0.0013815887743748,-0.0013815887740882,0.001381588779271,-0.0013815887736895,0.0013815887792312,-0.001248598748992,0.0012485987635251,-0.0012485987628574,0.0012485987496736,0.0036927212004472,0.0035186454391793,0.68998948675266,0.30884249030472,1368840,32768,0.0054744581361109,0.0054744581363216,0.0054744581363466,33.050809704041,33.035661842836,0.00017960647763233,0.00017960647763233,0.00017960647763233,815203.93689229,0.016559920679635
14408046,0.99281538550569,0.015963443860671,0.005321147953522,0.0053211479535632,0.0053211479535856,-0.0013174113353599,0.0013174113348064,6.8400393356111e-12,-7.4133925847688e-12,8.8778934923302e-14,-6.2459180150214e-13,-0.0013814197881386,0.001381419792516,-0.0013814197928056,0.0013814197878006,-0.0013814197885834,0.0013814197923925,-0.0013814197932242,0.0013814197877354,-0.0012485318100792,0.0012485318232004,-0.0012485318237883,0.0012485318093765,2.720502478752e-13,9.9561111417564e-13,1.1892650217111e-12,5.6503115045091e-13,-0.0013174113345707,0.0013174113356204,-0.0013814197898403,0.0013814197909968,-0.0013814197900563,0.0013814197908989,-0.001381419789638,0.0013814197913402,-0.001381419789772,0.0013814197911107,-0.0012485318152307,0.0012485318179794,-0.0012485318159357,0.0012485318173755,-0.0012485318161885,0.0012485318168152,-0.0012485318155075,0.0012485318174558,-6.8727681592974e-12,7.3495061246916e-12,-0.001317411334867,0.0013174113353385,-8.2394865246366e-14,5.3967310159249e-13,-0.0013814197929385,0.0013814197882754,-0.0013814197924657,0.001381419788257,-0.0013814197879537,0.001381419793229,-0.0013814197876072,0.0013814197931267,-0.0012485318090771,0.0012485318236529,-0.001248531823045,0.0012485318099293,0.0036893029030466,0.0035174222738217,0.69122110319574,0.33807105781011,1368840,32768,0.0054739709735998,0.0054739709736514,0.0054739709736813,32.701086380814,32.677702163951,0.00017680869104651,0.00017680869104651,0.00017680869104651,806484.72391174,0.016558434995786
14494446,0.99312608549838,0.015968121292457,0.0053227070974507,0.0053227070974919,0.0053227070975143,-0.00131736486383,0.0013173648628468,6.6622415319179e-12,-7.7666078531083e-12,-1.9002360667396e-13,-7.1958413484568e-13,-0.0013812676776313,0.0013812676811044,-0.0013812676813381,0.0013812676763527,-0.0013812676779123,0.0013812676817049,-0.0013812676816352,0.0013812676765152,-0.001248585504405,0.0012485855185983,-0.0012485855196423,0.0012485855034778,4.1811349162572e-13,9.7328379625988e-13,1.2646720416078e-12,7.0035289881733e-13,-0.0013173648627245,0.0013173648639056,-0.0013812676789044,0.0013812676802729,-0.0013812676792742,0.001381267680126,-0.0013812676789885,0.001381267679984,-0.0013812676785946,0.0013812676806457,-0.0012485855109809,0.001248585512353,-0.0012485855105245,0.0012485855114858,-0.0012485855104814,0.0012485855109105,-0.0012485855096229,0.0012485855115339,-6.6299086961344e-12,7.7661888070864e-12,-0.0013173648627204,0.0013173648638834,2.8847909892625e-13,8.5603902506598e-13,-0.0013812676811883,0.0013812676771733,-0.001381267680325,0.0013812676773252,-0.0013812676765307,0.0013812676816266,-0.0013812676763278,0.0013812676817546,-0.0012485855029093,0.0012485855182054,-0.0012485855169886,0.0012485855042138,0.0036862189671607,0.0035161475767684,0.69138848665176,0.34847616179176,1368840,32768,0.0054737786906389,0.0054737786905422,0.005473778690488,32.343872076247,32.319742485063,0.00017395097660997,0.00017395097660997,0.00017395097660997,794262.07063412,0.016557848058364
14580846,0.99341756321283,0.015972511444499,0.0053241704814647,0.0053241704815058,0.0053241704815283,-0.0013171108549882,0.0013171108549682,7.1585046655374e-12,-7.2638630351468e-12,2.847697710672e-13,-2.6370747332947e-13,-0.0013809871226121,0.0013809871272639,-0.0013809871267855,0.0013809871228068,-0.0013809871219865,0.0013809871270143,-0.0013809871272658,0.0013809871224585,-0.0012483570455683,0.0012483570593733,-0.0012483570603709,0.0012483570443476,4.0457414053772e-13,9.6791654846091e-13,1.1677269738013e-12,4.8905023632157e-13,-0.0013171108545004,0.0013171108555649,-0.0013809871238314,0.0013809871253905,-0.001380987124836,0.001380987125312,-0.0013809871242868,0.0013809871258988,-0.0013809871237482,0.0013809871263881,-0.0012483570524733,0.0012483570538651,-0.001248357052337,0.0012483570529981,-0.0012483570523191,0.0012483570534533,-0.00124835705048,0.0012483570541283,-6.8882449806088e-12,7.5056591190307e-12,-0.0013171108548505,0.001317110855302,-7.4379698339507e-14,6.1936372592214e-13,-0.0013809871277687,0.0013809871229172,-0.0013809871270147,0.0013809871230237,-0.0013809871226001,0.0013809871276666,-0.0013809871228562,0.0013809871268618,-0.001248357045815,0.0012483570605427,-0.0012483570592466,0.0012483570454093,0.0036823446120227,0.0035148283359069,0.69160442174008,0.3588812657735,1368840,32768,0.0054727261086739,0.0054727261088993,0.0054727261090803,31.985961941882,31.961782806181,0.00017108769553506,0.00017108769553506,0.00017108769553506,788092.79585664,0.016554638220772
14667246,0.99369122679486,0.015976635157379,0.0053255450524248,0.005325545052466,0.0053255450524885,-0.0013168357315292,0.0013168357310069,6.9160530722672e-12,-7.5833583924301e-12,2.2654154989939e-13,-4.8251478891617e-13,-0.0013806878958729,0.0013806878987174,-0.001380687900346,0.001380687895829,-0.0013806878953486,0.0013806878998214,-0.0013806879000225,0.0013806878950746,-0.0012481058046632,0.0012481058175331,-0.0012481058173372,0.001248105801812,3.3552051478447e-13,1.0497508131862e-12,1.2124326080749e-12,5.1442699049091e-13,-0.0013168357308045,0.0013168357317699,-0.0013806878972246,0.0013806878980489,-0.0013806878968053,0.0013806878974568,-0.0013806878966991,0.0013806878978646,-0.0013806878962876,0.0013806878980727,-0.0012481058097094,0.0012481058126171,-0.0012481058102058,0.0012481058109727,-0.0012481058112657,0.0012481058112909,-0.0012481058090942,0.0012481058121771,-6.8419866290638e-12,7.6211039746225e-12,-0.0013168357307911,0.0013168357315477,1.0341828181895e-13,7.8818174511813e-13,-0.0013806878993894,0.0013806878954928,-0.0013806878997053,0.0013806878954476,-0.0013806878949152,0.00138068789964,-0.0013806878941389,0.0013806878995819,-0.0012481058035333,0.0012481058194958,-0.0012481058166654,0.0012481058043178,0.0036784338619195,0.0035134707420484,0.6918650686838,0.36928636975521,1368840,32768,0.0054715860358149,0.0054715860358938,0.0054715860354061,31.627982565848,31.603823127298,0.00016822386052678,0.00016822386052678,0.00016822386052678,782084.60961989,0.016551161550068
14753646,0.99394836809605,0.015980511888697,0.0053268372961976,0.0053268372962386,0.0053268372962609,-0.0013165410076148,0.001316541006826,6.7453174057716e-12,-7.7188911931725e-12,1.4116727567192e-13,-8.5582126701246e-13,-0.0013803680258714,0.0013803680298364,-0.0013803680308156,0.0013803680252771,-0.0013803680259378,0.0013803680307537,-0.0013803680311598,0.0013803680256532,-0.0012478358530676,0.0012478358666353,-0.0012478358672632,0.0012478358512683,-1.0462527435792e-13,8.9994650725195e-13,1.0310319438583e-12,2.3785291022745e-13,-0.001316541006619,0.001316541007433,-0.0013803680271966,0.0013803680281646,-0.0013803680272628,0.0013803680282892,-0.0013803680271968,0.0013803680290295,-0.0013803680261699,0.0013803680281902,-0.0012478358588552,0.0012478358609305,-0.0012478358592388,0.0012478358591766,-0.0012478358594632,0.0012478358591908,-0.0012478358583916,0.0012478358608745,-6.6017499093072e-12,7.8197888167017e-12,-0.0013165410066581,0.0013165410076749,1.0220720116957e-13,8.9087143154811e-13,-0.0013803680301132,0.0013803680259203,-0.001380368029286,0.0013803680263688,-0.0013803680253744,0.0013803680306937,-0.001380368024821,0.0013803680306816,-0.0012478358515522,0.0012478358672798,-0.0012478358659122,0.0012478358537101,0.0036744920301258,0.0035120805291345,0.69216708355662,0.37969147373677,1368840,32768,0.0054703647453007,0.0054703647444945,0.0054703647450772,31.269996193863,31.245863448413,0.0001653599695509,0.0001653599695509,0.0001653599695509,776182.31681157,0.016547437177782
14840046,0.99419017241187,0.015984159459854,0.0053280531532501,0.0053280531532908,0.0053280531533133,-0.0013162279999639,0.0013162279991462,6.7469612967284e-12,-7.5077850540848e-12,2.5597735653806e-13,-8.9179816794283e-13,-0.001380028532582,0.0013800285362278,-0.0013800285369231,0.0013800285309317,-0.001380028532565,0.0013800285355818,-0.0013800285363913,0.0013800285305199,-0.0012475486728102,0.0012475486847492,-0.0012475486871461,0.001247548671609,-3.3895905679819e-14,1.1154400417195e-12,1.2492908056117e-12,3.0470601496981e-13,-0.0013162279990616,0.0013162279999785,-0.0013800285333069,0.0013800285347214,-0.0013800285337084,0.001380028533702,-0.0013800285331681,0.0013800285342112,-0.001380028533745,0.0013800285342006,-0.001247548677581,0.0012475486805016,-0.001247548677736,0.0012475486793081,-0.0012475486780305,0.0012475486778544,-0.001247548677504,0.0012475486796115,-6.4885662493432e-12,7.7397857607401e-12,-0.001316227998892,0.0013162280002177,1.523665511888e-13,1.101160977935e-12,-0.0013800285365579,0.001380028531986,-0.001380028536069,0.0013800285329714,-0.0013800285310165,0.0013800285361786,-0.0013800285300954,0.0013800285370692,-0.0012475486710528,0.0012475486863906,-0.0012475486849404,0.0012475486718363,0.003670523773257,0.0035106628891265,0.69250753022774,0.39009657771848,1368840,32768,0.0054690676922812,0.0054690676921363,0.0054690676922806,30.912009119048,30.88790376953,0.00016249607295238,0.00016249607295238,0.00016249607295238,770376.60812736,0.016543481745034
14926446,0.99441760776975,0.015987592404858,0.0053291974682515,0.0053291974682921,0.0053291974683147,-0.0013158796208517,0.0013158796206543,6.9639166688907e-12,-7.1231896855623e-12,6.0361614817631e-13,-7.6630047239952e-13,-0.0013796526599284,0.0013796526637494,-0.0013796526640201,0.0013796526595159,-0.0013796526599854,0.0013796526642633,-0.0013796526641886,0.0013796526591805,-0.0012472269189693,0.0012472269313706,-0.0012472269318442,0.0012472269180904,3.5223573943994e-13,1.752627281969e-12,1.7532080583443e-12,9.03283846475e-13,-0.0013158796197295,0.0013158796215762,-0.0013796526617196,0.0013796526632614,-0.0013796526611373,0.0013796526616044,-0.001379652660232,0.0013796526629233,-0.0013796526610477,0.0013796526626717,-0.0012472269241742,0.0012472269285884,-0.0012472269250978,0.0012472269260452,-0.0012472269249067,0.0012472269264863,-0.0012472269224555,0.0012472269254635,-6.6200744671516e-12,7.4201851713776e-12,-0.0013158796202155,0.0013158796209995,-4.6983476451751e-14,8.0534875008967e-13,-0.0013796526644864,0.0013796526599983,-0.0013796526630717,0.0013796526592022,-0.0013796526590854,0.0013796526645852,-0.001379652659593,0.001379652664952,-0.0012472269186209,0.0012472269325862,-0.0012472269311635,0.0012472269204887,0.003666457240067,0.003509221918942,0.69288392557428,0.40050168170018,1368840,32768,0.0054676240649596,0.0054676240645446,0.005467624064357,30.544625445103,30.519937948505,0.00015955700356082,0.00015955700356082,0.00015955700356082,764670.77641662,0.016539079310704
15012846,0.9946289461484,0.015990778705467,0.0053302595684545,0.005330259568495,0.0053302595685174,-0.0013150708764225,0.001315070875714,6.7044395957372e-12,-7.3765354166123e-12,3.5207236207807e-13,-1.0130092885557e-12,-0.001378822941357,0.0013788229455373,-0.0013788229459379,0.0013788229410778,-0.0013788229419589,0.0013788229453747,-0.00137882294643,0.0013788229406909,-0.0012464398928273,0.0012464399050388,-0.0012464399061913,0.0012464398916265,2.4509015972268e-14,1.4024649203653e-12,1.4170002704379e-12,5.6678280282149e-13,-0.0013150708754169,0.0013150708767113,-0.0013788229429938,0.0013788229443312,-0.0013788229431953,0.0013788229438307,-0.0013788229423478,0.0013788229447143,-0.0013788229427501,0.0013788229443757,-0.0012464398975829,0.0012464399013298,-0.0012464398985827,0.0012464398998179,-0.0012464398990491,0.0012464398994271,-0.0012464398975654,0.0012464398999062,-6.7179221838533e-12,7.3284379153698e-12,-0.0013150708757794,0.0013150708763451,-1.3010343719401e-13,7.1830326221075e-13,-0.0013788229460247,0.0013788229414637,-0.0013788229453943,0.0013788229413885,-0.0013788229411276,0.0013788229462675,-0.0013788229407237,0.0013788229462366,-0.0012464398920598,0.0012464399064003,-0.0012464399055304,0.0012464398929743,0.0036605254180902,0.0035077470605643,0.69197266985252,0.38946852115472,1368840,32768,0.0054642726657075,0.0054642726656902,0.0054642726656827,29.948901030695,29.909435202861,0.00015479120824556,0.00015479120824556,0.00015479120824556,759266.32306975,0.016528859144351
15099246,0.9948254022962,0.015993723572779,0.0053312411908919,0.0053312411909324,0.0053312411909549,-0.0013140212020046,0.001314021201172,6.7309314923103e-12,-7.6069160845234e-12,2.2254896598773e-13,-9.8995975740894e-13,-0.0013778379115896,0.0013778379153312,-0.0013778379154089,0.0013778379105921,-0.0013778379116554,0.0013778379150879,-0.0013778379165179,0.0013778379103158,-0.0012453319501796,0.0012453319617441,-0.0012453319635199,0.001245331947524,-8.3909760143837e-14,1.1389813813712e-12,8.7370080904001e-13,7.3674508117878e-13,-0.0013140212010779,0.0013140212020526,-0.001377837912619,0.0013778379135425,-0.0013778379129375,0.0013778379137509,-0.0013778379129411,0.0013778379140247,-0.0013778379124217,0.0013778379140426,-0.0012453319540917,0.0012453319570943,-0.001245331955234,0.0012453319573951,-0.0012453319569367,0.0012453319570909,-0.0012453319553103,0.00124533195804,-7.0049285924752e-12,7.3052526236645e-12,-0.0013140212014392,0.0013140212017072,2.4539662094874e-14,1.6150824250464e-13,-0.001377837915053,0.0013778379110684,-0.0013778379153992,0.0013778379104342,-0.0013778379103568,0.0013778379155617,-0.0013778379105176,0.0013778379152297,-0.0012453319501342,0.0012453319646199,-0.0012453319628795,0.0012453319499173,0.0036536559648363,0.0035062411561717,0.68790928811732,0.32915366864924,1368840,32768,0.0054599225872856,0.0054599225871893,0.0054599225872223,29.339693449192,29.298932457183,0.00014991754759353,0.00014991754759353,0.00014991754759353,760059.78774276,0.016515594173298
15185646,0.99500821902354,0.015996430323812,0.0053321434412363,0.0053321434412764,0.0053321434412989,-0.0013124837860915,0.0013124837852831,6.8164591736159e-12,-7.6340395500378e-12,1.9277622846561e-13,-7.7891632228808e-13,-0.0013766038038811,0.0013766038076347,-0.001376603808386,0.0013766038031432,-0.0013766038044134,0.0013766038077058,-0.001376603808748,0.0013766038032747,-0.0012435191547042,0.0012435191673085,-0.0012435191691936,0.0012435191532641,2.2705126962192e-13,1.2100170348102e-12,1.0078121826178e-12,8.9743387812869e-13,-0.0013124837850736,0.0013124837863111,-0.0013766038051244,0.0013766038064454,-0.0013766038054717,0.0013766038065531,-0.0013766038047479,0.0013766038067854,-0.0013766038052416,0.0013766038067066,-0.0012435191589281,0.0012435191615094,-0.0012435191602016,0.0012435191618481,-0.0012435191616538,0.0012435191608484,-0.0012435191601335,0.0012435191623605,-6.9650205175218e-12,7.4483561931252e-12,-0.001312483785399,0.0013124837859235,1.5906831704269e-13,2.6667041222549e-13,-0.0013766038081483,0.0013766038040272,-0.0013766038079398,0.0013766038031454,-0.0013766038034845,0.0013766038083718,-0.0013766038030623,0.0013766038085241,-0.0012435191535296,0.0012435191678471,-0.0012435191672704,0.0012435191533242,0.0036448621809273,0.0035047067737655,0.67942433289014,0.20392311534453,1368840,32768,0.005453550587664,0.0054535505876849,0.0054535505875562,28.729247838161,28.688429711523,0.00014503398270529,0.00014503398270529,0.00014503398270529,776373.91773912,0.016496165553547
15272046,0.99517852933572,0.01599899559797,0.0053329985326224,0.0053329985326625,0.0053329985326849,-0.0013102114194834,0.0013102114188701,6.8430754193314e-12,-7.5864908261481e-12,1.5881967757963e-13,-5.9698723303805e-13,-0.0013750044752918,0.0013750044799115,-0.0013750044801643,0.0013750044752706,-0.0013750044761154,0.0013750044796332,-0.0013750044806652,0.0013750044750235,-0.0012406380206611,0.0012406380339647,-0.0012406380343469,0.0012406380193395,-2.3621337207892e-15,7.6492110277361e-13,7.0711204527122e-13,9.1447165175405e-13,-0.001310211418771,0.0013102114196545,-0.0013750044775373,0.0013750044779608,-0.0013750044771882,0.0013750044784959,-0.0013750044770242,0.0013750044788209,-0.0013750044769792,0.0013750044784809,-0.0012406380278648,0.0012406380287946,-0.001240638026149,0.0012406380274486,-0.0012406380275952,0.0012406380270668,-0.0012406380261161,0.0012406380270578,-7.2813670886453e-12,7.1097023328858e-12,-0.0013102114192625,0.0013102114191029,-9.6899686839905e-15,-2.1403537313098e-13,-0.0013750044799886,0.0013750044755431,-0.0013750044801401,0.0013750044747875,-0.0013750044756033,0.0013750044803692,-0.0013750044750314,0.0013750044796689,-0.0012406380193052,0.0012406380339462,-0.001240638033492,0.0012406380193083,0.0036331300175564,0.0035031632943756,0.69144084990651,0.41522429720851,1368840,32768,0.0054441319315807,0.0054441319317297,0.0054441319316055,28.118677961648,28.077926965865,0.00014014942369318,0.00014014942369318,0.00014014942369318,816891.73329616,0.016467449347322
15358446,0.99533735728184,0.016001412392918,0.0053338041309385,0.0053338041309786,0.005333804131001,-0.0013112727000847,0.0013112726992313,6.8429931277277e-12,-7.7170666606754e-12,1.8589726214272e-13,-8.3622139518685e-13,-0.0013750627100247,0.0013750627141125,-0.0013750627148079,0.001375062709583,-0.0013750627104603,0.0013750627138071,-0.0013750627153526,0.0013750627094616,-0.0012426240455653,0.0012426240587353,-0.0012426240604154,0.0012426240450138,2.7595983432237e-13,1.3074508818024e-12,9.4896453919649e-13,1.1686641510536e-12,-0.0013112726989013,0.0013112727003612,-0.001375062711871,0.001375062712691,-0.0013750627114812,0.0013750627130992,-0.0013750627109185,0.0013750627132687,-0.0013750627111294,0.0013750627134125,-0.0012426240512898,0.0012426240539758,-0.0012426240511523,0.0012426240542441,-0.0012426240521557,0.0012426240538722,-0.0012426240512627,0.0012426240533815,-7.2625284876811e-12,7.2623500813665e-12,-0.0013112726996928,0.0013112726996754,1.0496779330597e-13,-1.1373387844926e-13,-0.0013750627149857,0.0013750627100444,-0.001375062715157,0.0013750627096128,-0.0013750627100135,0.0013750627148695,-0.0013750627100329,0.0013750627149746,-0.0012426240454967,0.0012426240589787,-0.0012426240601163,0.0012426240447454,0.0036349118056337,0.0035016109566457,0.698960709956,0.54880834679847,1368840,32768,0.0054485330215071,0.0054485330213961,0.0054485330216154,27.508095520472,27.4674242202,0.00013526476416377,0.00013526476416377,0.00013526476416377,747567.18377009,0.016480861534104
15444846,0.99548562913518,0.016003686368674,0.0053345621228571,0.0053345621228971,0.0053345621229195,-0.0013113844605888,0.001311384460096,6.9691523912959e-12,-7.5430720349153e-12,3.9109634639272e-13,-6.7399011594695e-13,-0.0013746130837125,0.0013746130883248,-0.0013746130883806,0.0013746130839507,-0.001374613084921,0.0013746130884038,-0.0013746130894417,0.0013746130835972,-0.0012432476931213,0.0012432477053425,-0.0012432477068214,0.0012432476907876,1.9912753443757e-13,1.2772014529606e-12,5.7458747615878e-13,1.2319578939438e-12,-0.0013113844597288,0.0013113844610482,-0.0013746130857628,0.0013746130862923,-0.0013746130856427,0.0013746130871331,-0.001374613084956,0.001374613087217,-0.0013746130850081,0.0013746130872268,-0.0012432476989156,0.0012432477008706,-0.0012432476981258,0.0012432477009268,-0.001243247699513,0.0012432477005402,-0.0012432476983666,0.0012432477003893,-7.295792295024e-12,7.1832698501545e-12,-0.0013113844604074,0.0013113844603088,3.752460953129e-13,-2.7992271325914e-13,-0.0013746130888748,0.0013746130836895,-0.0013746130884011,0.0013746130838837,-0.0013746130839107,0.0013746130887007,-0.0013746130839954,0.0013746130883277,-0.0012432476930682,0.0012432477072943,-0.0012432477062824,0.0012432476922355,0.0036328887125518,0.0035000528363237,0.70382508914138,0.63048563937173,1368840,32768,0.0054489978880245,0.0054489978882155,0.0054489978880898,26.897512015439,26.856921474541,0.00013038009612351,0.00013038009612351,0.00013038009612351,709393.34037069,0.016482274091311
15531246,0.99562418332179,0.016005817632332,0.0053352725440765,0.0053352725441165,0.0053352725441389,-0.0013109993415655,0.0013109993410082,7.045348592966e-12,-7.6147198461239e-12,1.5388041670596e-13,-6.9217308988135e-13,-0.0013739078057464,0.0013739078102707,-0.0013739078105799,0.0013739078054566,-0.001373907806178,0.0013739078100961,-0.001373907810935,0.0013739078053426,-0.0012431510223389,0.0012431510356082,-0.001243151036524,0.001243151021395,2.0469836425254e-13,1.0619767926321e-12,4.8241417434282e-13,1.2472468386417e-12,-0.0013109993407499,0.001310999341843,-0.0013739078077075,0.0013739078084823,-0.0013739078074447,0.0013739078087659,-0.0013739078074092,0.0013739078088303,-0.0013739078071782,0.0013739078090185,-0.0012431510283674,0.0012431510295148,-0.0012431510275032,0.001243151030086,-0.0012431510285052,0.0012431510294158,-0.0012431510276258,0.0012431510300506,-7.3097215165547e-12,7.3200027024715e-12,-0.0013109993412963,0.0013109993413097,4.0643973060404e-13,-3.5474733918288e-13,-0.0013739078106282,0.0013739078058604,-0.001373907810631,0.0013739078053959,-0.0013739078056075,0.0013739078108606,-0.0013739078056551,0.0013739078103518,-0.0012431510216733,0.0012431510357486,-0.0012431510358897,0.0012431510213589,0.0036289075895883,0.0034984901133146,0.70555613957914,0.64840598011348,1368840,32768,0.0054474028775059,0.0054474028775458,0.0054474028775728,26.286929454257,26.24641872888,0.00012549543563405,0.00012549543563405,0.00012549543563405,687034.05852522,0.016477407450539
15617646,0.99575596927478,0.016007850342474,0.0053359501141238,0.0053359501141638,0.0053359501141862,-0.0013106750964404,0.0013106750957876,7.087449777392e-12,-7.766552972432e-12,2.309533562982e-13,-8.7860580625454e-13,-0.0013735095450764,0.001373509549695,-0.0013735095499837,0.0013735095448127,-0.0013735095456007,0.0013735095494404,-0.001373509550418,0.0013735095445619,-0.0012428885086573,0.0012428885218747,-0.0012428885229385,0.0012428885073662,1.2648887114593e-13,1.2471307833636e-12,5.1678018330837e-13,1.3444324285122e-12,-0.0013106750955284,0.0013106750967178,-0.0013735095470497,0.0013735095478237,-0.0013735095468125,0.0013735095481624,-0.0013735095467218,0.0013735095482601,-0.0013735095464439,0.0013735095484878,-0.0012428885147477,0.0012428885161256,-0.0012428885140584,0.0012428885167645,-0.0012428885147822,0.0012428885156946,-0.001242888513591,0.0012428885166179,-7.3835689076264e-12,7.4393718499436e-12,-0.0013106750961242,0.0013106750961522,4.2379608273234e-13,-3.9975631713068e-13,-0.0013735095500421,0.0013735095452602,-0.00137350955005,0.0013735095448039,-0.001373509544983,0.0013735095503287,-0.0013735095450435,0.001373509549777,-0.0012428885080968,0.0012428885224607,-0.0012428885224789,0.0012428885078161,0.0036252973659665,0.0034969367641874,0.70733738782493,0.66632632085523,1368840,32768,0.0054460593227776,0.0054460593228153,0.0054460593228782,25.961980507319,25.939803652584,0.00012289584405855,0.00012289584405855,0.00012289584405855,679921.40963065,0.016473310027961
15704046,0.99588244069545,0.01600981965942,0.0053366065531059,0.0053366065531459,0.0053366065531684,-0.0013106190614072,0.0013106190607414,7.0621489620792e-12,-7.7815480437546e-12,2.1682749371596e-13,-8.6751138047575e-13,-0.0013733844763785,0.0013733844809501,-0.0013733844812942,0.0013733844760772,-0.0013733844770133,0.0013733844807207,-0.0013733844816095,0.0013733844758906,-0.0012428905047979,0.0012428905181587,-0.0012428905185696,0.0012428905031986,9.4968657596229e-14,1.1909572053102e-12,5.3201365911261e-13,1.3340151879282e-12,-0.001310619060489,0.00131061906163,-0.0013733844782917,0.001373384479112,-0.0013733844780848,0.0013733844794784,-0.0013733844780137,0.0013733844796197,-0.0013733844776882,0.0013733844796307,-0.0012428905111732,0.001242890512105,-0.0012428905097963,0.0012428905126268,-0.0012428905112328,0.0012428905112666,-0.0012428905100855,0.0012428905122115,-7.2903030509519e-12,7.5223252863613e-12,-0.0013106190609961,0.0013106190611453,4.5984077570936e-13,-3.3865738954333e-13,-0.0013733844811437,0.0013733844764703,-0.0013733844811239,0.0013733844759981,-0.0013733844760864,0.0013733844816346,-0.0013733844761535,0.0013733844810624,-0.0012428905036468,0.0012428905184735,-0.001242890518038,0.0012428905040634,0.0036228500801771,0.0034954017251884,0.71406718936126,0.77022965201683,1368840,32768,0.005445827228565,0.0054458272285035,0.0054458272285501,25.779795649965,25.767377384296,0.00012143836519972,0.00012143836519972,0.00012143836519972,673003.08246638,0.016472601988261
15790446,0.99600391248328,0.016011731061394,0.0053372436870973,0.0053372436871372,0.0053372436871597,-0.0013111511103578,0.0013111511097339,7.1503374444522e-12,-7.7651930139778e-12,2.1693090232161e-13,-8.0240395769812e-13,-0.0013735624292966,0.0013735624338396,-0.0013735624342159,0.0013735624288592,-0.0013735624296783,0.0013735624334162,-0.0013735624346194,0.0013735624287771,-0.0012437399410824,0.0012437399547779,-0.0012437399553093,0.0012437399400962,2.1434754006508e-13,1.2438060025804e-12,5.8235597413062e-13,1.3317373163391e-12,-0.0013111511094542,0.0013111511106818,-0.0013735624311192,0.0013735624321479,-0.0013735624309872,0.0013735624323792,-0.001373562430848,0.0013735624325356,-0.0013735624305548,0.0013735624327297,-0.0012437399474488,0.0012437399485454,-0.0012437399459824,0.0012437399492645,-0.0012437399472552,0.0012437399482887,-0.0012437399464785,0.0012437399487381,-7.4340541888651e-12,7.4482513139762e-12,-0.0013111511100595,0.0013111511100455,3.6967767718895e-13,-3.7487963591974e-13,-0.0013735624341821,0.0013735624292868,-0.0013735624341163,0.0013735624286507,-0.0013735624290382,0.001373562434344,-0.0013735624290856,0.0013735624339794,-0.0012437399403203,0.0012437399545404,-0.001243739954773,0.0012437399404789,0.0036228051059997,0.0034938864239332,0.72155160204193,0.84655145966011,1368840,32768,0.0054480331609808,0.0054480331610726,0.0054480331610083,25.606459137927,25.594951116009,0.00012005167310341,0.00012005167310341,0.00012005167310341,648267.90137295,0.016479325560297
15876846,0.99612062173947,0.016013575976882,0.0053378586589266,0.0053378586589666,0.005337858658989,-0.001311473647811,0.0013114736472367,7.2967805001291e-12,-7.8794604643621e-12,1.2780833083734e-13,-7.1739955452429e-13,-0.0013736219855361,0.0013736219902306,-0.0013736219905164,0.0013736219852561,-0.0013736219859568,0.0013736219900491,-0.0013736219908977,0.0013736219851026,-0.0012442776386585,0.0012442776525778,-0.0012442776534372,0.0012442776378871,2.0687779767235e-13,1.0630207607396e-12,6.2754191726048e-13,1.1866512780298e-12,-0.0013114736469802,0.0013114736480874,-0.001373621987533,0.0013736219883765,-0.0013736219873573,0.0013736219886008,-0.0013736219872338,0.0013736219887288,-0.0013736219870539,0.0013736219888508,-0.0012442776450026,0.001244277646559,-0.0012442776444226,0.0012442776470748,-0.0012442776453194,0.0012442776460722,-0.0012442776444956,0.0012442776469334,-7.5265881267227e-12,7.6194687304605e-12,-0.0013114736474915,0.0013114736475857,3.2507001051079e-13,-2.3150363360526e-13,-0.0013736219905601,0.0013736219856313,-0.0013736219904932,0.0013736219852466,-0.0013736219853643,0.0013736219908123,-0.0013736219853246,0.0013736219903899,-0.0012442776383019,0.001244277653021,-0.001244277653186,0.0012442776382244,0.003621983709403,0.0034923893877148,0.72462080968811,0.83020674737763,1368840,32768,0.0054493702684068,0.005449370268448,0.0054493702684679,25.43393833687,25.422524847721,0.00011867150669496,0.00011867150669496,0.00011867150669496,629241.21832317,0.016483401550961
15963246,0.99623278777883,0.016015354844382,0.0053384516147597,0.0053384516147997,0.0053384516148222,-0.0013112179007355,0.00131121789999,7.1861117045143e-12,-8.0027791676486e-12,1.1488766673123e-13,-8.5288323912013e-13,-0.0013733917277517,0.0013733917322757,-0.0013733917326611,0.0013733917273392,-0.0013733917279816,0.0013733917320198,-0.0013733917329466,0.0013733917268866,-0.0012439734397823,0.0012439734528103,-0.0012439734539391,0.0012439734379838,1.3351968577113e-13,1.1120299106025e-12,6.7314475941908e-13,1.1964729779836e-12,-0.0013112178997327,0.0013112179008836,-0.001373391726671,0.0013733917273129,-0.0013733917263469,0.0013733917274869,-0.0013733917261777,0.0013733917279339,-0.0013733917260238,0.0013733917279563,-0.0012439734469288,0.0012439734480586,-0.0012439734464311,0.0012439734494951,-0.0012439734486786,0.0012439734492391,-0.0012439734483251,0.00124397345021,-7.5284415995121e-12,7.6288649140018e-12,-0.0013112179002728,0.0013112179003782,2.700454855899e-13,-2.4979969232028e-13,-0.0013733917298053,0.0013733917246321,-0.0013733917296373,0.001373391724665,-0.0013733917244209,0.0013733917298656,-0.0013733917240608,0.0013733917294116,-0.0012439734421694,0.0012439734568262,-0.0012439734567326,0.0012439734419043,0.0036188963301339,0.0034909102998322,0.72678213283942,0.81386203509513,1368840,32768,0.0054483098580577,0.0054483098578267,0.0054483098578989,25.26149720603,25.250098579433,0.00011729197764824,0.00011729197764824,0.00011729197764824,627797.58397138,0.016480169843875
16049646,0.99634061803997,0.01601706839734,0.0053390227990794,0.0053390227991189,0.0053390227991414,-0.0013109486590833,0.0013109486585065,7.299346421742e-12,-7.880617781948e-12,1.9509739284974e-13,-8.3896448785784e-13,-0.0013731544439535,0.0013731544488056,-0.0013731544488837,0.0013731544435666,-0.0013731544445731,0.0013731544483932,-0.0013731544493135,0.0013731544433365,-0.0012436572205998,0.0012436572343616,-0.0012436572351713,0.0012436572193623,1.2033638262964e-13,1.1656720365783e-12,6.8665202325203e-13,1.1860682076069e-12,-0.001310948658166,0.0013109486593307,-0.0013731544431125,0.0013731544440045,-0.0013731544429483,0.0013731544442338,-0.0013731544428351,0.0013731544445311,-0.0013731544425042,0.001373154444512,-0.0012436572278463,0.001243657229422,-0.0012436572270984,0.0012436572300895,-0.0012436572298131,0.001243657230278,-0.0012436572292891,0.0012436572315409,-7.4934266691942e-12,7.6566351538753e-12,-0.0013109486586987,0.0013109486588284,2.9432794965964e-13,-2.0233246594088e-13,-0.0013731544462652,0.0013731544413136,-0.0013731544461348,0.0013731544409741,-0.0013731544409533,0.001373154446493,-0.0013731544408778,0.0013731544461128,-0.0012436572227466,0.0012436572378044,-0.0012436572376495,0.0012436572228996,0.0036157821049042,0.0034894488828311,0.72822834593081,0.79751732281268,1368840,32768,0.0054471936226016,0.0054471936224051,0.0054471936224682,25.089063989295,25.077672311145,0.00011591251191436,0.00011591251191436,0.00011591251191436,627001.70140577,0.016476767578533
16136046,0.99644430925315,0.016018718192281,0.0053395727307268,0.005339572730766,0.0053395727307885,-0.0013106673275589,0.0013106673269751,7.3445463350333e-12,-7.9058935392027e-12,1.7426891149849e-13,-7.6526868039064e-13,-0.001372910431539,0.0013729104363487,-0.0013729104364873,0.0013729104310544,-0.0013729104321218,0.001372910436266,-0.0013729104368317,0.0013729104308714,-0.0012433289689671,0.0012433289828235,-0.0012433289834647,0.0012433289676473,2.3794849554268e-13,1.1874779586576e-12,7.1084784290987e-13,1.2352217942338e-12,-0.0013106673266054,0.0013106673278511,-0.0013729104310356,0.0013729104320551,-0.0013729104307557,0.0013729104319686,-0.0013729104304289,0.0013729104320627,-0.0013729104303394,0.0013729104326261,-0.0012433289762076,0.0012433289776428,-0.0012433289750574,0.0012433289785553,-0.0012433289783872,0.0012433289794241,-0.0012433289776463,0.0012433289803497,-7.568861600003e-12,7.6517216569204e-12,-0.0013106673271868,0.0013106673272538,3.0218400378023e-13,-2.1952682301801e-13,-0.0013729104342133,0.0013729104289694,-0.0013729104338816,0.001372910428559,-0.0013729104285034,0.00137291043423,-0.0013729104286669,0.0013729104337406,-0.0012433289712945,0.0012433289867209,-0.0012433289863114,0.0012433289715964,0.0036126487127406,0.0034880050886155,0.72910706025203,0.78117261053023,1368840,32768,0.0054460273583054,0.0054460273581412,0.0054460273581083,24.91663157321,24.905246042857,0.00011453305258568,0.00011453305258568,0.00011453305258568,626720.06148081,0.016473212513304
16222446,0.9965440480679,0.016020306045019,0.0053401020149729,0.0053401020150118,0.0053401020150342,-0.0013103750541728,0.0013103750533264,7.2461812223729e-12,-8.0593082642529e-12,1.6332795161966e-14,-8.7907032147568e-13,-0.0013726598438813,0.0013726598484336,-0.0013726598487771,0.0013726598432523,-0.0013726598444408,0.0013726598484732,-0.0013726598496991,0.0013726598429463,-0.0012429892188629,0.0012429892317407,-0.0012429892326354,0.0012429892171322,1.6842367830165e-13,1.0740087780044e-12,6.9676727306162e-13,1.206723694243e-12,-0.0013103750532667,0.0013103750543568,-0.0013726598429536,0.0013726598434438,-0.0013726598427213,0.0013726598435102,-0.0013726598421395,0.0013726598438509,-0.0013726598421341,0.0013726598436571,-0.0012429892252421,0.0012429892266509,-0.0012429892242058,0.0012429892272624,-0.0012429892258254,0.0012429892270607,-0.0012429892251479,0.0012429892273264,-7.6384351216385e-12,7.6361111926329e-12,-0.0013103750537832,0.001310375053764,2.8137022786209e-13,-2.2698168351243e-13,-0.0013726598455563,0.0013726598402541,-0.0013726598454862,0.001372659839988,-0.001372659840429,0.0013726598456825,-0.0013726598404299,0.0013726598453687,-0.0012429892191807,0.0012429892335583,-0.0012429892334139,0.0012429892191941,0.0036095020543565,0.0034865789259044,0.72953320935017,0.76482789824776,1368840,32768,0.0054448158046574,0.0054448158049107,0.0054448158047529,24.744199245751,24.732819774569,0.000113153593966,0.000113153593966,0.000113153593966,626853.34318034,0.016469519161923
16308846,0.99664001162547,0.016021833936301,0.0053406113120669,0.0053406113121056,0.005340611312128,-0.0013100728004737,0.001310072799727,7.2620909716351e-12,-8.0331132997852e-12,6.4221273378299e-14,-8.5419378731908e-13,-0.0013724041619103,0.0013724041666199,-0.0013724041668689,0.0013724041615872,-0.0013724041622753,0.0013724041663377,-0.0013724041673928,0.0013724041614493,-0.0012426379946916,0.0012426380082122,-0.0012426380095292,0.0012426379933941,1.850631699766e-13,1.1153568677898e-12,6.4454830949158e-13,1.2239368742745e-12,-0.0013100727995246,0.0013100728006568,-0.0013724041633599,0.001372404164041,-0.0013724041631381,0.0013724041644518,-0.0013724041626778,0.0013724041644229,-0.001372404162815,0.001372404164603,-0.0012426380009438,0.0012426380027162,-0.0012426380003973,0.0012426380032635,-0.0012426380018319,0.0012426380022673,-0.0012426380007721,0.0012426380032432,-7.5880783070634e-12,7.677850917513e-12,-0.0013100728000591,0.0013100728001382,3.1502928783621e-13,-2.6236277911484e-13,-0.0013724041663516,0.0013724041614772,-0.0013724041663732,0.001372404160986,-0.0013724041610173,0.0013724041664811,-0.001372404161029,0.0013724041662433,-0.0012426379944235,0.0012426380093172,-0.0012426380091426,0.0012426379941595,0.0036063470293272,0.0034851704385296,0.72959782432044,0.74848318596529,1368840,32768,0.0054435629345203,0.0054435629344789,0.0054435629345119,24.571766929036,24.560393506281,0.00011177413543229,0.00011177413543229,0.00011177413543229,627348.65151853,0.016465699689778
16395246,0.99673260300468,0.016023311208099,0.0053411037359998,0.0053411037360385,0.0053411037360609,-0.0013098446906129,0.0013098446900237,7.3536685269448e-12,-7.9723695672292e-12,1.2185051284459e-13,-7.2944153959108e-13,-0.0013722250372868,0.001372225042004,-0.0013722250422969,0.0013722250369858,-0.0013722250376836,0.0013722250418669,-0.001372225042679,0.0013722250368421,-0.0012423602893516,0.0012423603032791,-0.0012423603042222,0.0012423602884843,2.0274262988124e-13,1.0649017620998e-12,6.2088444417113e-13,1.1733205382159e-12,-0.0013098446897764,0.0013098446908747,-0.0013722250393359,0.0013722250401355,-0.0013722250391256,0.0013722250403837,-0.0013722250389719,0.0013722250404808,-0.0013722250388308,0.0013722250406034,-0.0012423602954801,0.0012423602971589,-0.001242360294964,0.0012423602975478,-0.0012423602958355,0.0012423602965427,-0.0012423602950346,0.0012423602975873,-7.6161209797908e-12,7.6795731590173e-12,-0.0013098446902916,0.0013098446903701,3.1179244554305e-13,-2.3789582068127e-13,-0.0013722250423419,0.0013722250373741,-0.0013722250422866,0.0013722250369539,-0.0013722250370569,0.001372225042579,-0.0013722250370673,0.0013722250421463,-0.001242360288724,0.0012423603035526,-0.001242360303643,0.0012423602885773,0.0036035333655062,0.0034837815581344,0.73113247278673,0.75995667458171,1368840,32768,0.0054426173603419,0.0054426173603721,0.005442617360394,24.442150059018,24.433509521957,0.00011073720047214,0.00011073720047214,0.00011073720047214,628102.54428677,0.016462817144417
16481646,0.99682206277693,0.016024729241831,0.0053415764139103,0.005341576413949,0.0053415764139714,-0.0013098239869941,0.0013098239863774,7.4364938790401e-12,-8.0932131696578e-12,6.338229900839e-14,-7.4768127649729e-13,-0.0013721673103998,0.0013721673154564,-0.0013721673156985,0.0013721673100597,-0.0013721673107753,0.0013721673149357,-0.0013721673158274,0.0013721673099832,-0.0012423681153415,0.0012423681293395,-0.0012423681308533,0.0012423681147357,1.8793117059644e-13,1.0103760160592e-12,5.6170519323309e-13,1.1472771573527e-12,-0.0013098239861885,0.0013098239872479,-0.0013721673126078,0.0013721673133493,-0.0013721673123062,0.0013721673137983,-0.0013721673119515,0.0013721673139136,-0.001372167312066,0.0013721673136956,-0.0012423681218034,0.0012423681235355,-0.0012423681212959,0.0012423681237232,-0.0012423681219229,0.0012423681228598,-0.0012423681214947,0.0012423681237839,-7.7000245342418e-12,7.7994055276325e-12,-0.0013098239866394,0.0013098239867758,3.7519586155339e-13,-2.0730113768078e-13,-0.0013721673156175,0.0013721673107028,-0.0013721673154611,0.0013721673102898,-0.0013721673103138,0.0013721673158482,-0.0013721673102576,0.001372167315438,-0.0012423681152365,0.0012423681299945,-0.0012423681302415,0.0012423681147161,0.0036015909440584,0.0034824106166258,0.72636544929437,0.67066945818168,1368840,32768,0.0054425316046749,0.0054425316048092,0.0054425316047655,24.332055201112,24.324750207824,0.00010985644160889,0.00010985644160889,0.00010985644160889,623582.89317491,0.016462555564151
16568046,0.99690851814716,0.016026122325558,0.0053420407751527,0.0053420407751914,0.0053420407752139,-0.0013091465565651,0.0013091465559591,7.4941300594708e-12,-8.0863740844695e-12,1.2250419875729e-13,-7.3406051613158e-13,-0.0013717802449527,0.0013717802497561,-0.0013717802500769,0.0013717802446061,-0.001371780245392,0.0013717802495646,-0.0013717802504549,0.0013717802444586,-0.0012414255184731,0.0012414255328854,-0.0012414255336075,0.0012414255176939,2.1379311582589e-13,1.0816862493452e-12,6.1688156645629e-13,1.2131672621023e-12,-0.0013091465557079,0.0013091465568309,-0.0013717802469748,0.0013717802478311,-0.0013717802467784,0.0013717802480464,-0.0013717802466223,0.0013717802481868,-0.0013717802465104,0.0013717802482977,-0.0012414255248671,0.0012414255265095,-0.0012414255243602,0.0012414255271047,-0.0012414255252666,0.001241425526209,-0.0012414255244465,0.0012414255268479,-7.7337670916652e-12,7.8159934032372e-12,-0.0013091465562405,0.0013091465563094,3.2417139090417e-13,-2.6937365317274e-13,-0.0013717802500758,0.0013717802449799,-0.0013717802499934,0.0013717802445996,-0.0013717802447004,0.0013717802503296,-0.0013717802447227,0.0013717802498737,-0.0012414255180971,0.0012414255332423,-0.0012414255334828,0.0012414255181576,0.0035970478467699,0.0034810632134247,0.73840657462988,0.89246877624728,1368840,32768,0.005439723242078,0.0054397232421081,0.0054397232421313,24.223166947948,24.215990893691,0.00010898533558358,0.00010898533558358,0.00010898533558358,639447.33467334,0.016453995010108
16654446,0.9969920848936,0.016027479533869,0.005342493177923,0.0053424931779617,0.0053424931779841,-0.0013104085002093,0.0013104084996459,7.5427343981711e-12,-8.1002417196463e-12,1.0524866707841e-13,-7.0530110059434e-13,-0.0013723672502634,0.0013723672551385,-0.0013723672553914,0.001372367249987,-0.0013723672506852,0.0013723672549554,-0.0013723672557774,0.0013723672498412,-0.0012433017157921,0.001243301730211,-0.0012433017310486,0.001243301715143,2.3314096593882e-13,1.0545390198509e-12,6.6381169159671e-13,1.1525573783985e-12,-0.0013104084993834,0.0013104085004919,-0.0013723672523366,0.0013723672531794,-0.0013723672521534,0.0013723672533956,-0.0013723672520314,0.0013723672535161,-0.0013723672518592,0.001372367253623,-0.0012433017222539,0.0012433017240052,-0.0012433017218201,0.0012433017243346,-0.0012433017226188,0.0012433017234014,-0.0012433017220548,0.0012433017243572,-7.7502495881362e-12,7.8626020970207e-12,-0.0013104084998822,0.0013104084999982,3.0306147697403e-13,-1.8337816262889e-13,-0.0013723672554143,0.0013723672503527,-0.0013723672553433,0.0013723672499724,-0.0013723672500507,0.001372367255696,-0.001372367250012,0.0013723672552853,-0.001243301715403,0.0012433017305306,-0.0012433017307564,0.0012433017153566,0.003600289209495,0.0034797375198356,0.74443446660168,0.93391408296577,1368840,32768,0.0054449552978337,0.0054449552978753,0.0054449552978861,24.114391409814,24.107231579558,0.00010811513127851,0.00010811513127851,0.00010811513127851,596079.6648028,0.01646994194618
16740846,0.99707287340297,0.016028798288786,0.0053429327628952,0.005342932762934,0.0053429327629564,-0.0013105635074991,0.0013105635069432,7.5394863797487e-12,-8.1041787758425e-12,1.5648216075387e-13,-7.001092003798e-13,-0.0013723857979122,0.0013723858027305,-0.0013723858030285,0.0013723857976121,-0.0013723857983093,0.0013723858025384,-0.0013723858034011,0.0013723857974527,-0.0012435632872405,0.0012435633015575,-0.001243563302348,0.0012435632863524,1.9891907021777e-13,1.0664477736937e-12,6.7073630358398e-13,1.1188065565218e-12,-0.00131056350668,0.001310563507781,-0.0013723857999409,0.0013723858008199,-0.001372385799797,0.0013723858009847,-0.0013723857996248,0.0013723858011526,-0.0013723857995041,0.0013723858012285,-0.0012435632935428,0.0012435632952243,-0.0012435632930982,0.0012435632956122,-0.0012435632941422,0.0012435632946263,-0.0012435632930533,0.0012435632954099,-7.7402256002445e-12,7.8733115051497e-12,-0.0013105635071646,0.0013105635073045,3.0329796974933e-13,-1.4256296832859e-13,-0.0013723858030388,0.001372385797987,-0.0013723858029532,0.0013723857976586,-0.001372385797707,0.0013723858032941,-0.0013723857976314,0.0013723858029343,-0.001243563286538,0.0012435633018439,-0.0012435633018082,0.0012435632865999,0.0035991794816923,0.0034784329365056,0.74776424176887,0.91873799117099,1368840,32768,0.0054455977633279,0.0054455977633666,0.0054455977633833,24.005627850531,23.998472265424,0.00010724502280425,0.00010724502280425,0.00010724502280425,585348.74501021,0.016471900855106
16827246,0.99715098926731,0.016030077998214,0.0053433593327048,0.0053433593327435,0.0053433593327659,-0.0013104034116492,0.0013104034110709,7.5301623116515e-12,-8.0985754176095e-12,1.3319946025969e-13,-7.371939498191e-13,-0.0013722426692368,0.0013722426740931,-0.0013722426743731,0.001372242668969,-0.001372242669686,0.0013722426738986,-0.0013722426747696,0.0013722426688305,-0.0012433702069207,0.00124337022134,-0.0012433702221482,0.0012433702061341,1.9788907227174e-13,1.079165032249e-12,7.8726359669634e-13,1.0547153968157e-12,-0.0013104034107983,0.0013104034119171,-0.001372242670794,0.0013722426717116,-0.001372242670702,0.0013722426718567,-0.0013722426704891,0.0013722426720789,-0.0013722426704028,0.0013722426721015,-0.0012433702135213,0.0012433702155634,-0.0012433702131811,0.0012433702156419,-0.0012433702146437,0.0012433702152634,-0.0012433702138649,0.0012433702162647,-7.6929272216481e-12,7.9056781046076e-12,-0.0013104034112625,0.0013104034114654,2.4429983092551e-13,-2.1804804466426e-14,-0.001372242673927,0.0013722426688706,-0.0013722426737728,0.0013722426685679,-0.0013722426685803,0.0013722426741889,-0.001372242668463,0.0013722426738649,-0.0012433702071668,0.0012433702226072,-0.0012433702225712,0.0012433702073473,0.0035968491393609,0.0034771488091794,0.75033330775467,0.90356189937622,1368840,32768,0.0054449338123665,0.0054449338123559,0.0054449338123818,23.896865569486,23.889712951291,0.00010637492455589,0.00010637492455589,0.00010637492455589,583950.17910794,0.016469877873094
16913646,0.99722653364139,0.016031318798241,0.0053437729327136,0.0053437729327523,0.0053437729327747,-0.0013102325430271,0.0013102325424663,7.5270927583654e-12,-8.0735471233832e-12,1.3861153021878e-13,-7.2825098772633e-13,-0.0013720953853007,0.001372095390107,-0.0013720953904304,0.0013720953850061,-0.0013720953856852,0.0013720953897985,-0.0013720953906989,0.0013720953847581,-0.0012431641406259,0.0012431641552236,-0.0012431641558517,0.0012431641400139,2.4848496777833e-13,1.1264389998265e-12,8.2920575656862e-13,1.0302794962568e-12,-0.0013102325421401,0.0013102325433165,-0.0013720953860676,0.0013720953871013,-0.0013720953859658,0.001372095387138,-0.0013720953858061,0.0013720953873868,-0.0013720953856968,0.0013720953874068,-0.0012431641473275,0.0012431641495646,-0.0012431641473389,0.0012431641496617,-0.0012431641488705,0.0012431641495822,-0.0012431641480895,0.0012431641504319,-7.6900365452504e-12,7.8809460366259e-12,-0.0013102325426357,0.0013102325428316,2.0924490182953e-13,8.8217305021886e-15,-0.0013720953893229,0.0013720953841716,-0.0013720953891045,0.0013720953838426,-0.0013720953839365,0.0013720953895226,-0.0013720953837662,0.001372095389296,-0.001243164141411,0.0012431641567803,-0.0012431641568131,0.0012431641416354,0.0035944987922479,0.0034758847002539,0.75226407538989,0.88838580758147,1368840,32768,0.0054442252962823,0.0054442252962043,0.0054442252962267,23.78810356798,23.780953637158,0.00010550482854384,0.00010550482854384,0.00010550482854384,583066.8963962,0.016467718733554
17000046,0.99729960344471,0.016032515878986,0.0053441719596288,0.0053441719596674,0.0053441719596898,-0.0013100511029114,0.0013100511023564,7.5285974182814e-12,-8.1076188472213e-12,7.3672396417684e-14,-6.5801948619167e-13,-0.0013719434116004,0.0013719434164963,-0.0013719434167799,0.0013719434114164,-0.0013719434119877,0.00137194341639,-0.0013719434170988,0.0013719434111999,-0.0012429451173835,0.0012429451317249,-0.0012429451326945,0.0012429451166287,2.2667339881267e-13,9.6935356338462e-13,8.518046544231e-13,8.8583290900092e-13,-0.0013100511021207,0.0013100511031412,-0.001371943412881,0.0013719434137977,-0.0013719434128712,0.0013719434138925,-0.0013719434126524,0.0013719434141069,-0.0013719434125016,0.0013719434141019,-0.0012429451237132,0.0012429451258149,-0.0012429451235893,0.0012429451256235,-0.0012429451247407,0.0012429451252948,-0.0012429451240682,0.0012429451260504,-7.6826120073591e-12,7.923333447602e-12,-0.0013100511025024,0.001310051102775,1.6976519614273e-13,1.3591952422242e-13,-0.0013719434160628,0.0013719434109466,-0.001371943415802,0.0013719434107067,-0.0013719434106255,0.0013719434163086,-0.0013719434104583,0.0013719434160473,-0.0012429451172794,0.0012429451327727,-0.0012429451324663,0.0012429451173503,0.0035921305756876,0.0034746392805951,0.75030640509126,0.82444147835277,1368840,32768,0.005443473030076,0.0054434730300628,0.0054434730300952,23.679343214655,23.672194323025,0.00010463474571724,0.00010463474571724,0.00010463474571724,582632.45781399,0.016465425984144
17086446,0.99737029153252,0.016033672298347,0.0053445574327493,0.0053445574327878,0.0053445574328102,-0.001309576820949,0.001309576820289,7.4521773410976e-12,-8.1296273513472e-12,6.8746723364203e-14,-7.1846705132476e-13,-0.0013716441989123,0.001371644203572,-0.0013716442040247,0.0013716441984653,-0.0013716441992169,0.0013716442035129,-0.0013716442043371,0.0013716441983807,-0.0012423045197795,0.0012423045342906,-0.0012423045353152,0.001242304519127,2.2457687462475e-13,1.0229692195808e-12,8.4363281583186e-13,8.8591093602902e-13,-0.0013095768200836,0.0013095768211697,-0.0013716442005437,0.0013716442016846,-0.0013716442007414,0.001371644201823,-0.001371644200432,0.001371644201935,-0.0013716442002209,0.0013716442019288,-0.001242304526301,0.0012423045284781,-0.0012423045265221,0.0012423045287844,-0.0012423045271781,0.0012423045275392,-0.0012423045268364,0.0012423045284312,-7.6283428417154e-12,7.9233434472965e-12,-0.0013095768204716,0.001309576820758,1.5692620601212e-13,1.1428515572576e-13,-0.0013716442038643,0.0013716441988373,-0.0013716442036535,0.0013716441985313,-0.0013716441983726,0.0013716442040963,-0.0013716441983491,0.0013716442037568,-0.0012423045196814,0.0012423045352691,-0.001242304535322,0.0012423045200894,0.0035886119202003,0.0034734126301316,0.74922810907485,0.79278512639966,1368840,32768,0.0054415067929419,0.0054415067929737,0.0054415067929244,23.57058221389,23.563435008892,0.00010376465771112,0.00010376465771112,0.00010376465771112,591255.46797383,0.016459432612121
17172846,0.99743776181253,0.016034772492008,0.0053449241639695,0.005344924164008,0.0053449241640304,-0.0013088267743322,0.0013088267738875,7.4896074329281e-12,-7.9058160121593e-12,8.4013668734207e-14,-5.6483533290359e-13,-0.0013709974501244,0.001370997454944,-0.0013709974553697,0.0013709974501618,-0.0013709974504864,0.0013709974547635,-0.0013709974555261,0.0013709974497513,-0.0012414574649729,0.0012414574795171,-0.0012414574791495,0.0012414574643385,2.8446619210604e-13,9.4361687903442e-13,6.9457845757549e-13,9.3712901841058e-13,-0.0013088267736291,0.0013088267745938,-0.0013709974522698,0.0013709974531604,-0.0013709974524805,0.0013709974529956,-0.0013709974522927,0.0013709974535363,-0.0013709974518574,0.0013709974535946,-0.001241457471463,0.0012414574737739,-0.0012414574722024,0.001241457473693,-0.0012414574713386,0.0012414574722825,-0.001241457470774,0.0012414574733687,-7.6559602921389e-12,7.7081995786175e-12,-0.0013088267741143,0.0013088267741445,1.3452739028057e-13,-1.0759447776844e-13,-0.0013709974553672,0.0013709974504735,-0.0013709974555027,0.001370997450289,-0.0013709974501931,0.001370997455737,-0.0013709974500884,0.0013709974553108,-0.0012414574637292,0.0012414574795036,-0.0012414574796651,0.001241457464804,0.0035839398290586,0.0034721993026539,0.74685856838352,0.74978571143837,1368840,32768,0.0054383981529582,0.005438398152965,0.0054383981530394,23.234317031916,23.212740907757,0.00010107453625533,0.00010107453625533,0.00010107453625533,595281.95794679,0.016449954547274
17259246,0.99750182689385,0.016035811912087,0.0053452706373291,0.0053452706373676,0.00534527063739,-0.0013078107063454,0.0013078107055898,7.3053047103086e-12,-8.1374318188084e-12,-3.1787970075805e-14,-7.5739986195412e-13,-0.0013701216626214,0.0013701216673938,-0.0013701216677533,0.0013701216624991,-0.0013701216633267,0.0013701216677601,-0.0013701216683009,0.001370121662482,-0.0012403115035276,0.0012403115189716,-0.001240311519034,0.0012403115028068,2.2107136406864e-13,9.59439042737e-13,6.8330712543636e-13,9.6290470156939e-13,-0.0013078107054436,0.0013078107064752,-0.0013701216648537,0.0013701216657933,-0.0013701216646162,0.0013701216657562,-0.0013701216645858,0.0013701216662127,-0.001370121664593,0.0013701216663979,-0.0012403115105481,0.0012403115122276,-0.0012403115100939,0.0012403115128597,-0.0012403115104749,0.0012403115116484,-0.001240311510067,0.0012403115121916,-7.5834529189541e-12,7.8272507652149e-12,-0.0013078107059087,0.0013078107061819,2.372714574022e-13,-4.0675375042272e-14,-0.0013701216681237,0.001370121662782,-0.0013701216680113,0.0013701216626532,-0.0013701216625879,0.0013701216683405,-0.0013701216627665,0.0013701216683432,-0.0012403115030866,0.0012403115191207,-0.0012403115192355,0.0012403115039068,0.0035781938456072,0.0034709973926837,0.74312084064801,0.69310127163447,1368840,32768,0.0054341870233733,0.0054341870233393,0.0054341870236953,22.803696441972,22.775691762363,9.7629571535776e-05,9.7629571535776e-05,9.7629571535776e-05,601834.99213889,0.016437114862482
17345646,0.99756267203631,0.016036793491992,0.005345597830631,0.0053455978306695,0.005345597830692,-0.0013066778191952,0.0013066778181598,7.1214008578568e-12,-8.3493977551592e-12,-7.8648185587211e-14,-9.7574630926709e-13,-0.0013691799828351,0.0013691799869316,-0.0013691799877333,0.001369179981708,-0.0013691799832882,0.0013691799866146,-0.0013691799875059,0.001369179982092,-0.00123900349808,0.0012390035133185,-0.0012390035126588,0.0012390034959792,3.0720832087903e-13,1.2174492195267e-12,9.3691843660842e-13,1.0805877829026e-12,-0.0013066778180568,0.0013066778193553,-0.0013691799843329,0.0013691799846932,-0.0013691799840843,0.0013691799855211,-0.0013691799837367,0.001369179986103,-0.0013691799830394,0.0013691799860733,-0.0012390035020681,0.0012390035071234,-0.0012390035038449,0.0012390035056001,-0.0012390035051343,0.0012390035053644,-0.0012390035035635,0.0012390035062849,-7.8461201887669e-12,7.5911686538319e-12,-0.001306677818811,0.0013066778185184,5.0772801866931e-14,-8.6113486939143e-14,-0.0013691799875392,0.0013691799824628,-0.0013691799874435,0.0013691799829631,-0.0013691799818717,0.0013691799864376,-0.0013691799822674,0.0013691799864248,-0.0012390034962,0.0012390035130721,-0.0012390035130072,0.0012390034976314,0.0035719999825039,0.0034698072564474,0.73895291517918,0.63570583428689,1368840,32768,0.005429491659686,0.0054294916598039,0.0054294916596326,22.367203482662,22.338642616969,9.4137627861292e-05,9.4137627861292e-05,9.4137627861292e-05,611631.58945052,0.016422799054063
17432046,0.99762048996535,0.016037720543163,0.0053459068476878,0.0053459068477262,0.0053459068477487,-0.0013055145678025,0.0013055145667499,7.2067883081523e-12,-8.3863236859209e-12,-1.2670165876306e-13,-9.6170909103565e-13,-0.0013682213835928,0.0013682213880167,-0.0013682213897434,0.0013682213829333,-0.0013682213848417,0.0013682213881879,-0.0013682213890859,0.0013682213832408,-0.0012376537416159,0.0012376537561398,-0.0012376537572498,0.0012376537407183,2.36057700364e-13,1.0846363945144e-12,1.0123465735071e-12,1.0894825699965e-12,-0.0013055145665872,0.0013055145678312,-0.0013682213860024,0.0013682213871975,-0.0013682213853645,0.0013682213868266,-0.0013682213855153,0.0013682213867302,-0.0013682213855473,0.0013682213869019,-0.0012376537489748,0.0012376537508866,-0.0012376537477815,0.0012376537503525,-0.0012376537480847,0.0012376537491717,-0.0012376537475071,0.0012376537510887,-7.8063579328883e-12,7.7575186601887e-12,-0.0013055145673341,0.0013055145671845,6.3353741057287e-14,-9.6785866787618e-15,-0.0013682213895237,0.0013682213833728,-0.0013682213891091,0.0013682213831567,-0.0013682213838214,0.001368221389052,-0.0013682213833353,0.0013682213883501,-0.0012376537421746,0.0012376537572791,-0.0012376537580386,0.001237653742021,0.0035657084523116,0.0034686293703245,0.73452443288718,0.5783103969393,1368840,32768,0.0054246704431581,0.00542467044288,0.005424670443088,21.930173578426,21.901593471575,9.0641388627406e-05,9.0641388627406e-05,9.0641388627406e-05,622353.39915719,0.016408099658841
17518446,0.9976754614737,0.016038600939461,0.0053462003131205,0.005346200313159,0.0053462003131814,-0.0013043265926377,0.001304326592062,7.5516591843485e-12,-8.0562927093172e-12,2.1180882350348e-13,-8.1829523693633e-13,-0.0013672481622664,0.001367248167437,-0.0013672481676595,0.0013672481620071,-0.0013672481630125,0.0013672481671048,-0.001367248168086,0.0013672481617548,-0.0012362706691789,0.0012362706836368,-0.0012362706845328,0.0012362706690656,1.5031776083676e-14,1.0599172673139e-12,8.5167965824164e-13,9.2622470447106e-13,-0.0013043265917935,0.0013043265929157,-0.0013672481645588,0.001367248165342,-0.0013672481642295,0.0013672481656903,-0.0013672481637514,0.0013672481656711,-0.0013672481635251,0.0013672481659605,-0.0012362706760386,0.0012362706779802,-0.001236270676359,0.0012362706780492,-0.0012362706766155,0.0012362706766822,-0.0012362706747435,0.0012362706778462,-7.6670311892247e-12,7.9114830155069e-12,-0.0013043265922031,0.0013043265924965,1.9228483171273e-13,1.1936723576583e-13,-0.0013672481676804,0.0013672481625798,-0.001367248167525,0.0013672481622846,-0.001367248162071,0.0013672481678042,-0.0013672481619039,0.0013672481672897,-0.0012362706690806,0.0012362706842726,-0.0012362706843285,0.0012362706695296,0.0035593425761941,0.0034674650410734,0.73379280126412,0.58037021623994,1368840,32768,0.0054197467425237,0.0054197467425435,0.0054197467425238,21.493090540551,21.464544326181,8.714472432441e-05,8.714472432441e-05,8.714472432441e-05,633832.86732718,0.016393087960759
17604846,0.99772775477751,0.016039430519923,0.0053464768399413,0.0053464768399798,0.0053464768400023,-0.0013035435228631,0.001303543522269,7.3872747944141e-12,-7.7394490357327e-12,3.0878550799116e-13,-8.6762937687104e-13,-0.001366479743865,0.0013664797483972,-0.0013664797485132,0.0013664797435362,-0.0013664797437069,0.0013664797478677,-0.0013664797486817,0.001366479742758,-0.0012354753275848,0.001235475340646,-0.0012354753407084,0.0012354753261818,4.8120765237771e-14,1.2411807886612e-12,1.0609758820327e-12,8.0788220210622e-13,-0.0013035435219637,0.0013035435231598,-0.0013664797447926,0.0013664797465435,-0.0013664797455695,0.0013664797464761,-0.001366479745408,0.0013664797470276,-0.0013664797446899,0.0013664797469629,-0.0012354753331342,0.0012354753355159,-0.0012354753328036,0.0012354753352143,-0.0012354753346792,0.0012354753344549,-0.0012354753329168,0.0012354753344949,-7.034560687235e-12,8.0640307964533e-12,-0.001303543522142,0.0013035435231764,4.2042753858023e-13,6.7182991723366e-13,-0.0013664797482233,0.0013664797434445,-0.0013664797478693,0.0013664797442855,-0.0013664797426733,0.0013664797490014,-0.0013664797428462,0.0013664797495197,-0.0012354753263917,0.0012354753419899,-0.0012354753411855,0.0012354753286876,0.0035546314974801,0.0034663133594614,0.7269367628427,0.48776633663361,1368840,32768,0.0054165016865032,0.0054165016864853,0.0054165016868892,21.056002761757,21.027495180787,8.3648022094058e-05,8.3648022094058e-05,8.3648022094058e-05,632739.44602449,0.016383192947783
17691246,0.99777752637346,0.016040216524138,0.0053467388413461,0.0053467388413846,0.0053467388414071,-0.001302065483765,0.0013020654832645,7.2037738708296e-12,-7.6995189026297e-12,4.1250998633837e-13,-8.5301264693152e-13,-0.001365353587779,0.0013653535929397,-0.0013653535926602,0.0013653535876796,-0.0013653535879654,0.0013653535921262,-0.00136535359278,0.0013653535873773,-0.0012336773693043,0.0012336773831713,-0.0012336773838959,0.0012336773680373,-6.5722403990377e-15,1.2682977249633e-12,1.0978564906496e-12,9.3267388980582e-13,-0.0013020654829886,0.0013020654841317,-0.0013653535896571,0.0013653535909022,-0.0013653535895804,0.0013653535908459,-0.0013653535893603,0.0013653535914556,-0.0013653535896304,0.0013653535912073,-0.0012336773748828,0.001233677378361,-0.0012336773748663,0.0012336773775198,-0.0012336773764201,0.0012336773761134,-0.0012336773742715,0.0012336773779202,-7.3503989797684e-12,7.5215257813739e-12,-0.0013020654834525,0.0013020654836664,1.3089394245638e-14,1.7959466056522e-13,-0.0013653535926965,0.0013653535880934,-0.0013653535924638,0.0013653535878859,-0.0013653535877008,0.001365353593126,-0.0013653535878513,0.0013653535931347,-0.0012336773685799,0.0012336773840582,-0.0012336773834839,0.0012336773694902,0.0035471530065221,0.003465175512578,0.72362564686208,0.45212512638212,1368840,32768,0.0054103754237827,0.0054103754239709,0.0054103754239681,20.618913977428,20.590446035393,8.0151311819421e-05,8.0151311819421e-05,8.0151311819421e-05,653120.87539749,0.016364516128711
17777646,0.99782496050203,0.016040961972969,0.00534698732429,0.0053469873243284,0.0053469873243509,-0.0013010077098532,0.001301007709204,7.0673405681851e-12,-7.8467069943699e-12,3.3308411862646e-13,-1.0708239341227e-12,-0.0013644588457629,0.0013644588502536,-0.0013644588503878,0.0013644588455296,-0.0013644588461891,0.0013644588500073,-0.0013644588513844,0.0013644588449073,-0.0012324734208001,0.001232473433975,-0.0012324734353927,0.0012324734185048,5.4115376224167e-14,1.4652977655708e-12,1.2428122094107e-12,7.7058842964066e-13,-0.0013010077088299,0.0013010077102026,-0.0013644588474494,0.0013644588486299,-0.0013644588472494,0.0013644588483388,-0.0013644588466032,0.0013644588497078,-0.0013644588469411,0.0013644588488581,-0.0012324734256131,0.0012324734288229,-0.0012324734264742,0.0012324734278101,-0.0012324734264188,0.0012324734265951,-0.0012324734251936,0.001232473428516,-7.0924049789551e-12,7.7923293908624e-12,-0.00130100770922,0.0013010077098683,1.0167518801045e-13,5.7230416355947e-13,-0.0013644588506291,0.0013644588458464,-0.0013644588501195,0.0013644588459407,-0.001364458845251,0.0013644588509962,-0.0013644588449261,0.0013644588506262,-0.0012324734191742,0.0012324734353161,-0.0012324734335094,0.0012324734195497,0.003541393706574,0.003464051931854,0.72030946822155,0.41648391613061,1368840,32768,0.0054059914593602,0.0054059914593089,0.0054059914594247,20.195062629267,20.167465704456,7.6760501034136e-05,7.6760501034136e-05,7.6760501034136e-05,661295.23659713,0.016351150086795
17864046,0.99787017700475,0.01604166920096,0.0053472230669535,0.005347223066992,0.0053472230670145,-0.0012999300412638,0.0012999300404741,7.0713472693125e-12,-7.9271494780837e-12,2.7293060333389e-13,-1.0171896314373e-12,-0.0013635413803335,0.0013635413851303,-0.0013635413848551,0.0013635413795045,-0.0013635413805669,0.0013635413845962,-0.0013635413856099,0.0013635413796613,-0.0012312509770045,0.0012312509901193,-0.0012312509914262,0.001231250975429,8.5889611425445e-14,1.3883905267989e-12,1.0876905953283e-12,8.4237056027526e-13,-0.0012999300402723,0.0012999300415286,-0.0013635413825153,0.0013635413829825,-0.0013635413824673,0.0013635413830931,-0.0013635413816035,0.0013635413835497,-0.0013635413818594,0.0013635413831709,-0.001231250981751,0.0012312509846107,-0.001231250982629,0.0012312509844771,-0.0012312509834333,0.00123125098348,-0.0012312509816417,0.0012312509848156,-7.4205451309693e-12,7.5466646898681e-12,-0.0012999300408113,0.0012999300409453,-2.18087455225e-14,2.211133627856e-13,-0.0013635413850557,0.0013635413797994,-0.0013635413849383,0.001363541380035,-0.001363541379934,0.0013635413850384,-0.0013635413799873,0.0013635413849231,-0.001231250975868,0.0012312509911333,-0.0012312509900098,0.0012312509761801,0.0035355767588212,0.0034629428262287,0.71699070735008,0.3808427058791,1368840,32768,0.0054015250258505,0.005401525025981,0.0054015250258892,19.767021826277,19.748021781906,7.3336174610211e-05,7.3336174610211e-05,7.3336174610211e-05,669661.70868434,0.016337532709594
17950446,0.99791332150705,0.016042342458931,0.0053474474862771,0.0053474474863156,0.0053474474863381,-0.0012988554744889,0.0012988554738303,7.1909747912444e-12,-7.8233269439085e-12,3.5528067583099e-13,-9.4260055714118e-13,-0.0013626348987231,0.001362634903579,-0.0013626349034335,0.001362634898388,-0.0013626348992328,0.0013626349032985,-0.0013626349041703,0.0013626348984414,-0.0012300254401114,0.0012300254534476,-0.0012300254544633,0.0012300254380079,3.6393820546705e-13,1.6726330198564e-12,1.2970995215588e-12,9.6291178958815e-13,-0.0012988554733635,0.0012988554749819,-0.0013626349005713,0.0013626349016566,-0.0013626349006201,0.0013626349019037,-0.0013626349000299,0.0013626349024053,-0.0013626349002906,0.0013626349022004,-0.0012300254454835,0.0012300254483948,-0.0012300254455138,0.0012300254482724,-0.0012300254462973,0.0012300254472537,-0.0012300254441784,0.001230025448332,-7.3082522673216e-12,7.6743684062542e-12,-0.0012988554740014,0.0012988554743827,-3.8935281142123e-15,3.3179301101009e-13,-0.0013626349035587,0.0013626348988473,-0.0013626349030624,0.0013626348985807,-0.001362634898221,0.0013626349040795,-0.0013626348980436,0.0013626349037219,-0.0012300254391397,0.0012300254550413,-0.0012300254535895,0.0012300254394797,0.00352980312353,0.0034618488334956,0.71541810529599,0.37125746875988,1368840,32768,0.0053970713980894,0.0053970713981436,0.0053970713982238,19.347038131686,19.328577859355,6.997630505349e-05,6.997630505349e-05,6.997630505349e-05,678439.08866833,0.016323954673873
18036846,0.99795450889525,0.016042987296938,0.0053476624322794,0.0053476624323179,0.0053476624323403,-0.0012979927175346,0.0012979927167274,7.060146376198e-12,-7.8662248687004e-12,2.0092256783582e-13,-1.0018787462332e-12,-0.0013618338153001,0.0013618338198646,-0.0013618338199077,0.0013618338148703,-0.0013618338158486,0.0013618338193038,-0.0013618338203071,0.0013618338143401,-0.0012291095155337,0.0012291095284157,-0.0012291095301449,0.0012291095141298,9.1201272687252e-14,1.3040025165594e-12,1.1087130413423e-12,7.7888241155932e-13,-0.0012979927165846,0.0012979927176813,-0.0013618338177876,0.0013618338185928,-0.0013618338177855,0.0013618338188592,-0.0013618338173959,0.0013618338189687,-0.0013618338176368,0.0013618338190327,-0.0012291095219879,0.0012291095253147,-0.0012291095234658,0.0012291095253729,-0.0012291095221204,0.0012291095213689,-0.0012291095202752,0.0012291095227088,-7.2107852448722e-12,7.6837497667189e-12,-0.0012979927169042,0.0012979927173604,5.6067404826327e-15,3.3339352093914e-13,-0.0013618338209557,0.0013618338160786,-0.0013618338204741,0.0013618338158645,-0.0013618338156483,0.0013618338213912,-0.0013618338156286,0.0013618338209435,-0.0012291095142637,0.0012291095296802,-0.0012291095293303,0.0012291095146664,0.003524909829818,0.0034607707513611,0.7178857806279,0.4226164131871,1368840,32768,0.0053934958646551,0.0053934958646645,0.0053934958646619,18.927558098652,18.909133936804,6.6620464789213e-05,6.6620464789213e-05,6.6620464789213e-05,680491.61312649,0.016313053172546
18123246,0.99799384533886,0.016043604844928,0.0053478682816096,0.0053478682816481,0.0053478682816706,-0.0012976346327175,0.0012976346329616,7.7241127395402e-12,-7.3718649122342e-12,6.0658129288729e-13,-2.6737783179077e-13,-0.0013612859558394,0.0013612859610145,-0.0013612859607102,0.0013612859564353,-0.0013612859568945,0.001361285960862,-0.001361285961758,0.001361285956038,-0.0012289293944592,0.0012289294085132,-0.0012289294071145,0.0012289293947396,-6.6778959948612e-14,8.1667340412927e-13,8.4149749871139e-13,3.2903735989922e-13,-0.0012976346327272,0.0012976346331957,-0.0013612859583521,0.0013612859597496,-0.0013612859589106,0.0013612859590834,-0.0013612859581459,0.0013612859596744,-0.0013612859589184,0.0013612859595763,-0.001228929399892,0.0012289294031997,-0.0012289293994631,0.0012289294012355,-0.0012289294006841,0.0012289293997837,-0.0012289294012445,0.0012289294002624,-7.0571059396695e-12,7.9997581422918e-12,-0.0012976346325908,0.0012976346333272,1.4580545750806e-13,6.5562129474889e-13,-0.0013612859617628,0.0013612859568846,-0.0013612859607453,0.0013612859573206,-0.0013612859557311,0.0013612859612951,-0.001361285956107,0.0013612859625706,-0.0012289293936737,0.0012289294078659,-0.0012289294073163,0.0012289293953668,0.0035220774417731,0.0034597085633725,0.71988953185555,0.46477097184424,1368840,32768,0.0053920125805345,0.00539201258104,0.0053920125810301,18.508111706658,18.489690014253,6.3264893653266e-05,6.3264893653266e-05,6.3264893653266e-05,666578.25697487,0.016308528750298
18209646,0.99803143010729,0.016044195183049,0.005348065060983,0.0053480650610216,0.005348065061044,-0.0012971900614628,0.0012971900608316,7.2842650001161e-12,-7.8898003837787e-12,1.5917713724772e-13,-8.9742234906913e-13,-0.0013606751181352,0.0013606751229102,-0.0013606751231674,0.0013606751178675,-0.0013606751185935,0.0013606751227103,-0.0013606751236312,0.0013606751176168,-0.0012286377509766,0.0012286377650156,-0.001228637765415,0.001228637749967,1.1068726563884e-13,1.175681730789e-12,1.320250520194e-12,6.9386009716796e-13,-0.0012971900605583,0.0012971900617263,-0.0013606751199093,0.0013606751211968,-0.001360675120178,0.0013606751209851,-0.0013606751195585,0.0013606751214844,-0.0013606751197578,0.0013606751212463,-0.0012286377563915,0.0012286377596282,-0.0012286377568505,0.0012286377592083,-0.0012286377579033,0.0012286377577307,-0.0012286377572096,0.0012286377591778,-7.3026060280456e-12,7.8390678453877e-12,-0.0012971900609091,0.0012971900614058,-7.7330519958638e-14,5.4596170359766e-13,-0.0013606751231672,0.0013606751181418,-0.0013606751226788,0.0013606751181662,-0.001360675117836,0.0013606751234353,-0.0013606751174618,0.0013606751233845,-0.0012286377500767,0.0012286377659774,-0.001228637765147,0.0012286377514072,0.0035189208519739,0.0034586620681535,0.72010578535957,0.47675137332041,1368840,32768,0.0053901707040208,0.0053901707040005,0.0053901707040633,18.088667556785,18.070246091702,5.9909340454281e-05,5.9909340454281e-05,5.9909340454281e-05,655121.07806834,0.016302911384764
18296046,0.99806735614662,0.016044759764227,0.0053482532547091,0.0053482532547477,0.0053482532547702,-0.0012965069970181,0.0012965069963696,7.2978855251949e-12,-7.9166971503363e-12,1.7655331229985e-13,-8.4862231046505e-13,-0.0013599536939018,0.00135995369865,-0.0013599536989405,0.0013599536936566,-0.0013599536943286,0.0013599536983665,-0.0013599536993767,0.0013599536933779,-0.001227992115028,0.0012279921288586,-0.0012279921298412,0.0012279921139039,1.5174104088595e-13,1.1875208985223e-12,1.2624273748867e-12,6.3340485579879e-13,-0.0012965069961294,0.0012965069972727,-0.0013599536957578,0.0013599536968443,-0.0013599536959591,0.0013599536967191,-0.0013599536953719,0.0013599536973626,-0.0013599536955883,0.0013599536971151,-0.0012279921202689,0.0012279921235006,-0.0012279921208509,0.0012279921227641,-0.0012279921221823,0.0012279921216768,-0.0012279921211482,0.0012279921232455,-7.3310316890729e-12,7.8512240622589e-12,-0.0012965069964512,0.0012965069969472,-7.3736747392982e-14,5.5229553951508e-13,-0.001359953698892,0.0013599536938717,-0.0013599536984273,0.001359953693946,-0.0013599536936389,0.0013599536990527,-0.0013599536932478,0.0013599536990899,-0.0012279921141354,0.0012279921299358,-0.0012279921291319,0.0012279921149464,0.0035148312207142,0.0034576312814877,0.72037410259094,0.48873177479659,1368840,32768,0.0053873400690293,0.0053873400690592,0.0053873400690514,17.669223548391,17.650802169151,5.655378838713e-05,5.655378838713e-05,5.655378838713e-05,651234.9767559,0.016294280578276
18382446,0.99810228079912,0.016045308849075,0.0053484362829919,0.0053484362830305,0.0053484362830529,-0.0012963289848322,0.0012963289842021,7.2038663974147e-12,-7.8465855274923e-12,1.3663464943466e-13,-8.2379142197282e-13,-0.0013597322738755,0.0013597322785443,-0.001359732278816,0.0013597322735976,-0.001359732274336,0.0013597322783294,-0.0013597322792013,0.0013597322734287,-0.0012278549644876,0.0012278549783158,-0.0012278549792664,0.0012278549635369,1.4499615870217e-13,1.1156133305432e-12,1.1976659415394e-12,6.76295251409e-13,-0.0012963289839526,0.0012963289851036,-0.0013597322756732,0.001359732276889,-0.0013597322758256,0.0013597322767493,-0.0013597322753484,0.0013597322772597,-0.0013597322754819,0.0013597322770218,-0.0012278549698931,0.0012278549728836,-0.0012278549706192,0.0012278549723002,-0.0012278549711481,0.0012278549714232,-0.0012278549704233,0.0012278549727266,-7.2745041218337e-12,7.7448966340182e-12,-0.0012963289843017,0.0012963289847595,-5.1140202407803e-14,4.6796702745795e-13,-0.0013597322788395,0.0013597322739604,-0.001359732278406,0.0013597322739612,-0.001359732273684,0.0013597322790999,-0.0013597322732854,0.0013597322790023,-0.001227854963703,0.0012278549791983,-0.001227854978565,0.0012278549643258,0.003512866556943,0.0034566191455583,0.720684720247,0.50071217627277,1368840,32768,0.0053866025250036,0.0053866025250487,0.0053866025250593,17.511753496039,17.504575083908,5.5294027968307e-05,5.5294027968307e-05,5.5294027968307e-05,647241.75744455,0.016292031294531
18468846,0.99813635046999,0.016045844772588,0.0053486149241627,0.0053486149242013,0.0053486149242238,-0.0012962516953466,0.0012962516946958,7.1693553928787e-12,-7.8399594357973e-12,1.7392186327705e-13,-8.4055143937756e-13,-0.0013596148389205,0.0013596148435652,-0.0013596148438594,0.0013596148386232,-0.0013596148394121,0.0013596148433295,-0.0013596148443095,0.0013596148384364,-0.0012278163091756,0.0012278163227543,-0.0012278163236316,0.0012278163081044,1.5095562370343e-13,1.1764755300684e-12,1.2448432061887e-12,6.2964400010212e-13,-0.0012962516944521,0.0012962516956079,-0.0013596148406919,0.0013596148419063,-0.0013596148408969,0.0013596148417301,-0.0013596148403179,0.0013596148423156,-0.0013596148405425,0.0013596148420272,-0.0012278163144994,0.0012278163174564,-0.0012278163151283,0.0012278163168367,-0.0012278163158282,0.0012278163161344,-0.0012278163148469,0.0012278163171408,-7.2346803384229e-12,7.743622202363e-12,-0.0012962516947887,0.001296251695284,-6.0033518958381e-14,5.534886501252e-13,-0.001359614843862,0.0013596148389945,-0.0013596148434045,0.0013596148390112,-0.0013596148387019,0.0013596148441271,-0.0013596148382892,0.0013596148441032,-0.0012278163081523,0.0012278163236153,-0.0012278163228378,0.0012278163089989,0.0035113486876348,0.0034556259934699,0.72103331745832,0.51269257774895,1368840,32768,0.0053862823807742,0.0053862823808106,0.005386282380837,17.407008103141,17.402345733211,5.4456064825125e-05,5.4456064825125e-05,5.4456064825125e-05,643334.62778436,0.016291054724736
18555246,0.99816959481204,0.016046369415686,0.0053487898051955,0.0053487898052341,0.0053487898052566,-0.0012961780455717,0.0012961780448374,7.1462479811472e-12,-7.8649297317954e-12,1.3782496601248e-13,-8.7480239303444e-13,-0.0013595033130135,0.001359503317555,-0.0013595033179287,0.0013595033126407,-0.0013595033133223,0.001359503317253,-0.0013595033181282,0.0013595033124794,-0.0012277797092211,0.0012277797225243,-0.0012277797235669,0.0012277797078629,1.234846688046e-13,1.146603913214e-12,1.2769501076978e-12,5.9348598705754e-13,-0.0012961780446324,0.0012961780457657,-0.0013595033146756,0.0013595033157256,-0.0013595033149173,0.0013595033156975,-0.0013595033143172,0.0013595033163222,-0.0013595033145762,0.0013595033161027,-0.0012277797142029,0.001227779717483,-0.0012277797147446,0.001227779716662,-0.0012277797155235,0.0012277797158535,-0.0012277797146752,0.0012277797171794,-7.0656790895303e-12,7.9151691970142e-12,-0.0012961780447948,0.0012961780456155,7.1035271097699e-14,7.5126722577253e-13,-0.0013595033176893,0.0013595033130632,-0.0013595033172403,0.0013595033132215,-0.0013595033125479,0.001359503318247,-0.0013595033120853,0.0013595033183002,-0.0012277797079579,0.0012277797238672,-0.0012277797225577,0.0012277797092279,0.0035098704626258,0.0034546517935745,0.72335344162191,0.55681740990987,1368840,32768,0.0053859773134606,0.0053859773134378,0.005385977313463,17.304617770177,17.300116382514,5.363694216141e-05,5.363694216141e-05,5.363694216141e-05,639479.93241932,0.016290124164952
18641646,0.99820203772122,0.016046879548106,0.0053489598493355,0.0053489598493741,0.0053489598493966,-0.0012963350280577,0.0012963350274059,7.213884326668e-12,-7.8653602480552e-12,1.4153920548619e-13,-8.3221710575044e-13,-0.0013595060481651,0.0013595060529627,-0.0013595060531485,0.0013595060480365,-0.0013595060486926,0.0013595060525992,-0.0013595060536211,0.0013595060478141,-0.0012280803582226,0.0012280803716158,-0.0012280803726535,0.0012280803569654,2.2996720995371e-13,1.2138553881393e-12,1.3471535806769e-12,6.7180618266462e-13,-0.0012963350271126,0.0012963350283744,-0.0013595060499243,0.0013595060513215,-0.0013595060502756,0.0013595060510873,-0.0013595060496975,0.0013595060518103,-0.0013595060498649,0.0013595060514188,-0.0012280803629855,0.0012280803665553,-0.0012280803636735,0.0012280803658901,-0.0012280803644693,0.0012280803651445,-0.0012280803639548,0.0012280803662099,-7.2190711093918e-12,7.8302562910452e-12,-0.0012963350274526,0.0012963350280408,-3.3303541423199e-14,6.3876816254169e-13,-0.001359506053121,0.0013595060482465,-0.0013595060527989,0.0013595060483408,-0.0013595060480332,0.001359506053474,-0.0013595060477177,0.0013595060535412,-0.0012280803570121,0.0012280803726746,-0.0012280803715607,0.0012280803579187,0.003509341073522,0.0034536955922287,0.72067301362628,0.51724156063474,1368840,32768,0.0053866284272847,0.0053866284273332,0.0053866284273465,17.202377578919,17.197887031816,5.2819020631351e-05,5.2819020631351e-05,5.2819020631351e-05,628469.93212039,0.016292107785449
18728046,0.99823370202296,0.016047381920658,0.0053491273068528,0.0053491273068914,0.0053491273069139,-0.0012958886202325,0.0012958886195944,7.2266117025613e-12,-7.8659414067718e-12,1.7128964957172e-13,-8.2853245360815e-13,-0.0013592035557977,0.0013592035604545,-0.0013592035607483,0.001359203555501,-0.0013592035562719,0.0013592035602157,-0.0013592035611742,0.0013592035552991,-0.0012275034664961,0.0012275034802446,-0.0012275034811862,0.0012275034655475,1.5243428441372e-13,1.1633104616639e-12,1.2817101681636e-12,5.6698903181545e-13,-0.0012958886193449,0.0012958886204985,-0.0013592035575332,0.001359203558793,-0.0013592035577666,0.0013592035585953,-0.0013592035571815,0.0013592035591961,-0.0013592035574106,0.001359203558897,-0.00122750347195,0.0012275034749507,-0.0012275034726254,0.0012275034741556,-0.0012275034732902,0.0012275034735097,-0.001227503472369,0.0012275034745154,-7.2696216239318e-12,7.7918956982291e-12,-0.0012958886196649,0.0012958886201902,-8.4068196480186e-14,6.28140898962e-13,-0.0013592035607544,0.0013592035558657,-0.0013592035602699,0.0013592035559066,-0.001359203555583,0.0013592035610172,-0.0013592035551364,0.0013592035610101,-0.0012275034655241,0.0012275034810907,-0.0012275034803507,0.0012275034663282,0.0035064119344401,0.0034527582151175,0.72708063053405,0.63423993177507,1368840,32768,0.0053847779209105,0.0053847779209445,0.0053847779209689,17.100147412405,17.095657681119,5.2001179299241e-05,5.2001179299241e-05,5.2001179299241e-05,636091.79962784,0.016286467185424
18814446,0.99826460978265,0.016047873453194,0.0053492911510316,0.0053492911510702,0.0053492911510926,-0.001296539552138,0.0012965395515304,7.2455633000735e-12,-7.8580277073534e-12,1.4978413007999e-13,-7.9288124861034e-13,-0.0013594484643637,0.0013594484690449,-0.0013594484693034,0.0013594484640748,-0.0013594484648202,0.0013594484688225,-0.001359448469716,0.0013594484638918,-0.0012285298395432,0.0012285298532469,-0.001228529854151,0.0012285298385725,1.667012603321e-13,1.1202337776271e-12,1.2495972668377e-12,5.5593036964999e-13,-0.0012965395512818,0.0012965395524046,-0.0013594484661341,0.0013594484673626,-0.0013594484663539,0.0013594484671917,-0.0013594484658022,0.0013594484677393,-0.0013594484660317,0.0013594484674546,-0.0012285298450098,0.001228529847837,-0.0012285298456468,0.0012285298470647,-0.001228529846114,0.0012285298464113,-0.0012285298453504,0.0012285298474524,-7.2709279957877e-12,7.8018473648007e-12,-0.0012965395515865,0.0012965395521076,-7.979747400665e-14,6.1153758265251e-13,-0.0013594484693422,0.0013594484644428,-0.0013594484688439,0.0013594484644832,-0.0013594484641663,0.0013594484695873,-0.001359448463709,0.0013594484695888,-0.0012285298384767,0.0012285298540004,-0.0012285298531922,0.0012285298392336,0.0035079034686581,0.0034518387479009,0.72889227622246,0.66504226062182,1368840,32768,0.0053874769537915,0.0053874769538288,0.0053874769538447,16.997917960638,16.993428330421,5.1183343685101e-05,5.1183343685101e-05,5.1183343685101e-05,609898.96443908,0.016294692095243
18900846,0.99829478236225,0.0160483545716,0.0053494515238333,0.0053494515238719,0.0053494515238943,-0.0012965840246856,0.0012965840240743,7.2490466642474e-12,-7.8659674647992e-12,1.4935973128038e-13,-7.6810806423765e-13,-0.0013593905864092,0.0013593905910647,-0.0013593905913785,0.0013593905861104,-0.0013593905868459,0.0013593905908283,-0.0013593905917552,0.0013593905859131,-0.0012286688530049,0.0012286688667816,-0.0012286688676276,0.0012286688519376,1.7361866665715e-13,1.1018337514999e-12,1.2740333732726e-12,5.5313036695285e-13,-0.0012965840238274,0.0012965840249561,-0.0013593905881201,0.0013593905894264,-0.0013593905883836,0.0013593905892024,-0.0013593905878076,0.0013593905898056,-0.0013593905880444,0.0013593905895028,-0.0012286688585174,0.0012286688613142,-0.0012286688591097,0.0012286688605365,-0.00122866885969,0.0012286688598079,-0.0012286688587625,0.0012286688607691,-7.2505800291689e-12,7.8335410436394e-12,-0.0012965840241218,0.0012965840246721,-8.4610503442493e-14,6.3357390945785e-13,-0.001359390591391,0.0013593905865009,-0.0013593905908859,0.0013593905865352,-0.0013593905861908,0.0013593905916441,-0.0013593905857432,0.0013593905916408,-0.0012286688518165,0.0012286688675692,-0.0012286688666202,0.0012286688526952,0.0035069894383796,0.0034509369452881,0.7305730324177,0.69155654437837,1368840,32768,0.0053876615882445,0.0053876615882936,0.0053876615883152,16.895688549473,16.891198979724,5.0365508395785e-05,5.0365508395785e-05,5.0365508395785e-05,602331.45166859,0.016295254066108
18987246,0.99832424043138,0.016048825508109,0.0053496085026697,0.0053496085027083,0.0053496085027307,-0.0012965968619545,0.0012965968613576,7.2349980934216e-12,-7.8600228816963e-12,1.4532003116103e-13,-7.2892320248475e-13,-0.001359316499933,0.0013593165045878,-0.0013593165048868,0.0013593164996321,-0.0013593165003648,0.0013593165044015,-0.001359316505246,0.0013593164994812,-0.0012287614856477,0.0012287614993959,-0.0012287615001832,0.0012287614845705,1.958423700912e-13,1.0809653301923e-12,1.2685153359625e-12,5.5524700817327e-13,-0.0012965968611022,0.0012965968622284,-0.0013593165016531,0.001359316502948,-0.0013593165019025,0.0013593165027648,-0.0013593165013536,0.001359316503307,-0.0013593165015807,0.0013593165030113,-0.0012287614910134,0.0012287614940489,-0.0012287614916515,0.0012287614932491,-0.001228761492367,0.0012287614926584,-0.0012287614914614,0.0012287614934839,-7.2492420112209e-12,7.8150425205213e-12,-0.0012965968614016,0.0012965968619341,-9.0452119102791e-14,6.2014596673111e-13,-0.0013593165048856,0.0013593164999992,-0.0013593165043945,0.0013593165000398,-0.0013593164997114,0.0013593165051608,-0.0013593164992757,0.0013593165051595,-0.001228761484604,0.0012287615002813,-0.0012287614993261,0.0012287614854616,0.0035059705039998,0.0034500524789032,0.73238744822784,0.71807082813492,1368840,32768,0.0053877150556193,0.0053877150556577,0.0053877150556683,16.793459124905,16.788969629026,4.9547672999238e-05,4.9547672999238e-05,4.9547672999238e-05,595713.85353785,0.016295416308456
19073646,0.99835300400152,0.016049289043214,0.0053497630143713,0.00534976301441,0.0053497630144324,-0.0012966066315856,0.0012966066309774,7.2179754369815e-12,-7.8914264517505e-12,1.8342304361075e-13,-6.8550623472567e-13,-0.0013592412054075,0.0013592412102648,-0.0013592412105115,0.0013592412052146,-0.0013592412060176,0.0013592412099224,-0.0013592412109525,0.0013592412050305,-0.0012288487575349,0.00122884877026,-0.0012288487714268,0.0012288487560447,1.7582109937434e-13,1.0558557443318e-12,1.2758642291059e-12,5.5968725487972e-13,-0.0012966066307409,0.0012966066318485,-0.001359241207212,0.001359241208422,-0.0013592412075459,0.0013592412081622,-0.0013592412070382,0.0013592412087837,-0.0013592412072561,0.0013592412084815,-0.001228848762193,0.0012288487652577,-0.0012288487634578,0.001228848765118,-0.0012288487640554,0.0012288487644135,-0.0012288487625997,0.0012288487647425,-7.2649195911051e-12,7.8145058604453e-12,-0.0012966066310531,0.0012966066315517,-1.18597935738e-13,5.9541472225365e-13,-0.0013592412104367,0.0013592412055338,-0.0013592412100982,0.0013592412056182,-0.0013592412052411,0.0013592412106315,-0.0013592412050051,0.0013592412109592,-0.0012288487564518,0.0012288487715595,-0.0012288487703275,0.0012288487570225,0.0035049607025882,0.0034491854909878,0.73824149437227,0.81188186727392,1368840,32768,0.0053877557979995,0.005387755798054,0.0053877557980861,16.69122939502,16.686740278329,4.8729835160154e-05,4.8729835160154e-05,4.8729835160154e-05,589176.63153556,0.016295539794342
19160046,0.99838158969872,0.016049754411475,0.005349918137125,0.0053499181371636,0.005349918137186,-0.0012975468186124,0.0012975468179039,7.2449694358628e-12,-7.915490657782e-12,2.0988747043479e-13,-9.5350992974969e-13,-0.0013598930727831,0.001359893077367,-0.0013598930778703,0.0013598930725715,-0.0013598930731536,0.0013598930771501,-0.001359893078181,0.0013598930722198,-0.0012300498473004,0.0012300498609027,-0.0012300498618652,0.0012300498462122,4.46298424713e-14,1.21930316289e-12,1.3842638587481e-12,4.7260294465739e-13,-0.0012975468176936,0.0012975468188358,-0.0013598930742908,0.0013598930756294,-0.0013598930746978,0.0013598930754733,-0.0013598930738568,0.0013598930761581,-0.0013598930744983,0.0013598930757117,-0.0012300498525019,0.0012300498557637,-0.0012300498534496,0.0012300498548555,-0.0012300498542998,0.001230049853987,-0.0012300498532084,0.0012300498551922,-7.2299333657926e-12,7.8999844550153e-12,-0.0012975468179433,0.0012975468185846,-1.0639269095279e-13,8.0172477256441e-13,-0.0013598930775115,0.0013598930726373,-0.001359893077094,0.0013598930729438,-0.0013598930724287,0.0013598930777946,-0.0013598930718861,0.0013598930779676,-0.0012300498464002,0.0012300498621495,-0.0012300498611831,0.0012300498474426,0.0035077768038795,0.0034483384929655,0.74574900306602,0.92350052887067,1368840,32768,0.0053916531542026,0.0053916531542297,0.0053916531542265,16.86679787372,16.874227858685,5.013438298976e-05,5.013438298976e-05,5.013438298976e-05,570608.00432582,0.016307419496874
19246446,0.99841007870002,0.016050219191795,0.0053500730638986,0.0053500730639372,0.0053500730639596,-0.0012986407911134,0.0012986407905043,7.2493304202847e-12,-7.873599231654e-12,1.4705633105944e-13,-7.749523257384e-13,-0.0013606694792462,0.0013606694839335,-0.0013606694842248,0.0013606694789646,-0.0013606694797032,0.0013606694837304,-0.0013606694846224,0.0013606694787945,-0.0012314274983897,0.001231427512038,-0.0012314275129304,0.0012314274974013,1.7872351070766e-13,1.1117392724225e-12,1.3547506721204e-12,4.5640323366509e-13,-0.0012986407902567,0.0012986407913817,-0.0013606694809906,0.0013606694823177,-0.0013606694812768,0.0013606694820461,-0.0013606694806535,0.0013606694826792,-0.0013606694809519,0.0013606694823221,-0.0012314275038107,0.0012314275067668,-0.0012314275046887,0.0012314275058924,-0.0012314275049713,0.0012314275053943,-0.001231427504265,0.0012314275064478,-7.2550984793686e-12,7.8375358627769e-12,-0.0012986407905327,0.0012986407911124,-1.544048418616e-13,7.4059755172375e-13,-0.001360669484241,0.0013606694793322,-0.0013606694836894,0.0013606694794396,-0.0013606694790445,0.0013606694844879,-0.0013606694785343,0.0013606694845578,-0.0012314274973943,0.0012314275130047,-0.0012314275120574,0.0012314274982991,0.0035112492399221,0.0034475110062326,0.74713165362603,0.88499294710748,1368840,32768,0.0053961878712398,0.0053961878712825,0.0053961878712965,17.09037003653,17.100128268466,5.1922960292238e-05,5.1922960292238e-05,5.1922960292238e-05,550274.71405547,0.016321242482284
19332846,0.9984384673751,0.016050682608067,0.0053502275359892,0.0053502275360277,0.0053502275360502,-0.0012989373160261,0.0012989373154421,7.3101625619046e-12,-7.9107164506896e-12,1.2257290254079e-13,-7.4172751720408e-13,-0.0013610444572211,0.0013610444618969,-0.0013610444621903,0.001361044456916,-0.0013610444576163,0.0013610444617509,-0.0013610444625928,0.0013610444567935,-0.0012316362261743,0.0012316362402228,-0.0012316362410366,0.0012316362253485,1.8043210557009e-13,1.055546812593e-12,1.4125246130485e-12,4.0381054621794e-13,-0.0012989373151913,0.0012989373162925,-0.0013610444589584,0.0013610444603019,-0.0013610444592695,0.0013610444600081,-0.0013610444586365,0.0013610444606345,-0.0013610444589595,0.0013610444602726,-0.0012316362316768,0.0012316362348223,-0.0012316362325611,0.001231636233826,-0.0012316362331603,0.0012316362332436,-0.0012316362322624,0.0012316362340321,-7.2862585862722e-12,7.9042793826317e-12,-0.0012989373154406,0.0012989373160549,-1.9852858214691e-13,8.064591279331e-13,-0.0013610444622441,0.0013610444573184,-0.0013610444616478,0.0013610444574349,-0.0013610444570309,0.0013610444625021,-0.0013610444564934,0.0013610444625981,-0.0012316362251365,0.0012316362410628,-0.0012316362401417,0.0012316362261276,0.0035115870069936,0.0034467024688153,0.74734627467957,0.8464853653443,1368840,32768,0.0053974160614534,0.0053974160614857,0.0053974160615102,17.316120798119,17.326028678248,5.3728966384948e-05,5.3728966384948e-05,5.3728966384948e-05,553263.87768821,0.016324989388187
19419246,0.99846674832282,0.016051143795484,0.0053503812651282,0.0053503812651668,0.0053503812651892,-0.0012992203926148,0.0012992203921073,7.3687719478986e-12,-7.8081103499414e-12,1.7344728953966e-13,-7.7029893848442e-13,-0.0013614142191817,0.0013614142240904,-0.0013614142242065,0.001361414219128,-0.0013614142193223,0.0013614142235877,-0.0013614142246973,0.0013614142188793,-0.0012318293150421,0.0012318293285686,-0.001231829328484,0.0012318293144521,1.8597787732704e-13,1.138718036475e-12,1.408980074273e-12,4.4717504499168e-13,-0.0012992203917839,0.0012992203929461,-0.0013614142209574,0.0013614142224346,-0.001361414221204,0.0013614142220681,-0.0013614142205472,0.0013614142227091,-0.0013614142208849,0.0013614142223514,-0.0012318293199173,0.0012318293232166,-0.0012318293211938,0.001231829322265,-0.00123182932117,0.0012318293219133,-0.0012318293205205,0.0012318293232822,-7.2323286455596e-12,7.9149271161743e-12,-0.0012992203920282,0.0012992203927372,-9.0135746414819e-14,8.6826844558322e-13,-0.0013614142241763,0.0013614142196506,-0.0013614142237302,0.0013614142193126,-0.001361414219265,0.001361414224533,-0.0013614142185089,0.0013614142246922,-0.0012318293133511,0.0012318293290753,-0.0012318293280657,0.0012318293153673,0.0035118768124469,0.0034459122826406,0.74660379471881,0.80797778358108,1368840,32768,0.0053985886123612,0.0053985886123773,0.005398588612451,17.54201072713,17.551929088027,5.553608581704e-05,5.553608581704e-05,5.553608581704e-05,557010.7978519,0.016328566320417
19505646,0.9984949139047,0.016051602171502,0.005350534057134,0.0053505340571726,0.0053505340571951,-0.0012994902168621,0.0012994902158143,7.0078141513821e-12,-8.1530414007699e-12,-1.4883121801433e-13,-9.3459533110711e-13,-0.0013617804580012,0.0013617804621173,-0.0013617804625797,0.0013617804568944,-0.0013617804581898,0.001361780462305,-0.0013617804632007,0.0013617804564022,-0.001232004755933,0.0012320047685227,-0.0012320047703546,0.0012320047543999,3.5087210462746e-13,1.1507315518233e-12,1.5885443240025e-12,4.698265000641e-13,-0.0012994902156434,0.0012994902170048,-0.0013617804595793,0.0013617804604816,-0.0013617804597547,0.0013617804601613,-0.0013617804586151,0.001361780460895,-0.0013617804590702,0.0013617804603007,-0.0012320047610837,0.0012320047642449,-0.0012320047620123,0.0012320047634532,-0.0012320047611311,0.0012320047630004,-0.0012320047621587,0.0012320047634989,-6.9984416141773e-12,8.1331660961821e-12,-0.0012994902157999,0.0012994902168742,-5.707693280947e-14,1.0564098450514e-12,-0.0013617804623709,0.001361780457985,-0.001361780461936,0.0013617804579847,-0.0013617804574775,0.0013617804632648,-0.0013617804562791,0.0013617804631065,-0.0012320047549302,0.0012320047707494,-0.0012320047692162,0.0012320047559556,0.0035121217268526,0.003445139935376,0.74512020285803,0.76947020181791,1368840,32768,0.005399706315135,0.0053997063150764,0.0053997063151303,17.767910030886,17.77782949781,5.7343280247082e-05,5.7343280247082e-05,5.7343280247082e-05,561455.0427642,0.016331975771114
19592046,0.99852295647094,0.016052057289452,0.0053506857631173,0.0053506857631559,0.0053506857631784,-0.001299747583102,0.0012997475825593,7.3132463500499e-12,-7.7902654833252e-12,8.6083723142525e-14,-6.3719406357051e-13,-0.0013621464804355,0.0013621464850122,-0.001362146485362,0.0013621464801065,-0.0013621464807263,0.0013621464849374,-0.0013621464854634,0.0013621464799876,-0.0012321602300452,0.0012321602441739,-0.0012321602452064,0.0012321602297209,2.5346152163038e-13,9.8679573642055e-13,1.4078738433617e-12,4.101666461611e-13,-0.0012997475822819,0.0012997475834087,-0.0013621464820802,0.0013621464834617,-0.0013621464823151,0.0013621464830608,-0.0013621464817853,0.001362146483671,-0.0013621464818679,0.0013621464833592,-0.0012321602358653,0.0012321602385934,-0.0012321602370849,0.0012321602378913,-0.0012321602371585,0.0012321602371612,-0.0012321602369184,0.0012321602380022,-7.2689433505349e-12,7.8042636439263e-12,-0.0012997475825445,0.0012997475831152,-2.0345719628702e-13,7.9147161520309e-13,-0.0013621464853119,0.001362146480383,-0.0013621464847909,0.0013621464806926,-0.0013621464800771,0.0013621464854179,-0.0013621464797247,0.0013621464856419,-0.0012321602293119,0.0012321602447008,-0.0012321602442796,0.0012321602299121,0.0035123273510874,0.0034443849528203,0.74310582470102,0.73096262005473,1368840,32768,0.0054007724487035,0.0054007724487638,0.0054007724487002,17.993810025983,18.003729907592,5.9150480207863e-05,5.9150480207863e-05,5.9150480207863e-05,566551.75458377,0.016335227819355
19678446,0.99855086838207,0.016052508810369,0.0053508362700897,0.0053508362701283,0.0053508362701508,-0.0012999935095833,0.0012999935090782,7.3729005276557e-12,-7.8407384120001e-12,8.4933699451429e-14,-5.735361847456e-13,-0.0013625065227532,0.0013625065274636,-0.0013625065276948,0.0013625065222743,-0.0013625065228877,0.0013625065270934,-0.0013625065279913,0.0013625065223051,-0.0012323006193777,0.0012323006338782,-0.0012323006344245,0.0012323006187772,2.8454668964689e-13,9.5375509873053e-13,1.4620261596338e-12,3.5922020253998e-13,-0.0012999935088262,0.0012999935098938,-0.0013625065244539,0.0013625065257018,-0.0013625065247061,0.0013625065254768,-0.0013625065241501,0.0013625065260201,-0.0013625065244437,0.0013625065255663,-0.0012323006246699,0.0012323006284762,-0.0012323006261875,0.0012323006273823,-0.0012323006267493,0.0012323006265374,-0.0012323006260139,0.0012323006272645,-7.169468330605e-12,8.0142759634882e-12,-0.0012999935089431,0.0012999935097885,-1.1202954816244e-13,9.8598379063671e-13,-0.0013625065275833,0.0013625065227472,-0.0013625065269716,0.0013625065229681,-0.0013625065223792,0.0013625065280039,-0.0013625065218648,0.0013625065282737,-0.0012323006183273,0.0012323006346517,-0.0012323006335112,0.0012323006196681,0.0035124988268577,0.0034436468921204,0.7407269393545,0.69245503829154,1368840,32768,0.005401791205748,0.0054017912058689,0.0054017912058931,18.219710135096,18.229630317373,6.0957681080765e-05,6.0957681080765e-05,6.0957681080765e-05,572125.44074369,0.016338335286171
19764846,0.9985786420168,0.016052956466779,0.0053509854888932,0.0053509854889318,0.0053509854889543,-0.0013002288390417,0.0013002288385056,7.3618325128348e-12,-7.8874062216246e-12,5.1514426269638e-14,-5.4276741882792e-13,-0.0013628623708079,0.0013628623752439,-0.0013628623756356,0.0013628623702888,-0.0013628623709685,0.0013628623749861,-0.001362862375738,0.0013628623700558,-0.001232425661215,0.0012324256757347,-0.0012324256763353,0.001232425661813,2.268241000912e-13,8.3282091083402e-13,1.4379586301744e-12,2.8746201235049e-13,-0.0013002288382993,0.0013002288392808,-0.0013628623720909,0.001362862373661,-0.0013628623726083,0.0013628623732729,-0.0013628623718246,0.001362862374089,-0.0013628623722447,0.0013628623736589,-0.0012324256671794,0.0012324256707922,-0.0012324256679972,0.0012324256698559,-0.0012324256690465,0.0012324256688055,-0.0012324256681858,0.0012324256690943,-7.3932730817587e-12,7.8247893992315e-12,-0.0013002288385372,0.00130022883905,-3.0767245375891e-13,8.3950458900518e-13,-0.0013628623755931,0.0013628623704406,-0.0013628623751061,0.0013628623707532,-0.0013628623704519,0.0013628623758641,-0.0013628623698115,0.0013628623758666,-0.0012324256609057,0.0012324256759624,-0.0012324256759485,0.0012324256621182,0.0035126411764025,0.0034429253331435,0.73809247027914,0.65394745652835,1368840,32768,0.005402766066699,0.0054027660667669,0.0054027660667817,18.445610308176,18.455530727154,6.2764882465407e-05,6.2764882465407e-05,6.2764882465407e-05,578130.59658791,0.016341308839801
19851246,0.99860626977903,0.016053399114445,0.0053511330381153,0.0053511330381539,0.0053511330381763,-0.0013004539612703,0.001300453960712,7.4263427773846e-12,-7.9618670057223e-12,-1.0959782833216e-14,-5.4435584089096e-13,-0.0013632139380874,0.0013632139424096,-0.0013632139427961,0.0013632139372628,-0.001363213938083,0.0013632139424231,-0.0013632139433478,0.0013632139373673,-0.0012325357806573,0.0012325357947061,-0.0012325357953059,0.0012325357796709,2.5157116761469e-13,7.966390749878e-13,1.3894540825433e-12,2.3548627664413e-13,-0.0013004539605513,0.0013004539615089,-0.001363213939561,0.0013632139409729,-0.0013632139398261,0.0013632139405957,-0.0013632139394457,0.0013632139410927,-0.0013632139399888,0.001363213940683,-0.0012325357862459,0.0012325357893797,-0.0012325357878206,0.00123253578796,-0.0012325357877721,0.0012325357878232,-0.0012325357870405,0.0012325357883375,-7.296191753409e-12,8.0609048919476e-12,-0.0013004539606727,0.0013004539614052,-1.9912656387898e-13,9.4858013917494e-13,-0.0013632139428721,0.0013632139380926,-0.0013632139420955,0.0013632139380411,-0.0013632139375357,0.0013632139431057,-0.001363213937085,0.0013632139432383,-0.0012325357795659,0.0012325357957404,-0.0012325357947774,0.0012325357809454,0.0035127567897968,0.0034422197049376,0.73373528634469,0.59159784103547,1368840,32768,0.0054036986371456,0.0054036986373071,0.0054036986373441,18.671510470791,18.681431136936,6.4572083766328e-05,6.4572083766328e-05,6.4572083766328e-05,584525.9686626,0.016344153409814
19937646,0.99863338873519,0.016053836909538,0.0053512789698127,0.0053512789698513,0.0053512789698738,-0.0013001067810843,0.0013001067806127,7.4617130497882e-12,-7.9392954599734e-12,2.5630217014463e-14,-5.0381849104387e-13,-0.0013630854687582,0.0013630854735255,-0.0013630854738077,0.0013630854684691,-0.0013630854690735,0.0013630854734394,-0.0013630854740816,0.001363085468421,-0.0012319918963644,0.001231991910701,-0.001231991911253,0.001231991895732,3.0498133008854e-13,8.4539011508875e-13,1.4316512052149e-12,2.4307516245593e-13,-0.0013001067803635,0.0013001067813517,-0.0013630854704856,0.0013630854718876,-0.0013630854708714,0.0013630854715374,-0.0013630854702828,0.0013630854721367,-0.0013630854706779,0.0013630854716862,-0.0012319919020886,0.0012319919051644,-0.0012319919032202,0.0012319919039044,-0.0012319919033519,0.0012319919037282,-0.0012319919028338,0.0012319919042438,-7.3324652923362e-12,8.0376394850427e-12,-0.0013001067805155,0.0013001067812109,-2.3497582164994e-13,9.490278313806e-13,-0.0013630854738275,0.0013630854688459,-0.0013630854731799,0.0013630854690422,-0.0013630854685498,0.0013630854740913,-0.001363085467949,0.0013630854742429,-0.0012319918953744,0.001231991911531,-0.0012319919104644,0.0012319918965673,0.0035105310023466,0.0034415288169562,0.73938928081622,0.69818852453212,1368840,32768,0.0054022592032431,0.0054022592032809,0.0054022592033041,18.687852925401,18.688780619247,6.4702823403207e-05,6.4702823403207e-05,6.4702823403207e-05,596275.75690351,0.016339766497934
20024046,0.99865995716737,0.016054266957671,0.0053514223191906,0.0053514223192292,0.0053514223192517,-0.0013007799571943,0.0013007799567188,7.4633952925145e-12,-7.9468374060427e-12,2.3372933031763e-14,-5.1217247112963e-13,-0.0013634280733291,0.0013634280781042,-0.0013634280783824,0.0013634280730397,-0.0013634280736488,0.0013634280780207,-0.0013634280786642,0.0013634280729916,-0.0012329694714259,0.0012329694857201,-0.0012329694863662,0.0012329694707864,3.0627734931957e-13,8.5277030139383e-13,1.4301829265404e-12,2.7026986108832e-13,-0.001300779956467,0.0013007799574633,-0.0013634280750619,0.0013634280764571,-0.0013634280754431,0.0013634280761164,-0.0013634280748623,0.0013634280767068,-0.0013634280752511,0.0013634280762608,-0.0012329694771089,0.0012329694802514,-0.0012329694782206,0.0012329694789745,-0.0012329694783967,0.0012329694787806,-0.0012329694779253,0.0012329694793318,-7.3457407103107e-12,8.033822572235e-12,-0.0013007799566304,0.0013007799573106,-2.2857045850586e-13,9.2693977086157e-13,-0.0013634280783966,0.0013634280734076,-0.0013634280777673,0.0013634280735964,-0.0013634280731178,0.0013634280786623,-0.0013634280725259,0.0013634280788128,-0.0012329694704895,0.0012329694865979,-0.0012329694855472,0.0012329694715749,0.0035123961130341,0.0034408517327789,0.74148507049815,0.73422225801138,1368840,32768,0.0054050501943779,0.0054050501944136,0.0054050501944357,18.673658353985,18.673073037015,6.4589266831877e-05,6.4589266831877e-05,6.4589266831877e-05,574954.98510082,0.016348272701947
20110446,0.99868598438681,0.016054689681597,0.0053515632271657,0.0053515632272043,0.0053515632272268,-0.0013009986302038,0.0013009986297235,7.4632096511269e-12,-7.9502395962258e-12,2.9269988174894e-14,-5.2431762951515e-13,-0.0013635393597424,0.0013635393645138,-0.0013635393647988,0.0013635393594553,-0.0013635393600623,0.0013635393644273,-0.0013635393650829,0.0013635393594031,-0.0012332859352259,0.0012332859495003,-0.0012332859501548,0.0012332859345375,3.0636231731209e-13,8.7087857172801e-13,1.4299177875814e-12,2.8027517307997e-13,-0.0013009986294678,0.001300998630476,-0.0013635393614751,0.0013635393628689,-0.0013635393618522,0.0013635393625307,-0.0013635393612697,0.0013635393631207,-0.0013635393616463,0.0013635393626816,-0.0012332859408578,0.0012332859440127,-0.0012332859419997,0.0012332859427776,-0.0012332859421629,0.0012332859425697,-0.0012332859416776,0.0012332859431194,-7.3498387027669e-12,8.0330673306013e-12,-0.0013009986296408,0.0013009986303153,-2.2788930284411e-13,9.1739570948492e-13,-0.0013635393648125,0.0013635393598165,-0.0013635393641859,0.0013635393599997,-0.0013635393595248,0.0013635393650709,-0.0013635393589439,0.0013635393652133,-0.0012332859342607,0.0012332859503871,-0.0012332859493058,0.0012332859353356,0.0035124627629327,0.0034401882678734,0.74380220355277,0.76845205126917,1368840,32768,0.0054059567967046,0.0054059567967386,0.0054059567967643,18.658048148179,18.657365454783,6.4464385185432e-05,6.4464385185432e-05,6.4464385185432e-05,567268.44264447,0.016351035842923
20196846,0.9987114817371,0.016055105290361,0.0053517017634205,0.0053517017634591,0.0053517017634816,-0.0013012035304771,0.0013012035299787,7.4508921450653e-12,-7.9641582298446e-12,3.0013671338237e-14,-5.4657906709057e-13,-0.0013636441343092,0.0013636441390663,-0.0013636441393671,0.0013636441340024,-0.0013636441345931,0.0013636441389792,-0.0013636441396565,0.0013636441339187,-0.0012335811414251,0.0012335811556309,-0.0012335811563222,0.0012335811406484,2.8946374531657e-13,8.7713214539151e-13,1.422090262001e-12,2.9635729942911e-13,-0.0013012035297326,0.0013012035307379,-0.0013636441360318,0.0013636441374313,-0.0013636441363904,0.0013636441370542,-0.0013636441358046,0.0013636441376731,-0.0013636441361983,0.0013636441372307,-0.0012335811470866,0.0012335811501275,-0.0012335811481094,0.0012335811488657,-0.0012335811482583,0.0012335811487309,-0.0012335811478342,0.0012335811493131,-7.3505160938377e-12,8.0340986814471e-12,-0.0013012035299055,0.0013012035305772,-2.1235598325871e-13,9.0922013571367e-13,-0.0013636441393615,0.0013636441343626,-0.0013636441387638,0.0013636441345214,-0.0013636441340899,0.0013636441396268,-0.001363644133487,0.0013636441397716,-0.001233581140443,0.0012335811565905,-0.0012335811554275,0.001233581141472,0.0035124933254742,0.0034395381728996,0.74640994991773,0.80088993209967,1368840,32768,0.005406806272336,0.0054068062723665,0.0054068062723917,18.642347110822,18.641657872551,6.4338776886576e-05,6.4338776886576e-05,6.4338776886576e-05,559946.40067407,0.016353624974102
20283246,0.99873646045381,0.016055514130674,0.0053518380435247,0.0053518380435633,0.0053518380435857,-0.0013013957872802,0.0013013957867823,7.4392994992127e-12,-7.9541433004997e-12,4.5043565126475e-14,-5.4900705174083e-13,-0.0013637401244766,0.0013637401292034,-0.0013637401295053,0.00136374012417,-0.0013637401247319,0.0013637401291229,-0.0013637401297997,0.0013637401240439,-0.0012338584078175,0.0012338584219719,-0.0012338584227457,0.001233858407046,2.7893280232377e-13,8.8390546788293e-13,1.4039201112043e-12,3.0630428967303e-13,-0.0013013957865366,0.0013013957875431,-0.0013637401261913,0.0013637401275279,-0.0013637401265059,0.0013637401271721,-0.0013637401259316,0.0013637401278693,-0.001363740126338,0.0013637401273874,-0.0012338584134047,0.0012338584165109,-0.0012338584144571,0.0012338584153816,-0.0012338584147059,0.0012338584150867,-0.0012338584142466,0.0012338584156104,-7.3385687529384e-12,8.0245412381264e-12,-0.0013013957867123,0.0013013957873834,-2.0852060042703e-13,8.8480252871363e-13,-0.0013637401294858,0.0013637401245366,-0.0013637401288994,0.0013637401247083,-0.0013637401242186,0.0013637401298102,-0.0013637401236759,0.0013637401299064,-0.0012338584068617,0.0012338584229455,-0.0012338584218415,0.0012338584078524,0.0035124923263276,0.0034389012413955,0.74943272667065,0.83332781293015,1368840,32768,0.0054076032941668,0.0054076032942024,0.0054076032942358,18.626639936411,18.62595029032,6.4213119491282e-05,6.4213119491282e-05,6.4213119491282e-05,552898.95140601,0.016356054346302
20369646,0.99876093153456,0.016055915584955,0.0053519718616185,0.0053519718616571,0.0053519718616796,-0.0013015856647619,0.0013015856642249,7.430594412206e-12,-7.9745729116833e-12,2.9575861183625e-14,-5.749427300119e-13,-0.0013638352875262,0.0013638352922326,-0.0013638352925819,0.0013638352871566,-0.0013638352878235,0.0013638352921272,-0.0013638352928174,0.0013638352870684,-0.0012341305021915,0.0012341305164768,-0.0012341305171162,0.0012341305015209,2.7981930465349e-13,8.9542411599613e-13,1.400397483524e-12,3.1543204023828e-13,-0.0013015856640044,0.0013015856650116,-0.0013638352892395,0.0013638352905793,-0.0013638352895509,0.0013638352902753,-0.0013638352889636,0.0013638352909086,-0.0013638352893891,0.0013638352904246,-0.0012341305078033,0.0012341305108483,-0.0012341305089157,0.0012341305097122,-0.0012341305090745,0.0012341305095202,-0.0012341305085602,0.0012341305101264,-7.3459980553901e-12,8.0287436685685e-12,-0.001301585664178,0.0013015856648446,-2.1445509560286e-13,8.6643020762249e-13,-0.0013638352925302,0.001363835287551,-0.0013638352919112,0.0013638352877394,-0.0013638352872718,0.00136383529282,-0.0013638352867035,0.001363835292941,-0.0012341305011569,0.0012341305172831,-0.0012341305163136,0.0012341305023468,0.0035125007607005,0.003438277099582,0.75108621730898,0.83684364498432,1368840,32768,0.0054083904205958,0.0054083904206562,0.0054083904206699,18.610932367361,18.610242708088,6.4087458938886e-05,6.4087458938886e-05,6.4087458938886e-05,545850.34041205,0.016358453675898
20456046,0.99878490573582,0.016056306248064,0.0053521020826547,0.0053521020826933,0.0053521020827158,-0.001301616749526,0.0013016167490299,7.4514720097038e-12,-7.9522432997199e-12,5.1243552191714e-14,-5.6679586124609e-13,-0.0013638455792425,0.0013638455840207,-0.0013638455843099,0.001363845578971,-0.0013638455795799,0.0013638455839344,-0.0013638455845604,0.0013638455788918,-0.0012341744775835,0.0012341744919137,-0.0012341744924801,0.001234174476845,2.7536347018794e-13,9.0425061105865e-13,1.3931054121742e-12,3.2392001623056e-13,-0.0013016167487842,0.0013016167498004,-0.0013638455808393,0.0013638455822608,-0.0013638455812417,0.0013638455819311,-0.0013638455806505,0.0013638455825245,-0.0013638455809838,0.001363845582091,-0.0012341744833395,0.0012341744863082,-0.0012341744842753,0.0012341744851383,-0.0012341744845925,0.0012341744849183,-0.0012341744841244,0.0012341744857186,-7.3558334019859e-12,8.0175974502543e-12,-0.0013016167489733,0.0013016167496178,-1.9734503006832e-13,8.678182828648e-13,-0.0013638455841883,0.0013638455791602,-0.0013638455835822,0.0013638455793622,-0.0013638455789306,0.0013638455844415,-0.0013638455783611,0.0013638455845621,-0.0012341744766114,0.0012341744927977,-0.0012341744917442,0.0012341744777619,0.0035118927305258,0.0034376648482487,0.74594087609998,0.73934917695291,1368840,32768,0.0054085191613787,0.0054085191614379,0.0054085191614513,18.59522486493,18.594535125856,6.3961798919436e-05,6.3961798919436e-05,6.3961798919436e-05,543411.89214409,0.016358846487526
20542446,0.99880839357713,0.016056684266613,0.0053522280888378,0.0053522280888764,0.0053522280888989,-0.0013010743117854,0.0013010743112787,7.4352512111204e-12,-7.9493225654169e-12,5.5556773366945e-14,-5.74036698867e-13,-0.0013635739542722,0.0013635739590311,-0.0013635739593163,0.0013635739539814,-0.0013635739546189,0.0013635739589174,-0.0013635739596213,0.0013635739539008,-0.0012333826562468,0.0012333826704803,-0.0012333826712011,0.0012333826555233,2.7871851475246e-13,9.1925485857154e-13,1.4046830290741e-12,3.3149543186563e-13,-0.0013010743110244,0.0013010743120563,-0.0013635739559947,0.0013635739573642,-0.0013635739563472,0.0013635739570515,-0.001363573955757,0.0013635739576447,-0.0013635739561162,0.0013635739572264,-0.0012333826619066,0.0012333826650115,-0.0012333826629346,0.0012333826638603,-0.0012333826631951,0.0012333826635748,-0.0012333826626591,0.0012333826642055,-7.3508602009726e-12,8.0032048017046e-12,-0.0013010743112226,0.0013010743118689,-2.0098383067017e-13,8.6816377231033e-13,-0.001363573959316,0.0013635739543284,-0.0013635739587119,0.0013635739544839,-0.001363573954046,0.0013635739595731,-0.0013635739534853,0.001363573959691,-0.0012333826553202,0.0012333826713873,-0.0012333826703769,0.0012333826563229,0.0035090003360401,0.0034370638479035,0.73667388946848,0.59694949966011,1368840,32768,0.0054062701723219,0.0054062701723562,0.0054062701723788,18.579517337777,18.578827543624,6.3836138702217e-05,6.3836138702217e-05,6.3836138702217e-05,558439.4909216,0.016351992291248
20628846,0.99883140534599,0.016057049428413,0.0053523498094377,0.0053523498094763,0.0053523498094988,-0.0013001893136151,0.0013001893131227,7.432012662997e-12,-7.931793983256e-12,4.4308117005675e-14,-5.458572656117e-13,-0.0013631373345483,0.0013631373393002,-0.0013631373395834,0.0013631373342529,-0.0013631373348823,0.0013631373392103,-0.0013631373398799,0.0013631373341919,-0.001232090617987,0.0012320906322215,-0.0012320906329279,0.0012320906173209,2.9456129547226e-13,8.95711930733e-13,1.3982596370691e-12,3.2389454642041e-13,-0.0013001893128685,0.0013001893138871,-0.0013631373362818,0.001363137337649,-0.0013631373366326,0.001363137337335,-0.0013631373360633,0.0013631373379144,-0.0013631373364167,0.001363137337496,-0.0012320906236628,0.0012320906267355,-0.0012320906247182,0.0012320906256159,-0.0012320906249584,0.0012320906253432,-0.0012320906244413,0.0012320906259288,-7.343460779961e-12,7.9895711299686e-12,-0.0013001893130582,0.0013001893137068,-2.0565904078689e-13,8.6462082172151e-13,-0.0013631373395849,0.0013631373346117,-0.0013631373389828,0.0013631373347665,-0.0013631373343142,0.0013631373398515,-0.0013631373337535,0.0013631373399699,-0.0012320906171005,0.0012320906331131,-0.0012320906321325,0.0012320906180977,0.0035047326343199,0.0034364737635027,0.72645359344899,0.45454982236731,1368840,32768,0.005402601114587,0.0054026011146239,0.0054026011146435,18.56380976919,18.563119961392,6.3710478153518e-05,6.3710478153518e-05,6.3710478153518e-05,584406.87052701,0.016340809483953
20715246,0.99885348335528,0.016057406695448,0.0053524688984496,0.0053524688984881,0.0053524688985106,-0.0012985338921814,0.0012985338917275,7.515713753045e-12,-7.9665242163889e-12,4.4338233732688e-14,-4.9097382461609e-13,-0.0013620020740957,0.0013620020788487,-0.0013620020791578,0.0013620020737759,-0.0013620020743397,0.0013620020787868,-0.0013620020794276,0.0013620020737216,-0.0012299657769545,0.0012299657913673,-0.0012299657919294,0.001229965776442,2.9726406584566e-13,8.4363169821894e-13,1.4728584463619e-12,1.4957869517942e-13,-0.0012985338914793,0.0012985338924491,-0.001362002075778,0.0013620020772439,-0.0013620020762119,0.0013620020768716,-0.0013620020756457,0.0013620020774963,-0.001362002076053,0.0013620020770195,-0.0012299657826418,0.0012299657857582,-0.0012299657840182,0.0012299657843992,-0.0012299657840453,0.0012299657842707,-0.0012299657834316,0.0012299657847881,-7.3374025532709e-12,8.1139202135424e-12,-0.0012985338915904,0.0012985338923516,-2.6167244726283e-13,1.0565713989396e-12,-0.0013620020792042,0.0013620020741836,-0.0013620020785155,0.0013620020744191,-0.0013620020738788,0.001362002079471,-0.0013620020732145,0.0013620020796739,-0.0012299657758056,0.0012299657920406,-0.001229965790976,0.0012299657770804,0.0034972743252314,0.0034358940542104,0.74114745924898,0.73479496297405,1368840,32768,0.0053957391587007,0.0053957391587411,0.0053957391587694,18.211748006329,18.196624872242,6.0893984050632e-05,6.0893984050632e-05,6.0893984050632e-05,614802.21915093,0.016319891874933
20801646,0.99887461973407,0.016057747920955,0.0053525826402852,0.0053525826403238,0.0053525826403463,-0.0012996090651964,0.0012996090646648,7.4565493840053e-12,-8.045247399685e-12,7.2108738304013e-14,-6.2295249864054e-13,-0.0013621741548929,0.0013621741596452,-0.0013621741599386,0.0013621741545728,-0.0013621741552108,0.0013621741595791,-0.0013621741602935,0.001362174154555,-0.001231877361058,0.0012318773754381,-0.0012318773762167,0.0012318773601356,2.5848542697705e-13,9.6444853675922e-13,1.4962300853156e-12,2.3611784558542e-13,-0.0012996090644161,0.0012996090654604,-0.0013621741565871,0.0013621741580467,-0.0013621741570331,0.0013621741576428,-0.0013621741563761,0.0013621741583015,-0.0013621741567516,0.0013621741578243,-0.0012318773668284,0.0012318773701153,-0.0012318773678457,0.001231877368597,-0.0012318773682247,0.0012318773686503,-0.0012318773674684,0.0012318773693778,-7.3837416670546e-12,8.0872493812592e-12,-0.0012996090645998,0.0012996090652851,-2.6943476895276e-13,9.8533160467819e-13,-0.0013621741599217,0.0013621741549315,-0.0013621741592888,0.0013621741551142,-0.0013621741546673,0.0013621741601929,-0.0013621741540269,0.0013621741603354,-0.001231877360143,0.0012318773766264,-0.0012318773753323,0.0012318773611923,0.0035007590582272,0.0034353230331411,0.7397066829162,0.70661074676882,1368840,32768,0.0054001981478792,0.005400198147911,0.0054001981479286,17.819359412964,17.802180403604,5.7754875303709e-05,5.7754875303709e-05,5.7754875303709e-05,558979.85755882,0.016333477645252
20888046,0.99889486005006,0.016058073344048,0.0053526911146494,0.005352691114688,0.0053526911147105,-0.0012987107522859,0.0012987107515018,7.2275600265318e-12,-8.026206687248e-12,3.4629647970378e-14,-7.8196422917662e-13,-0.0013613554828004,0.0013613554870969,-0.0013613554870882,0.0013613554819904,-0.0013613554827062,0.0013613554869102,-0.0013613554878602,0.0013613554818048,-0.0012309046777408,0.0012309046921292,-0.0012309046934724,0.0012309046763446,3.3669712589863e-13,1.1634989853164e-12,1.6681967730278e-12,4.1078953889686e-13,-0.0012987107511754,0.0012987107525493,-0.0013613554836726,0.0013613554855518,-0.0013613554845426,0.0013613554853294,-0.0013613554833242,0.001361355485908,-0.0013613554836776,0.0013613554856142,-0.0012309046829417,0.0012309046867732,-0.001230904684004,0.0012309046846933,-0.0012309046845539,0.001230904685592,-0.0012309046839692,0.0012309046861807,-7.1371083191811e-12,8.0858255129927e-12,-0.0012987107514442,0.0012987107523337,-1.8345148391839e-13,1.0690100483592e-12,-0.0013613554873742,0.0013613554825595,-0.0013613554865641,0.0013613554824851,-0.0013613554824152,0.0013613554880353,-0.0013613554814683,0.0013613554877947,-0.0012309046751069,0.0012309046925434,-0.0012309046905711,0.0012309046759428,0.003496371951277,0.0034347606358754,0.73608808364529,0.64737108937226,1368840,32768,0.0053964750127204,0.0053964750125899,0.0053964750127002,17.425048263652,17.407735934967,5.4600386109213e-05,5.4600386109213e-05,5.4600386109213e-05,562728.80712217,0.016322126826621
20974446,0.99891424948943,0.016058383515091,0.005352794504997,0.0053527945050355,0.005352794505058,-0.0012976129112892,0.0012976129105506,7.3798344922984e-12,-8.1337841655358e-12,2.8489129676644e-14,-6.8789386766747e-13,-0.0013604375395439,0.0013604375435624,-0.0013604375444226,0.0013604375389879,-0.0013604375390317,0.0013604375434354,-0.0013604375444557,0.0013604375384739,-0.0012296419676363,0.0012296419819386,-0.0012296419828091,0.0012296419659338,1.1822127077427e-13,8.4962975027669e-13,1.332073276664e-12,8.9745464220025e-14,-0.0012976129105565,0.0012976129112988,-0.0013604375409024,0.0013604375418905,-0.0013604375409386,0.0013604375418894,-0.0013604375406805,0.0013604375422433,-0.0013604375407933,0.0013604375419199,-0.0012296419735197,0.0012296419756265,-0.0012296419757454,0.0012296419752279,-0.0012296419752408,0.0012296419757692,-0.0012296419741309,0.001229641976033,-7.3140296202392e-12,8.1674369904063e-12,-0.001297612910515,0.0012976129113694,-2.1877152256251e-13,1.0186588218487e-12,-0.0013604375442134,0.0013604375392431,-0.001360437543378,0.001360437539682,-0.0013604375390584,0.0013604375447175,-0.0013604375381137,0.0013604375446092,-0.0012296419668738,0.001229641983915,-0.0012296419825549,0.0012296419684323,0.0034911957639836,0.0034342067562372,0.73239694683042,0.59251082312035,1368840,32768,0.0053919246621461,0.0053919246621781,0.0053919246622386,17.030612985804,17.013291466328,5.1444903886429e-05,5.1444903886429e-05,5.1444903886429e-05,572601.37539777,0.01630825490931
21060846,0.99893283067393,0.01605868075779,0.0053528935858969,0.0053528935859355,0.005352893585958,-0.0012965212327858,0.0012965212321444,7.4654500532724e-12,-8.0616586042163e-12,9.8466580148861e-14,-8.1567214059953e-13,-0.0013595299612899,0.0013595299660152,-0.0013595299663216,0.0013595299609612,-0.0013595299617597,0.0013595299658108,-0.0013595299667094,0.0013595299607826,-0.0012283837352508,0.0012283837495101,-0.0012283837501181,0.0012283837345504,1.533635795538e-13,1.077600138879e-12,1.6055307462554e-12,1.8571773821528e-13,-0.0012965212319195,0.0012965212330272,-0.0013595299629578,0.0013595299644279,-0.0013595299634006,0.0013595299639889,-0.001359529962584,0.0013595299647729,-0.0013595299630757,0.0013595299642811,-0.0012283837403861,0.0012283837440373,-0.0012283837422099,0.0012283837427484,-0.0012283837421162,0.0012283837421765,-0.0012283837415205,0.0012283837433672,-7.3663034350747e-12,8.1297053195535e-12,-0.0012965212321146,0.0012965212328513,-3.5315088795337e-13,1.0613099600622e-12,-0.0013595299663122,0.0013595299613538,-0.0013595299656304,0.0013595299615721,-0.0013595299611229,0.0013595299666033,-0.0013595299604263,0.0013595299668606,-0.0012283837341739,0.0012283837504812,-0.0012283837495036,0.0012283837357017,0.0034860529560579,0.003433661647122,0.73250696517588,0.60169049105856,1368840,32768,0.0053873998952305,0.0053873998952647,0.0053873998953046,16.636169077257,16.618846997691,4.8289352618057e-05,4.8289352618057e-05,4.8289352618057e-05,582487.00930776,0.016294461002434
21147246,0.99895064369835,0.016058965736572,0.0053529885788242,0.0053529885788628,0.0053529885788853,-0.0012958349333746,0.0012958349329047,7.5221410861062e-12,-8.0284746179643e-12,2.2325276801648e-13,-6.7352624776487e-13,-0.0013588196859721,0.0013588196911604,-0.0013588196914544,0.0013588196860913,-0.0013588196865396,0.0013588196907655,-0.0013588196913956,0.0013588196858939,-0.0012277208074545,0.0012277208218767,-0.001227720822178,0.0012277208070009,2.2911023613367e-13,1.1374433695329e-12,1.5734264034916e-12,2.9525745067579e-13,-0.0012958349325011,0.0012958349337404,-0.0013588196877825,0.0013588196896767,-0.001358819688115,0.0013588196890484,-0.0013588196874663,0.0013588196898329,-0.001358819687969,0.0013588196894255,-0.0012277208125348,0.0012277208159197,-0.0012277208141876,0.001227720814914,-0.0012277208147163,0.0012277208149852,-0.0012277208135536,0.0012277208152489,-7.3902461742287e-12,8.1290151641667e-12,-0.0012958349327898,0.0012958349334961,-2.8644371992921e-13,9.8700820051816e-13,-0.0013588196917537,0.001358819686674,-0.0013588196904243,0.0013588196864485,-0.0013588196859022,0.0013588196912629,-0.0013588196855156,0.0013588196917388,-0.001227720806783,0.0012277208225224,-0.0012277208215267,0.0012277208079069,0.0034825458346714,0.0034331252702363,0.73267541332719,0.61087015899676,1368840,32768,0.0053845558050799,0.0053845558050016,0.0053845558050936,16.241724575018,16.224402529053,4.513379660014e-05,4.513379660014e-05,4.513379660014e-05,579924.31335869,0.016285789345223
21233646,0.99896772629447,0.016059239120236,0.0053530797067122,0.0053530797067508,0.0053530797067732,-0.0012951486244071,0.0012951486238094,7.4697853325973e-12,-8.0806069665333e-12,1.4247976498804e-13,-7.4354105003719e-13,-0.0013581077910118,0.0013581077958294,-0.0013581077961233,0.0013581077907215,-0.0013581077914454,0.0013581077956343,-0.0013581077965076,0.0013581077905601,-0.0012270590651717,0.0012270590793476,-0.0012270590802094,0.0012270590642757,1.8899046176524e-13,1.0859318255281e-12,1.5297651490777e-12,2.6996304693187e-13,-0.0012951486235606,0.0012951486246736,-0.0013581077927412,0.0013581077941952,-0.0013581077931621,0.0013581077938124,-0.0013581077924254,0.0013581077945539,-0.0013581077928518,0.0013581077940723,-0.0012270590705709,0.0012270590739509,-0.0012270590718631,0.0012270590726753,-0.0012270590722563,0.0012270590723822,-0.0012270590713607,0.0012270590731641,-7.3863905273102e-12,8.1332048008821e-12,-0.0012951486237598,0.0012951486244853,-2.6461644556099e-13,9.9023013150214e-13,-0.0013581077961441,0.0013581077911062,-0.0013581077954518,0.0013581077913096,-0.0013581077908027,0.0013581077963952,-0.0013581077901651,0.001358107796576,-0.0012270590640409,0.0012270590803703,-0.0012270590792108,0.0012270590652254,0.0034790520216114,0.0034325975942359,0.73289608480156,0.62004982693497,1368840,32768,0.005381711659427,0.0053817116594638,0.0053817116594863,15.847280023587,15.829958060415,4.1978240188692e-05,4.1978240188692e-05,4.1978240188692e-05,577320.76828189,0.016277117613259
21320046,0.99898422106444,0.016059503198025,0.0053531677326417,0.0053531677326803,0.0053531677327028,-0.0012946592084287,0.001294659207834,7.4726456569811e-12,-8.077712466723e-12,1.3584443828095e-13,-7.4091230681408e-13,-0.0013575907605651,0.0013575907653769,-0.0013575907656672,0.0013575907602695,-0.0013575907609933,0.0013575907651832,-0.0013575907660554,0.00135759076011,-0.0012265956460028,0.0012265956602064,-0.0012265956610649,0.0012265956450924,1.9719982862177e-13,1.0849187388302e-12,1.5294989513275e-12,2.8735057457837e-13,-0.001294659207582,0.001294659208698,-0.0013575907622983,0.0013575907637291,-0.0013575907627062,0.001357590763359,-0.0013575907619831,0.0013575907640904,-0.0013575907623951,0.0013575907636169,-0.0012265956514428,0.0012265956548669,-0.001226595652665,0.0012265956535648,-0.0012265956530446,0.0012265956531903,-0.001226595652228,0.0012265956540401,-7.3970570838071e-12,8.1224935986902e-12,-0.0012946592077887,0.0012946592085022,-2.5680853702841e-13,9.8052395743086e-13,-0.0013575907656756,0.0013575907606406,-0.0013575907650109,0.0013575907608522,-0.0013575907603446,0.0013575907659418,-0.001357590759724,0.001357590766114,-0.0012265956448762,0.0012265956612228,-0.001226595660071,0.0012265956460388,0.0034763898838868,0.0034320791258356,0.7331633155381,0.62922949487318,1368840,32768,0.0053796834964508,0.0053796834964866,0.0053796834965092,15.55494546083,15.542005369231,3.9639563686638e-05,3.9639563686638e-05,3.9639563686638e-05,574660.73726565,0.016270933700586
21406446,0.99900015781214,0.016059758457844,0.005353252819248,0.0053532528192866,0.0053532528193091,-0.0012941796648896,0.0012941796642546,7.4561728072741e-12,-8.1214500129239e-12,7.602738329798e-14,-8.0652665528195e-13,-0.0013570847964263,0.0013570848012648,-0.0013570848015358,0.0013570847961502,-0.0013570847968644,0.0013570848010736,-0.0013570848019062,0.0013570847959883,-0.001226141315898,0.001226141330306,-0.0012261413311956,0.0012261413149652,1.8616613628174e-13,1.0778854831031e-12,1.4255392448722e-12,3.4705319188086e-13,-0.0012941796640326,0.0012941796651283,-0.0013570847981828,0.0013570847995584,-0.0013570847985224,0.0013570847992789,-0.0013570847978201,0.0013570847998747,-0.0013570847982275,0.0013570847994944,-0.0012261413215595,0.001226141324756,-0.0012261413223507,0.0012261413234466,-0.0012261413229529,0.0012261413229699,-0.0012261413222473,0.0012261413242127,-7.4322029513015e-12,8.1154340202378e-12,-0.0012941796642728,0.0012941796649125,-2.3459095105453e-13,8.4008907114965e-13,-0.00135708480153,0.0013570847965515,-0.0013570848009331,0.0013570847966566,-0.0013570847962301,0.001357084801804,-0.0013570847956552,0.001357084801865,-0.001226141314764,0.0012261413312344,-0.00122614133019,0.0012261413157919,0.0034737830063965,0.0034315697862187,0.7334738355338,0.63840916281138,1368840,32768,0.0053776962306734,0.005377696230708,0.0053776962307584,15.267918629616,15.255305079421,3.7343349036928e-05,3.7343349036928e-05,3.7343349036928e-05,572024.29356211,0.016264874573144
21492846,0.99901555960169,0.01606000777144,0.0053533359237802,0.0053533359238188,0.0053533359238413,-0.0012937005739318,0.001293700573317,7.4416908967454e-12,-8.0866286061058e-12,8.7102692013725e-14,-7.0973696508172e-13,-0.0013565791396577,0.001356579144374,-0.0013565791446408,0.0013565791393157,-0.0013565791400084,0.0013565791441969,-0.001356579145066,0.0013565791391579,-0.0012256876185735,0.0012256876328795,-0.0012256876335738,0.0012256876178136,1.8979702536057e-13,9.97531879027e-13,1.4132137684659e-12,3.5629261550516e-13,-0.0012937005731044,0.0012937005741649,-0.0013565791413641,0.0013565791427286,-0.001356579141755,0.0013565791424125,-0.0013565791410418,0.001356579143071,-0.0013565791413543,0.0013565791426133,-0.0012256876242084,0.0012256876274332,-0.0012256876252057,0.0012256876262146,-0.0012256876257872,0.0012256876258161,-0.0012256876251614,0.0012256876266131,-7.4062548028231e-12,8.091200819369e-12,-0.0012937005733264,0.0012937005739517,-2.4277540690738e-13,8.1024095357739e-13,-0.0013565791447313,0.0013565791396549,-0.0013565791441527,0.0013565791397643,-0.0013565791393953,0.0013565791449494,-0.0013565791388134,0.0013565791450546,-0.0012256876174613,0.0012256876335642,-0.0012256876326985,0.001225687618572,0.0034711903826954,0.003431069888152,0.74129229501043,0.78321325531459,1368840,32768,0.0053757108333135,0.0053757108333559,0.0053757108333743,14.981195657002,14.968604789612,3.5049565256014e-05,3.5049565256014e-05,3.5049565256014e-05,569380.29773766,0.016258821191359
21579246,0.99903044809138,0.016060249857711,0.0053534166192039,0.0053534166192424,0.0053534166192649,-0.001294012927012,0.001294012926717,7.5753717540634e-12,-7.7635540640466e-12,9.7052329235608e-14,-5.524472995848e-13,-0.0013564729481419,0.0013564729531709,-0.0013564729532704,0.0013564729486522,-0.0013564729490487,0.0013564729534337,-0.0013564729543476,0.001356472948331,-0.0012263878206433,0.0012263878350196,-0.0012263878349087,0.0012263878192875,4.2862349408177e-13,1.0854493696786e-12,1.7961444819602e-12,4.6638363465304e-13,-0.0012940129261589,0.0012940129275094,-0.0013564729499339,0.0013564729515649,-0.0013564729500721,0.0013564729511103,-0.0013564729501579,0.0013564729516351,-0.0013564729499493,0.0013564729514306,-0.0012263878251175,0.0012263878289446,-0.0012263878277146,0.0012263878279778,-0.0012263878270606,0.0012263878281472,-0.001226387827668,0.0012263878277597,-7.1023876151689e-12,8.2064855327942e-12,-0.0012940129263906,0.0012940129273356,-2.0954721612344e-13,1.1154082779839e-12,-0.0013564729532341,0.0013564729485664,-0.0013564729526722,0.0013564729487482,-0.0013564729484787,0.0013564729539267,-0.001356472947623,0.0013564729535375,-0.0012263878185687,0.001226387835527,-0.0012263878332705,0.0012263878201486,0.0034717690892856,0.0034305790621474,0.74460596526396,0.82295571023699,1368840,32768,0.0053770068629157,0.00537700686279,0.0053770068629099,14.69449317394,14.681904499802,3.2755945391521e-05,3.2755945391521e-05,3.2755945391521e-05,543039.66255325,0.016262767904168
21665646,0.99904484388353,0.016060481055709,0.0053534936852031,0.0053534936852416,0.0053534936852641,-0.0012937050579105,0.0012937050572929,7.4299501377705e-12,-8.1240174639018e-12,8.6862875810534e-14,-7.416704601236e-13,-0.0013560434443955,0.0013560434492535,-0.0013560434494896,0.0013560434440638,-0.0013560434448156,0.0013560434491267,-0.0013560434498913,0.0013560434439318,-0.0012261862085477,0.0012261862225626,-0.0012261862234992,0.0012261862070918,2.1197984769057e-13,1.05150834773e-12,1.4552472490778e-12,3.9240586521135e-13,-0.0012937050570559,0.0012937050581647,-0.0013560434461542,0.0013560434475447,-0.001356043446556,0.0013560434472399,-0.0013560434458643,0.001356043447902,-0.0013560434462296,0.0013560434475027,-0.0012261862132987,0.0012261862169681,-0.0012261862150405,0.0012261862161002,-0.0012261862153464,0.0012261862159428,-0.0012261862149317,0.0012261862161328,-7.4335539100306e-12,8.0896472197716e-12,-0.0012937050572867,0.0012937050579439,-2.0132682019207e-13,8.5738292518722e-13,-0.0013560434495278,0.0013560434444668,-0.0013560434489324,0.0013560434445938,-0.0013560434441352,0.0013560434498465,-0.001356043443675,0.001356043449888,-0.001226186207098,0.0012261862236642,-0.0012261862220852,0.0012261862080645,0.0034698945854145,0.0034300964856299,0.73512587915039,0.65543795586462,1368840,32768,0.0053757312497058,0.0053757312497414,0.0053757312497622,14.407794176658,14.395204209993,3.0462353413264e-05,3.0462353413264e-05,3.0462353413264e-05,534898.73607889,0.016258877938839
21752046,0.9990587665928,0.016060704275883,0.0053535680919276,0.0053535680919662,0.0053535680919887,-0.0012922164752727,0.0012922164747173,7.4763316620232e-12,-8.0375050479732e-12,1.0371506687002e-13,-6.7851644825885e-13,-0.0013550314841787,0.0013550314889877,-0.0013550314892605,0.0013550314838968,-0.0013550314845834,0.00135503148883,-0.0013550314896251,0.0013550314837552,-0.0012242607797661,0.0012242607940724,-0.0012242607948249,0.0012242607789504,2.2317582919044e-13,1.0164453012349e-12,1.4584390045131e-12,3.5293686507986e-13,-0.0012922164744589,0.0012922164755496,-0.0013550314859347,0.0013550314873327,-0.001355031486315,0.0013550314870047,-0.001355031485658,0.001355031487663,-0.001355031486035,0.0013550314872507,-0.0012242607852683,0.0012242607886871,-0.0012242607864223,0.0012242607875686,-0.001224260786786,0.0012242607870681,-0.0012242607860318,0.0012242607877995,-7.3942541694343e-12,8.0886102514502e-12,-0.001292216474673,0.0012922164753464,-2.1316025280648e-13,8.8815816149547e-13,-0.0013550314892882,0.0013550314842665,-0.0013550314886599,0.0013550314844445,-0.0013550314839744,0.0013550314895421,-0.0013550314833959,0.0013550314896775,-0.0012242607787715,0.0012242607950238,-0.0012242607939943,0.0012242607798895,0.0034633099657704,0.0034296224784223,0.73378616000863,0.63632468502049,1368840,32768,0.0053695603344898,0.005369560334528,0.0053695603345506,14.121093982033,14.108503920183,2.816875185626e-05,2.816875185626e-05,2.816875185626e-05,562525.76730623,0.016240069591704
21838446,0.99907225337543,0.01606092000909,0.0053536400029969,0.0053536400030355,0.0053536400030579,-0.0012916009914591,0.0012916009909249,7.4685506056115e-12,-8.0099424194044e-12,1.1065756066395e-13,-6.8620268403785e-13,-0.0013544769538079,0.0013544769586307,-0.0013544769588896,0.0013544769535738,-0.0013544769541639,0.0013544769584936,-0.0013544769592991,0.0013544769534314,-0.0012235899433342,0.0012235899575043,-0.0012235899579406,0.001223589942219,2.4667172905388e-13,1.0541882658603e-12,1.451855999737e-12,3.3020797119667e-13,-0.0012916009906588,0.0012916009917525,-0.0013544769555625,0.0013544769569145,-0.0013544769559613,0.0013544769565637,-0.0013544769553231,0.0013544769573078,-0.0013544769555803,0.0013544769568106,-0.0012235899486984,0.0012235899518969,-0.001223589949658,0.0012235899506029,-0.0012235899501229,0.0012235899506365,-0.001223589949612,0.0012235899513198,-7.3732992213582e-12,8.0740280204568e-12,-0.0012916009908994,0.0012916009915414,-2.2331376615303e-13,8.9353782067998e-13,-0.0013544769589716,0.0013544769538916,-0.0013544769584124,0.0013544769539952,-0.0013544769535942,0.0013544769591909,-0.0013544769531007,0.0013544769593055,-0.0012235899418204,0.0012235899583471,-0.0012235899569869,0.0012235899432469,0.0034602230963976,0.0034291569811359,0.73237851588814,0.61721141417636,1368840,32768,0.0053670093617273,0.0053670093617839,0.0053670093618451,13.855598622368,13.84391846184,2.6044788978944e-05,2.6044788978944e-05,2.6044788978944e-05,565224.22442101,0.016232292969067
21924846,0.99908566229876,0.016061134050293,0.0053537113500646,0.0053537113501031,0.0053537113501256,-0.001291753433327,0.0012917534327443,7.4748499425828e-12,-8.0205119200428e-12,9.7345849680525e-14,-7.1053829354286e-13,-0.0013546854382715,0.0013546854430663,-0.0013546854433618,0.0013546854379486,-0.0013546854387177,0.0013546854428377,-0.0013546854437525,0.0013546854378012,-0.0012236901489112,0.001223690163151,-0.0012236901637963,0.0012236901479553,2.4053571062268e-13,1.0595382788917e-12,1.4484061933615e-12,3.2747023130334e-13,-0.0012917534324915,0.0012917534335916,-0.0013546854399911,0.0013546854413782,-0.0013546854403513,0.001354685441079,-0.0013546854396713,0.0013546854417257,-0.0013546854400923,0.0013546854413197,-0.0012236901541312,0.0012236901574962,-0.0012236901553443,0.0012236901564232,-0.0012236901558485,0.0012236901559755,-0.0012236901549312,0.0012236901568636,-7.3624109069299e-12,8.1019558143407e-12,-0.0012917534327007,0.001291753433405,-1.9864290218393e-13,9.1788416515117e-13,-0.0013546854433586,0.0013546854383561,-0.0013546854427333,0.0013546854385255,-0.0013546854380951,0.0013546854436332,-0.0013546854374543,0.0013546854438045,-0.0012236901475397,0.0012236901638786,-0.0012236901627369,0.0012236901488156,0.003460339416886,0.0034287016842212,0.73090926927713,0.59809814333223,1368840,32768,0.0053676409856433,0.0053676409856676,0.0053676409857145,13.989255808585,13.994724512033,2.7114046468681e-05,2.7114046468681e-05,2.7114046468681e-05,567880.06249133,0.016234218958106
22011246,0.99909900585983,0.016061346596642,0.0053537821988474,0.005353782198886,0.0053537821989085,-0.0012919339823172,0.0012919339817076,7.4264857141945e-12,-8.0465575361318e-12,9.3888837642811e-14,-7.0699328419341e-13,-0.0013549301998202,0.0013549302045383,-0.001354930204856,0.0013549301995174,-0.0013549302001998,0.0013549302043466,-0.001354930205212,0.001354930199314,-0.0012238127549912,0.0012238127692626,-0.0012238127701102,0.0012238127540223,2.1521160190388e-13,1.0267041643043e-12,1.3714101337735e-12,3.4544744681762e-13,-0.0012919339814987,0.0012919339825446,-0.0013549302015592,0.0013549302029345,-0.0013549302019002,0.0013549302026173,-0.0013549302012572,0.0013549302032144,-0.0013549302016014,0.0013549302028744,-0.0012238127606903,0.0012238127636589,-0.0012238127616779,0.0012238127626311,-0.0012238127619564,0.0012238127622829,-0.0012238127613112,0.0012238127630976,-7.3854876725388e-12,8.0566167288304e-12,-0.0012919339816974,0.0012919339823547,-1.8906940053018e-13,8.3287740910804e-13,-0.001354930204845,0.0013549301998964,-0.0013549302042609,0.0013549302000353,-0.0013549301995863,0.0013549302051749,-0.0013549301990415,0.0013549302052462,-0.0012238127539895,0.0012238127703098,-0.0012238127692379,0.0012238127550319,0.0034605887669168,0.0034282564491109,0.729386322488,0.5789848724881,1368840,32768,0.0053683890641874,0.0053683890642257,0.0053683890642442,14.138985532343,14.145530562225,2.8311884258741e-05,2.8311884258741e-05,2.8311884258741e-05,570787.49867977,0.016236500152669
22097646,0.99911228319192,0.016061557625213,0.0053538525417044,0.005353852541743,0.0053538525417655,-0.0012921137346056,0.0012921137340167,7.4833838583482e-12,-8.0556880219076e-12,1.404198279177e-13,-7.1474169454361e-13,-0.0013551761828599,0.0013551761876302,-0.0013551761878965,0.0013551761825875,-0.0013551761834079,0.0013551761874924,-0.0013551761884476,0.001355176182517,-0.0012239330395864,0.0012239330541332,-0.0012239330548825,0.0012239330387351,1.7490603909351e-13,1.0409690226403e-12,1.3564500907926e-12,3.4278132238354e-13,-0.0012921137337917,0.0012921137348405,-0.0013551761846865,0.0013551761859879,-0.0013551761850307,0.001355176185696,-0.0013551761843945,0.0013551761863381,-0.0013551761846971,0.0013551761859566,-0.0012239330454434,0.0012239330483713,-0.0012239330463381,0.0012239330474027,-0.0012239330466663,0.0012239330470849,-0.001223933045924,0.0012239330477845,-7.4642493840697e-12,8.0436271256538e-12,-0.0012921137340276,0.0012921137346239,-2.0480786090749e-13,8.0485400049805e-13,-0.0013551761880368,0.0013551761829811,-0.0013551761874066,0.0013551761831095,-0.0013551761826706,0.0013551761882814,-0.0013551761822122,0.0013551761883383,-0.0012239330386042,0.001223933054954,-0.0012239330540514,0.0012239330395909,0.0034608452580242,0.0034278210621606,0.72781617757806,0.55987160164397,1368840,32768,0.0053691338400893,0.0053691338401097,0.0053691338401499,14.289719314137,14.296336612418,2.9517754513095e-05,2.9517754513095e-05,2.9517754513095e-05,573806.6382251,0.016238771286501
22184046,0.99912549261462,0.016061767101653,0.0053539223671844,0.005353922367223,0.0053539223672455,-0.0012922909054154,0.0012922909047668,7.414058035028e-12,-8.0807401977573e-12,1.1719030226965e-13,-7.947448975595e-13,-0.0013554211187443,0.0013554211234667,-0.0013554211237763,0.0013554211184508,-0.0013554211192039,0.0013554211233503,-0.0013554211242119,0.0013554211182802,-0.0012240495185313,0.0012240495327971,-0.0012240495337216,0.0012240495175204,1.8067492168163e-13,1.1038465723626e-12,1.4257167982716e-12,3.3959709613006e-13,-0.0012922909045496,0.0012922909056574,-0.0013554211204823,0.0013554211218364,-0.0013554211209161,0.001355421121515,-0.0013554211202089,0.0013554211221674,-0.0013554211204907,0.0013554211217788,-0.0012240495238631,0.0012240495270434,-0.0012240495252234,0.0012240495260718,-0.001224049525344,0.0012240495257734,-0.0012240495246113,0.001224049526508,-7.3766917059555e-12,8.0874318756841e-12,-0.0012922909047597,0.0012922909054476,-1.9864460801417e-13,8.8320819506649e-13,-0.0013554211237668,0.0013554211188128,-0.001355421123184,0.0013554211189087,-0.0013554211184652,0.0013554211241349,-0.0013554211179064,0.0013554211241952,-0.0012240495171696,0.0012240495336175,-0.0012240495324531,0.0012240495182005,0.0034611009647969,0.0034273953093046,0.72620422163614,0.54075833079984,1368840,32768,0.0053698679177511,0.0053698679178024,0.0053698679178031,14.440520403484,14.44714266261,3.0724163227874e-05,3.0724163227874e-05,3.0724163227874e-05,576926.12403978,0.016241009803658
22270446,0.99913863240614,0.016061976903535,0.0053539923011453,0.0053539923011838,0.0053539923012063,-0.0012924655337813,0.0012924655331727,7.4516234168431e-12,-8.0682045807118e-12,1.4195860443855e-13,-7.6013495486949e-13,-0.0013556650958652,0.0013556651006546,-0.0013556651009435,0.0013556650955661,-0.001355665096301,0.0013556651004498,-0.0013556651013432,0.0013556650953913,-0.0012241622654912,0.001224162279626,-0.0012241622804629,0.0012241622645055,1.8827189548165e-13,1.1013360608217e-12,1.442424581978e-12,4.0405303880996e-13,-0.0012924655329206,0.0012924655340482,-0.0013556650976156,0.0013556650989728,-0.0013556650979487,0.0013556650986718,-0.0013556650972879,0.0013556650993439,-0.0013556650976333,0.001355665098949,-0.0012241622709579,0.0012241622743264,-0.0012241622719301,0.0012241622732047,-0.0012241622725143,0.0012241622727371,-0.0012241622716875,0.0012241622736184,-7.4223447230518e-12,8.0664849273637e-12,-0.0012924655331696,0.0012924655338103,-1.9156308905559e-13,8.4282648752346e-13,-0.0013556651009448,0.0013556650959329,-0.0013556651003507,0.0013556650960707,-0.0013556650956425,0.0013556651012148,-0.0013556650950835,0.0013556651013193,-0.0012241622644813,0.0012241622806929,-0.0012241622796284,0.0012241622655503,0.0034613557657013,0.0034269793168601,0.73124374308104,0.63398831906822,1368840,32768,0.0053705914601994,0.00537059146023,0.0053705914602532,14.591326179504,14.597948712802,3.1930609436029e-05,3.1930609436029e-05,3.1930609436029e-05,580143.67608799,0.016243216198275
22356846,0.99915170085538,0.016062186039828,0.0053540620132427,0.0053540620132813,0.0053540620133038,-0.001293362222006,0.0012933622214089,7.4668815389533e-12,-8.0924201938826e-12,1.7348317079645e-13,-7.6771401745198e-13,-0.0013562668843634,0.0013562668892244,-0.0013562668894763,0.0013562668840776,-0.0013562668848076,0.0013562668890242,-0.0013562668899167,0.0013562668839102,-0.0012253314165673,0.0012253314305577,-0.0012253314316068,0.0012253314156403,1.83379456707e-13,1.1353517863705e-12,1.5406800215182e-12,3.5518947273483e-13,-0.0012933622211386,0.0012933622223098,-0.0013562668861555,0.0013562668875658,-0.0013562668865304,0.0013562668872541,-0.0013562668858261,0.0013562668879917,-0.0013562668862115,0.0013562668874879,-0.0012253314217092,0.0012253314253268,-0.0012253314230177,0.0012253314240591,-0.0012253314234142,0.0012253314235824,-0.0012253314224888,0.0012253314243897,-7.4283375399754e-12,8.1003315110208e-12,-0.0012933622213996,0.0012933622220544,-2.5404335679689e-13,9.2663448607016e-13,-0.0013562668895328,0.0013562668844618,-0.001356266888896,0.0013562668846404,-0.0013562668841843,0.001356266889773,-0.0013562668835835,0.001356266889939,-0.0012253314154095,0.0012253314315358,-0.0012253314304315,0.0012253314162825,0.0034645127640893,0.0034265727140515,0.73294479087857,0.66560106431234,1368840,32768,0.0053743086729351,0.0053743086730047,0.0053743086730162,14.742132254258,14.748754762995,3.3137058034059e-05,3.3137058034059e-05,3.3137058034059e-05,561279.37787208,0.016254545973166
22443246,0.99916469626694,0.016062394497645,0.0053541314991817,0.0053541314992203,0.0053541314992427,-0.0012938606138712,0.0012938606132833,7.467087591482e-12,-8.0623721706526e-12,1.0938795239079e-13,-7.0626548289783e-13,-0.0013566693586975,0.0013566693635234,-0.001356669363797,0.0013566693584047,-0.0013566693591437,0.0013566693633504,-0.0013566693641939,0.0013566693582892,-0.0012259184505926,0.0012259184648358,-0.0012259184656886,0.0012259184497015,2.3794643678204e-13,1.0643954834486e-12,1.4996879208576e-12,3.420088165713e-13,-0.0012938606130217,0.0012938606141462,-0.0013566693604668,0.001356669361888,-0.0013566693608522,0.0013566693615242,-0.0013566693601666,0.0013566693622363,-0.0013566693605566,0.0013566693617987,-0.001225918456095,0.001225918459534,-0.0012259184572547,0.0012259184582752,-0.0012259184575492,0.00122591845796,-0.0012259184568351,0.0012259184585638,-7.4000314635301e-12,8.0987988519602e-12,-0.0012938606132493,0.0012938606139349,-2.3124146514373e-13,9.2193157091746e-13,-0.001356669363824,0.0013566693588035,-0.0013566693631866,0.0013566693589975,-0.0013566693584944,0.0013566693640967,-0.0013566693578782,0.0013566693642128,-0.001225918449605,0.0012259184659178,-0.0012259184648597,0.0012259184507164,0.003466087113297,0.0034261753142793,0.73448653901602,0.69239417442823,1368840,32768,0.0053763745049568,0.0053763745049845,0.0053763745050183,14.892938362662,14.899560813187,3.4343506901298e-05,3.4343506901298e-05,3.4343506901298e-05,554550.37408116,0.016260843232803
22529646,0.9991776169607,0.016062602020912,0.0053542006736042,0.0053542006736428,0.0053542006736653,-0.0012943275276103,0.0012943275270428,7.4286670593206e-12,-8.0046636983127e-12,1.1573311149171e-13,-7.0066424224718e-13,-0.0013570562131296,0.0013570562179094,-0.001357056218199,0.001357056212839,-0.0013570562135327,0.0013570562177448,-0.0013570562185597,0.0013570562127047,-0.0012264591175304,0.0012264591316248,-0.0012264591324631,0.0012264591166259,2.1250474342007e-13,1.0398965848143e-12,1.417530313069e-12,3.6724007518543e-13,-0.0012943275267905,0.0012943275278804,-0.0013570562148868,0.0013570562162542,-0.0013570562152307,0.0013570562159503,-0.0013570562145983,0.0013570562165902,-0.0013570562149415,0.0013570562161811,-0.0012264591230041,0.0012264591261934,-0.001226459124072,0.00122645912512,-0.0012264591244747,0.0012264591246123,-0.0012264591236738,0.0012264591255366,-7.3713555160312e-12,8.0313603533365e-12,-0.0012943275270176,0.0012943275276638,-1.9589069214441e-13,8.5044366658858e-13,-0.0013570562182126,0.0013570562132038,-0.0013570562176143,0.0013570562133544,-0.001357056212914,0.0013570562184742,-0.0013570562123568,0.0013570562185822,-0.0012264591164707,0.0012264591325722,-0.0012264591315098,0.0012264591174717,0.0034675460635503,0.0034257868774103,0.73535649107121,0.70527439749112,1368840,32768,0.0053783098136073,0.0053783098136443,0.005378309813666,15.043744452264,15.05036686338,3.5549955618114e-05,3.5549955618114e-05,3.5549955618114e-05,548773.83540491,0.01626674278722
22616046,0.99919045542941,0.016062808502844,0.0053542695009147,0.0053542695009532,0.0053542695009757,-0.001294698484224,0.0012946984836716,7.4473424299773e-12,-8.0131906142919e-12,1.1489272540022e-13,-6.6116615476899e-13,-0.0013573882190295,0.0013573882238088,-0.0013573882240939,0.0013573882187259,-0.0013573882194131,0.0013573882236526,-0.0013573882244487,0.0013573882186055,-0.0012268656099917,0.0012268656242028,-0.001226865625024,0.0012268656092934,2.1404972563369e-13,1.0009810677743e-12,1.4180823844389e-12,3.6851415391026e-13,-0.0012946984834192,0.0012946984844936,-0.0013573882207663,0.0013573882221395,-0.001357388221106,0.0013573882218268,-0.0013573882204907,0.0013573882224729,-0.0013573882208433,0.0013573882220414,-0.0012268656154851,0.0012268656187799,-0.0012268656166038,0.0012268656176136,-0.001226865616983,0.0012268656172649,-0.0012268656163222,0.0012268656180003,-7.3991160797298e-12,8.0308389575001e-12,-0.0012946984836442,0.0012946984842799,-2.0230355505938e-13,8.4340958735722e-13,-0.0013573882241113,0.0013573882190975,-0.0013573882235024,0.0013573882192467,-0.0013573882188061,0.0013573882243668,-0.0013573882182433,0.0013573882244812,-0.0012268656089601,0.0012268656249752,-0.0012268656240954,0.0012268656099523,0.0034686297020996,0.0034254071828298,0.73629607001798,0.718154620554,1368840,32768,0.005379847287037,0.0053798472870725,0.005379847287096,15.187432236886,15.193749146077,3.6699457895082e-05,3.6699457895082e-05,3.6699457895082e-05,545464.96525476,0.01627142992107
22702446,0.99920313563113,0.016063012731521,0.0053543375771405,0.0053543375771791,0.0053543375772015,-0.0012948917713186,0.0012948917707495,7.436283061951e-12,-8.0192231358849e-12,1.0952706578803e-13,-6.8934752914146e-13,-0.0013575439908227,0.0013575439956066,-0.0013575439958911,0.0013575439905308,-0.0013575439912246,0.0013575439954364,-0.0013575439962559,0.0013575439903986,-0.001227093130617,0.0012270931447857,-0.0012270931456065,0.001227093129765,2.2249884987169e-13,1.0323256396309e-12,1.4077327300255e-12,3.8693538527194e-13,-0.0012948917704972,0.0012948917715878,-0.0013575439925768,0.0013575439939343,-0.0013575439929072,0.0013575439936372,-0.0013575439922859,0.0013575439942677,-0.0013575439926248,0.0013575439938663,-0.0012270931361433,0.0012270931393418,-0.0012270931371889,0.0012270931382627,-0.0012270931375743,0.001227093137862,-0.0012270931368158,0.0012270931386403,-7.3929365038057e-12,8.0319365416167e-12,-0.0012948917707326,0.0012948917713636,-1.8839889160201e-13,8.2852342447222e-13,-0.0013575439959047,0.0013575439908976,-0.0013575439953143,0.001357543991033,-0.0013575439906042,0.0013575439961637,-0.0013575439900609,0.0013575439962644,-0.0012270931295968,0.0012270931456966,-0.0012270931447037,0.0012270931305891,0.0034689841553474,0.0034250356513898,0.73731447748957,0.7310348436169,1368840,32768,0.0053806484278653,0.0053806484279002,0.0053806484279235,15.239337026377,15.241708531162,3.7114696211011e-05,3.7114696211011e-05,3.7114696211011e-05,542191.48101608,0.016273872185933
22788846,0.9992156558711,0.016063214695244,0.0053544048983814,0.00535440489842,0.0053544048984425,-0.0012950775219228,0.0012950775213733,7.4499658204227e-12,-8.0037431970217e-12,1.0717425531183e-13,-6.6539326092792e-13,-0.0013576906848816,0.0013576906896605,-0.0013576906899494,0.0013576906845857,-0.001357690685279,0.0013576906895183,-0.0013576906903121,0.0013576906844631,-0.0012273137812234,0.0012273137954045,-0.0012273137961914,0.0012273137804581,2.3682835329167e-13,1.020338652884e-12,1.4103735317038e-12,3.7353400055739e-13,-0.0012950775211161,0.0012950775221959,-0.0013576906866324,0.0013576906879935,-0.0013576906869729,0.0013576906876885,-0.0013576906863517,0.001357690688315,-0.0013576906867019,0.0013576906879131,-0.0012273137867656,0.001227313789918,-0.001227313787826,0.0012273137888929,-0.0012273137881583,0.0012273137884882,-0.001227313787423,0.0012273137892596,-7.385814780193e-12,8.0373312297538e-12,-0.0012950775213411,0.0012950775219833,-1.8923554251348e-13,8.4372440126928e-13,-0.001357690689949,0.0013576906849492,-0.001357690689359,0.0013576906851026,-0.0013576906846694,0.0013576906902235,-0.0013576906841046,0.001357690690335,-0.0012273137802129,0.0012273137962535,-0.0012273137953055,0.0012273137812254,0.0034693153992132,0.0034246720994817,0.73842249477843,0.74391506667979,1368840,32768,0.0053814183359223,0.0053814183359552,0.0053814183359808,15.287544078862,15.289667916248,3.7500352630893e-05,3.7500352630893e-05,3.7500352630893e-05,538883.14559763,0.016276219213222
22875246,0.99922801735859,0.016063409117629,0.005354469705843,0.0053544697058816,0.0053544697059041,-0.0012952620115173,0.0012952620109765,7.3743143668168e-12,-7.9210860162594e-12,1.0758306635235e-13,-6.4539434246938e-13,-0.0013578361605546,0.0013578361652567,-0.0013578361656258,0.0013578361601974,-0.001357836160917,0.0013578361652022,-0.0013578361659747,0.0013578361602273,-0.0012275325379255,0.0012275325524897,-0.001227532552811,0.0012275325372013,2.5022194412666e-13,1.0143316011011e-12,1.4248701770765e-12,3.3328487719931e-13,-0.00129526201072,0.0012952620117905,-0.0013578361623021,0.0013578361636303,-0.0013578361625576,0.001357836163227,-0.0013578361620184,0.0013578361639892,-0.0013578361623757,0.0013578361634575,-0.0012275325436995,0.0012275325468569,-0.0012275325446312,0.0012275325454246,-0.0012275325450457,0.0012275325453872,-0.0012275325444019,0.001227532546097,-7.3297216114478e-12,7.9352941998562e-12,-0.0012952620109454,0.0012952620115779,-2.0708240906867e-13,8.8064830268121e-13,-0.0013578361655553,0.0013578361605875,-0.0013578361650057,0.0013578361607924,-0.0013578361602952,0.0013578361658915,-0.0013578361597687,0.0013578361659218,-0.0012275325367157,0.0012275325532014,-0.0012275325522052,0.0012275325382222,0.0034696510215578,0.0034243153933468,0.71986018886859,0.45649337357857,1368840,32768,0.0053821830083967,0.0053821830084313,0.0053821830084578,15.335519935999,15.337627301334,3.7884159487991e-05,3.7884159487991e-05,3.7884159487991e-05,535575.2556835,0.016278550313472
22961646,0.99924022147825,0.016063602365783,0.0053545341218943,0.0053545341219329,0.0053545341219554,-0.0012935584905516,0.0012935584899707,7.3428467398959e-12,-7.9349281816261e-12,1.1695966225672e-13,-7.1071869979628e-13,-0.0013570499113061,0.001357049916024,-0.0013570499163177,0.0013570499110078,-0.0013570499117144,0.001357049915849,-0.0013570499166899,0.0013570499108668,-0.0012249963971032,0.0012249964110585,-0.0012249964119078,0.0012249963962242,2.1703142866236e-13,1.0557403949144e-12,1.4231084367788e-12,3.6546907046488e-13,-0.0012935584897214,0.0012935584908177,-0.0013570499130218,0.0013570499143873,-0.0013570499133671,0.0013570499140798,-0.001357049912726,0.0013570499147291,-0.0013570499130729,0.0013570499143187,-0.0012249964025581,0.0012249964057631,-0.0012249964035912,0.001224996404607,-0.0012249964039738,0.0012249964042137,-0.0012249964032028,0.0012249964050601,-7.2927503291304e-12,7.9539058665767e-12,-0.0012935584899479,0.0012935584906027,-1.9057782503709e-13,8.6292760874212e-13,-0.0013570499163204,0.0013570499113804,-0.0013570499157228,0.0013570499115294,-0.0013570499110803,0.0013570499165928,-0.001357049910525,0.001357049916701,-0.0012249963960649,0.0012249964120094,-0.0012249964109778,0.0012249963970825,0.0034624172007984,0.0034239665128299,0.72473303985048,0.5463930877152,1368840,32768,0.0053751201521531,0.0053751201521877,0.0053751201522117,15.383480443845,15.385586686419,3.8267843550757e-05,3.8267843550757e-05,3.8267843550757e-05,590429.93149069,0.016257025703233
23048046,0.99925226962149,0.016063794086814,0.0053545980289047,0.0053545980289433,0.0053545980289658,-0.0012942645710389,0.001294264570475,7.3485889174175e-12,-7.9278345748015e-12,1.0956782924861e-13,-6.9575645100036e-13,-0.0013574636300548,0.0013574636348663,-0.0013574636349618,0.0013574636297291,-0.0013574636305387,0.001357463634617,-0.0013574636353659,0.001357463629581,-0.001225973150137,0.0012259731640392,-0.0012259731649285,0.001225973149224,2.3575726836552e-13,1.0521334462807e-12,1.4512857524518e-12,3.9603693075538e-13,-0.001294264570212,0.0012942645713398,-0.0013574636316749,0.0013574636331979,-0.0013574636320298,0.0013574636327975,-0.0013574636315843,0.0013574636335466,-0.0013574636319191,0.0013574636331265,-0.0012259731554734,0.0012259731590003,-0.0012259731565949,0.0012259731579212,-0.0012259731570635,0.001225973157474,-0.0012259731562541,0.0012259731580509,-7.3209630554863e-12,7.9244556780245e-12,-0.001294264570465,0.0012942645710774,-2.0878250419075e-13,8.4246185160402e-13,-0.0013574636350788,0.0013574636300638,-0.0013574636344579,0.0013574636302251,-0.001357463629871,0.0013574636353662,-0.0013574636292606,0.0013574636354249,-0.0012259731492956,0.0012259731651828,-0.0012259731641633,0.0012259731502706,0.0034648534604507,0.0034236252052995,0.72890082681964,0.62395120271643,1368840,32768,0.0053780474151008,0.0053780474151793,0.00537804741516,15.431439925314,15.433546071505,3.8651519402506e-05,3.8651519402506e-05,3.8651519402506e-05,571245.17385171,0.016265947285821
23134446,0.99926416317991,0.016063982456442,0.0053546608187809,0.0053546608188195,0.005354660818842,-0.001294856239484,0.0012948562389136,7.3410923229039e-12,-7.9301795031655e-12,1.0155178001577e-13,-6.8344688587265e-13,-0.0013578095963917,0.0013578096010948,-0.001357809601364,0.001357809596045,-0.0013578095967691,0.0013578096009631,-0.0013578096017377,0.001357809595926,-0.0012267909755406,0.001226790989654,-0.0012267909904533,0.0012267909747812,2.3277168310251e-13,1.0283931127081e-12,1.4167890415967e-12,3.6119061293353e-13,-0.0012948562386719,0.0012948562397439,-0.0013578095980891,0.0013578095994538,-0.0013578095984523,0.001357809599129,-0.001357809597836,0.0013578095997883,-0.0013578095981521,0.0013578095993985,-0.0012267909810716,0.0012267909842487,-0.001226790982213,0.0012267909831564,-0.0012267909824553,0.0012267909828125,-0.0012267909816753,0.0012267909835271,-7.3107541320678e-12,7.9295428461444e-12,-0.0012948562388997,0.0012948562395172,-2.1392143543522e-13,8.3781581706659e-13,-0.0013578096013771,0.0013578095964559,-0.001357809600806,0.001357809596572,-0.001357809596136,0.001357809601609,-0.0013578095956049,0.001357809601749,-0.001226790974574,0.0012267909904921,-0.0012267909896288,0.0012267909755707,0.0034668370396668,0.0034232910209787,0.72525645591,0.56709390273995,1368840,32768,0.0053805003168838,0.0053805003169215,0.0053805003169238,15.47939929412,15.481505456591,3.9035194352956e-05,3.9035194352956e-05,3.9035194352956e-05,555575.83310182,0.016273423188317
23220846,0.99927590353957,0.016064169302217,0.0053547231007059,0.0053547231007445,0.005354723100767,-0.0012946053308857,0.0012946053303271,7.3771518095467e-12,-7.9467169391347e-12,9.4044185838206e-14,-6.7470250594864e-13,-0.0013577300992156,0.0013577301038867,-0.0013577301041396,0.0013577300987725,-0.0013577300994772,0.0013577301037188,-0.0013577301045304,0.0013577300987621,-0.0012263822684904,0.0012263822825584,-0.0012263822833666,0.0012263822677436,2.0439290299594e-13,9.8468097749558e-13,1.3811956877728e-12,3.3666845030406e-13,-0.0012946053301063,0.0012946053311294,-0.0013577301009247,0.0013577301021921,-0.0013577301012017,0.0013577301018864,-0.0013577301006087,0.0013577301025504,-0.0013577301009489,0.0013577301020905,-0.0012263822739771,0.001226382277087,-0.0012263822750442,0.0012263822759524,-0.0012263822754721,0.0012263822754661,-0.0012263822747833,0.0012263822764459,-7.3447808572806e-12,7.9483230371283e-12,-0.0012946053303277,0.0012946053309055,-2.3889937825857e-13,8.0178324136646e-13,-0.0013577301042181,0.0013577300992081,-0.0013577301035788,0.0013577300993783,-0.0013577300989707,0.0013577301044101,-0.0013577300984204,0.0013577301044885,-0.0012263822674573,0.0012263822833217,-0.0012263822824433,0.0012263822683556,0.003465455180633,0.0034229641219719,0.72863516640833,0.63018074749659,1368840,32768,0.0053794598749702,0.0053794598750176,0.0053794598750126,15.5273586978,15.529464841676,3.9418869582401e-05,3.9418869582401e-05,3.9418869582401e-05,565530.55964072,0.016270252781528
23307246,0.99928749208213,0.016064354584023,0.0053547848613079,0.0053547848613465,0.005354784861369,-0.0012951016858122,0.001295101685224,7.3455187170924e-12,-7.9572208535414e-12,8.5322158172518e-14,-6.9429784850084e-13,-0.0013580393954702,0.0013580394001696,-0.0013580394004022,0.0013580393951316,-0.0013580393958395,0.001358039399975,-0.0013580394008075,0.0013580393949433,-0.0012270529577935,0.0012270529717659,-0.0012270529726752,0.0012270529569299,2.2983547868389e-13,1.020604880045e-12,1.4082545670249e-12,3.6083541790214e-13,-0.0012951016849858,0.0012951016860603,-0.0013580393971503,0.0013580393985084,-0.0013580393974748,0.0013580393981902,-0.001358039396914,0.0013580393987733,-0.0013580393972317,0.001358039398409,-0.0012270529633152,0.0012270529663253,-0.00122705296422,0.0012270529653402,-0.0012270529648313,0.0012270529648686,-0.001227052964006,0.0012270529657306,-7.3212743400944e-12,7.9509263105413e-12,-0.0012951016852299,0.001295101685837,-2.1724021640168e-13,8.2616623177696e-13,-0.0013580394004572,0.001358039395453,-0.0013580393998584,0.0013580393956405,-0.0013580393952335,0.0013580394007381,-0.0013580393946238,0.0013580394007758,-0.0012270529568712,0.0012270529727874,-0.0012270529718082,0.0012270529577616,0.0034670742520011,0.0034226443370879,0.73212408000192,0.69326759225325,1368840,32768,0.0053815176139732,0.0053815176139939,0.0053815176140369,15.575318123483,15.577424226762,3.980254498786e-05,3.980254498786e-05,3.980254498786e-05,552929.93319727,0.016276524448792
23393646,0.99929894185755,0.016064536710165,0.0053548455700216,0.0053548455700602,0.0053548455700827,-0.0012956120531601,0.001295612052647,7.3890719159838e-12,-7.8981343644755e-12,1.2970809633022e-13,-6.5251877188178e-13,-0.0013583631920037,0.0013583631966942,-0.0013583631969462,0.0013583631917064,-0.0013583631922626,0.001358363196497,-0.0013583631973391,0.0013583631915412,-0.0012277354309419,0.0012277354451558,-0.0012277354458211,0.0012277354301581,1.8717392902377e-13,9.8060974892764e-13,1.3798353175664e-12,3.3551877954336e-13,-0.0012956120524087,0.0012956120534107,-0.0013583631937603,0.0013583631950734,-0.0013583631939632,0.0013583631946718,-0.0013583631934433,0.0013583631953139,-0.0013583631938414,0.0013583631949192,-0.0012277354365226,0.0012277354395865,-0.0012277354376455,0.0012277354385666,-0.0012277354381763,0.0012277354381363,-0.0012277354372063,0.0012277354388305,-7.2876310149337e-12,7.9686319461169e-12,-0.0012956120525798,0.0012956120532411,-1.8811666492972e-13,8.5247119288433e-13,-0.001358363196865,0.001358363191992,-0.0013583631963782,0.0013583631922236,-0.0013583631917104,0.0013583631972782,-0.0013583631912568,0.0013583631973704,-0.0012277354300366,0.0012277354460913,-0.001227735445063,0.0012277354311428,0.0034687614486679,0.0034223312777427,0.72822937643564,0.62577491767636,1368840,32768,0.0053836333803904,0.0053836333804158,0.005383633380419,15.639284473159,15.642077528028,4.0314275785271e-05,4.0314275785271e-05,4.0314275785271e-05,540787.76674445,0.016282973133725
23480046,0.99931036606743,0.016064717096667,0.0053549056988557,0.0053549056988942,0.0053549056989167,-0.001295652116196,0.0012956521155432,7.2677553868264e-12,-7.9621401738478e-12,5.3455014044837e-14,-7.1873121972518e-13,-0.0013585922371958,0.0013585922419094,-0.0013585922422766,0.0013585922369129,-0.0013585922379303,0.0013585922419859,-0.0013585922428964,0.0013585922368473,-0.0012276001102079,0.0012276001241787,-0.0012276001251173,0.0012276001096838,2.7869239790325e-13,1.0641319620872e-12,1.4670945636211e-12,4.7089687912946e-13,-0.001295652115259,0.0012956521164683,-0.0013585922389036,0.0013585922402216,-0.0013585922393891,0.0013585922400371,-0.0013585922385981,0.0013585922406006,-0.0013585922388668,0.0013585922401386,-0.0012276001158955,0.0012276001190672,-0.0012276001163582,0.0012276001177084,-0.0012276001170301,0.001227600117005,-0.0012276001164138,0.0012276001179843,-7.3398195382572e-12,7.8598677099661e-12,-0.0012956521155571,0.0012956521161383,-1.4802350739522e-13,8.450765952548e-13,-0.0013585922422504,0.0013585922375595,-0.0013585922417648,0.0013585922373056,-0.0013585922370966,0.0013585922425652,-0.001358592236425,0.0013585922425634,-0.0012276001089939,0.0012276001246674,-0.0012276001240212,0.0012276001097956,0.0034686245613348,0.0034220253103478,0.7227539219732,0.53990151391551,1368840,32768,0.0053837987144225,0.005383798714398,0.0053837987143322,15.858506735135,15.867977937809,4.2068053881078e-05,4.2068053881078e-05,4.2068053881078e-05,551762.39943225,0.016283479229425
23566446,0.99932176641012,0.016064897925286,0.0053549659750621,0.0053549659751007,0.0053549659751232,-0.001295558359265,0.0012955583587027,7.2886972176561e-12,-7.8201514526822e-12,1.1798392508384e-13,-7.5470606189492e-13,-0.0013587657254418,0.0013587657301308,-0.0013587657303417,0.0013587657252007,-0.0013587657257376,0.0013587657299074,-0.0013587657311103,0.0013587657247239,-0.0012272616973522,0.0012272617116936,-0.0012272617123128,0.0012272616967853,1.4152370595969e-13,1.0293784355483e-12,1.3562239800531e-12,4.3295453824193e-13,-0.001295558358456,0.0012955583595333,-0.0013587657266438,0.0013587657284089,-0.0013587657279872,0.0013587657283309,-0.0013587657273813,0.0013587657291191,-0.0013587657272607,0.0013587657281563,-0.0012272617032262,0.0012272617056794,-0.0012272617018254,0.0012272617038189,-0.0012272617058893,0.0012272617046909,-0.0012272617023945,0.0012272617056309,-7.0740101291404e-12,8.00071861295e-12,-0.0012955583585469,0.0012955583594029,1.6104508018335e-15,9.1947988110902e-13,-0.0013587657299974,0.0013587657257723,-0.0013587657294951,0.0013587657258473,-0.0013587657248813,0.0013587657311088,-0.0013587657247189,0.0013587657306844,-0.0012272616957402,0.0012272617113762,-0.0012272617102639,0.0012272616967309,0.0034679558751988,0.0034217266693068,0.72617516012753,0.60407110930455,1368840,32768,0.0053834092651544,0.0053834092651992,0.0053834092651175,16.083987955938,16.093878347591,4.3871903647503e-05,4.3871903647503e-05,4.3871903647503e-05,567470.94016168,0.016282294443286
23652846,0.99933314020259,0.016065079712066,0.0053550265706553,0.0053550265706939,0.0053550265707164,-0.0012964100956219,0.0012964100950535,7.2258086682699e-12,-7.791758084786e-12,1.1989174915407e-13,-6.9517935098331e-13,-0.0013594282239377,0.0013594282285835,-0.001359428228875,0.0013594282236429,-0.001359428224351,0.0013594282284135,-0.0013594282292473,0.0013594282235067,-0.0012282903705972,0.001228290384303,-0.0012282903851341,0.0012282903697863,2.1933612296141e-13,1.0453817113651e-12,1.3693606081499e-12,4.4856732598786e-13,-0.0012964100947956,0.0012964100958973,-0.0013594282256475,0.001359428226964,-0.0013594282259481,0.0013594282267093,-0.0013594282253557,0.0013594282273114,-0.0013594282256588,0.0013594282269463,-0.0012282903759795,0.0012282903791175,-0.0012282903768724,0.0012282903780781,-0.0012282903773717,0.0012282903775621,-0.0012282903765848,0.0012282903784332,-7.1886848612002e-12,7.7981342429399e-12,-0.0012964100950507,0.0012964100956525,-1.4522529876093e-13,7.7200729805991e-13,-0.0013594282288812,0.0013594282240097,-0.001359428228333,0.0013594282241124,-0.0013594282237187,0.0013594282291502,-0.0013594282232145,0.0013594282292099,-0.0012282903696492,0.0012282903851797,-0.0012282903843047,0.0012282903705749,0.0034710839033912,0.0034214352869902,0.73191726710453,0.70986861345669,1368840,32768,0.0053869398205791,0.0053869398206154,0.0053869398206368,16.309860518682,16.319778757372,4.5678884149457e-05,4.5678884149457e-05,4.5678884149457e-05,554539.31854649,0.016293056573324
23739246,0.99934448447805,0.016065262112921,0.0053550873709406,0.0053550873709792,0.0053550873710016,-0.0012974830781197,0.001297483077678,7.2743670083753e-12,-7.7403271265547e-12,1.185534370974e-13,-6.2672297169047e-13,-0.0013601945590182,0.0013601945639381,-0.0013601945641212,0.0013601945589852,-0.0013601945591805,0.0013601945636906,-0.0013601945642806,0.0013601945584452,-0.0012296476750437,0.0012296476887488,-0.0012296476897809,0.0012296476740172,2.764028502003e-13,1.0333963716267e-12,1.3275987368875e-12,4.4027772628827e-13,-0.0012974830773855,0.001297483078467,-0.0013601945607424,0.0013601945621916,-0.0013601945609119,0.0013601945618403,-0.0013601945604602,0.0013601945624627,-0.0013601945604054,0.0013601945622438,-0.0012296476808562,0.001229647683432,-0.0012296476818289,0.0012296476828591,-0.0012296476816121,0.0012296476822218,-0.0012296476814109,0.0012296476828632,-7.1552952929933e-12,7.8285946653361e-12,-0.0012974830775952,0.0012974830782461,-1.2025732622123e-13,7.6520362355456e-13,-0.0013601945640383,0.0013601945590139,-0.0013601945636779,0.001360194559293,-0.0013601945588642,0.0013601945642486,-0.0013601945582942,0.0013601945643938,-0.0012296476743732,0.0012296476900971,-0.0012296476888189,0.0012296476751062,0.0034751012988883,0.0034211509748194,0.73618370192599,0.77772887440471,1368840,32768,0.0053913876588826,0.0053913876589963,0.0053913876589731,16.535759504064,16.545679167153,4.7486076032509e-05,4.7486076032509e-05,4.7486076032509e-05,534960.24898165,0.016306614302906
23825646,0.99935579623961,0.016065445010225,0.0053551483367084,0.005355148336747,0.0053551483367695,-0.0012983127944352,0.0012983127939123,7.0997415783565e-12,-7.7285568390701e-12,1.0227087569495e-13,-5.443039013012e-13,-0.0013608299482203,0.0013608299526318,-0.0013608299524634,0.0013608299478422,-0.0013608299487643,0.0013608299528299,-0.0013608299535051,0.0013608299476264,-0.0012306536237387,0.0012306536370823,-0.001230653638657,0.0012306536223211,8.6824406397512e-14,7.4338434894195e-13,1.4205436621897e-12,1.9630179723249e-13,-0.0012983127937721,0.0012983127945827,-0.001360829949854,0.0013608299508228,-0.0013608299504932,0.0013608299508412,-0.0013608299496051,0.0013608299512899,-0.0013608299505422,0.0013608299509205,-0.0012306536280749,0.0012306536321668,-0.0012306536288867,0.0012306536309666,-0.0012306536308162,0.0012306536299434,-0.0012306536299613,0.0012306536295533,-7.2191355780105e-12,7.5785866852613e-12,-0.0012983127939124,0.0012983127944676,-3.0225635451114e-13,9.1769208278386e-13,-0.0013608299529109,0.0013608299481528,-0.0013608299524156,0.0013608299484276,-0.0013608299479935,0.0013608299533313,-0.0013608299472429,0.0013608299534276,-0.001230653622552,0.001230653638072,-0.0012306536367681,0.0012306536228121,0.0034781573702417,0.0034208735809177,0.74011879580953,0.82534062930089,1368840,32768,0.0053948268380489,0.0053948268380638,0.0053948268381163,16.761660396513,16.771579576934,4.92932831721e-05,4.92932831721e-05,4.92932831721e-05,522555.11094579,0.016317098253251
23912046,0.99936707247978,0.016065628482137,0.0053552094940126,0.0053552094940512,0.0053552094940736,-0.0012990251865841,0.0012990251859115,7.1304509931461e-12,-7.8864004876432e-12,5.7102079100092e-14,-7.870296626664e-13,-0.0013614074183998,0.0013614074226034,-0.0013614074230792,0.001361407417932,-0.0013614074183811,0.0013614074225447,-0.0013614074237086,0.0013614074177399,-0.0012314842324208,0.0012314842443167,-0.0012314842466247,0.0012314842309068,1.7997838413685e-13,1.0347047434215e-12,1.6270269425026e-12,3.126083912047e-13,-0.0012990251856581,0.0012990251868395,-0.0013614074195318,0.0013614074213327,-0.0013614074202033,0.0013614074209747,-0.0013614074191586,0.00136140742146,-0.0013614074198099,0.0013614074209334,-0.0012314842370069,0.0012314842409743,-0.0012314842371989,0.0012314842394882,-0.0012314842375758,0.0012314842391839,-0.001231484237528,0.001231484239528,-7.206672958735e-12,7.7798386842097e-12,-0.0012990251859413,0.0012990251865586,-3.2864334252442e-13,9.8073483334169e-13,-0.0013614074230201,0.0013614074179554,-0.0013614074223649,0.0013614074182132,-0.0013614074178499,0.0013614074234093,-0.0013614074170805,0.0013614074237725,-0.0012314842314473,0.0012314842465583,-0.0012314842448578,0.0012314842317205,0.003480758822324,0.003420602981697,0.7446662633625,0.87295238419712,1368840,32768,0.0053977795155738,0.005397779515578,0.0053977795155829,16.987561586456,16.997479986714,5.1100492691645e-05,5.1100492691645e-05,5.1100492691645e-05,513540.52600093,0.016326099824835
23998446,0.99937831018386,0.016065811943466,0.0053552706477887,0.0053552706478272,0.0053552706478497,-0.0012997318013196,0.0012997318006612,6.9955973481265e-12,-7.7420008989515e-12,1.5716219880271e-13,-8.2922854998994e-13,-0.0013619824369845,0.0013619824413953,-0.0013619824416347,0.0013619824366952,-0.0013619824372663,0.001361982440626,-0.0013619824418718,0.0013619824358951,-0.0012323035996865,0.0012323036126407,-0.0012323036140652,0.0012323035980379,9.2727079016092e-14,1.0917558240796e-12,1.6298648263954e-12,3.3234849404046e-13,-0.0012997318003627,0.0012997318015436,-0.0013619824380889,0.0013619824396528,-0.0013619824385741,0.0013619824397076,-0.0013619824377558,0.0013619824406114,-0.0013619824382805,0.001361982439831,-0.0012323036037245,0.0012323036084189,-0.0012323036050763,0.0012323036067479,-0.0012323036060111,0.0012323036060763,-0.0012323036037334,0.0012323036064439,-7.0528825981014e-12,7.6557513867561e-12,-0.0012997318007289,0.0012997318012908,-3.2427938760495e-13,9.6934421072916e-13,-0.0013619824415661,0.0013619824364624,-0.0013619824411196,0.0013619824371327,-0.0013619824368871,0.0013619824416182,-0.0013619824358613,0.0013619824418029,-0.0012323035974642,0.0012323036138698,-0.0012323036119692,0.0012323035979554,0.0034833487188214,0.00342033894344,0.74708011284353,0.87243866262211,1368840,32768,0.0054007081892454,0.0054007081890914,0.0054007081893262,17.213462256843,17.223380396498,5.2907698054742e-05,5.2907698054742e-05,5.2907698054742e-05,504611.76574989,0.016335028466716
24084846,0.99938950633183,0.01606599181442,0.0053553306047734,0.005355330604812,0.0053553306048345,-0.0013001977789753,0.0013001977783231,6.9728913358972e-12,-7.61520965469e-12,2.2430538291864e-13,-9.0301506056858e-13,-0.0013624321896198,0.0013624321941275,-0.0013624321945191,0.0013624321895182,-0.0013624321901749,0.0013624321939666,-0.001362432194924,0.001362432189229,-0.001232774211633,0.0012327742252229,-0.0012327742255584,0.0012327742102427,1.292751683794e-13,1.2678989136173e-12,1.5212502915537e-12,3.9409146077639e-13,-0.001300197777987,0.0013001977792057,-0.0013624321881847,0.0013624321895705,-0.0013624321885927,0.0013624321891369,-0.0013624321877111,0.0013624321899826,-0.0013624321882416,0.0013624321896309,-0.0012327742185067,0.001232774221799,-0.0012327742196959,0.0012327742213741,-0.0012327742243225,0.0012327742241437,-0.0012327742228275,0.001232774224776,-6.8595880913512e-12,7.6982949988427e-12,-0.0013001977782292,0.001300197778981,-1.7671983662441e-13,9.4589692702758e-13,-0.0013624321912571,0.001362432186696,-0.0013624321907169,0.0013624321869862,-0.0013624321864101,0.0013624321916467,-0.001362432185799,0.0013624321917854,-0.0012327742154352,0.0012327742316009,-0.0012327742301412,0.001232774217174,0.0034849908300017,0.003420080666022,0.73502228970799,0.66147103776697,1368840,32768,0.0054026391086483,0.0054026391084246,0.0054026391084608,17.43936068676,17.449280806279,5.4714885494074e-05,5.4714885494074e-05,5.4714885494074e-05,502648.12189688,0.016340916509725
24171246,0.99940064666663,0.016066171046701,0.0053553903488671,0.0053553903489057,0.0053553903489282,-0.0012994912522953,0.0012994912517064,7.0130933430476e-12,-7.6322633101831e-12,1.8763815013625e-13,-7.7023517572644e-13,-0.001362288079689,0.0013622880841686,-0.0013622880844501,0.0013622880793927,-0.0013622880800955,0.0013622880840231,-0.0013622880849094,0.0013622880792083,-0.00123155323692,0.0012315532503098,-0.0012315532512983,0.0012315532359018,1.7633302491183e-13,1.1449024946029e-12,1.4380958318654e-12,3.788298975949e-13,-0.0012994912514169,0.0012994912525614,-0.0013622880809022,0.0013622880822749,-0.0013622880813488,0.0013622880819207,-0.0013622880805752,0.0013622880826889,-0.0013622880809625,0.0013622880823063,-0.0012315532427716,0.0012315532455592,-0.0012315532436618,0.0012315532445527,-0.0012315532445588,0.0012315532447497,-0.0012315532438511,0.0012315532454948,-6.9334910689601e-12,7.6810261146305e-12,-0.0012994912516439,0.0012994912523458,-1.6904377700512e-13,8.8594655258801e-13,-0.0013622880840374,0.0013622880793517,-0.0013622880834419,0.0013622880795534,-0.0013622880790847,0.0013622880843418,-0.0013622880785109,0.0013622880844553,-0.0012315532368561,0.0012315532524058,-0.001231553251226,0.0012315532378314,0.0034819317141196,0.0034198284950666,0.73606737110456,0.68371723864089,1368840,32768,0.0053997090685998,0.0053997090685508,0.0053997090685744,17.649177168212,17.658407136557,5.6393417345695e-05,5.6393417345695e-05,5.6393417345695e-05,535508.00340172,0.016331988970059
24257646,0.99941164289384,0.016066348162505,0.0053554493874685,0.005355449387507,0.0053554493875295,-0.0012997941285917,0.0012997941279824,7.0002199716144e-12,-7.6007412143379e-12,1.4704321381311e-13,-7.7939501354674e-13,-0.0013625345217228,0.0013625345261529,-0.0013625345264628,0.0013625345213886,-0.0013625345220784,0.001362534525996,-0.0013625345268092,0.0013625345211932,-0.0012319088260294,0.0012319088393451,-0.0012319088401685,0.0012319088251603,1.655115319716e-13,1.1032420025965e-12,1.4204291656875e-12,3.7898718690747e-13,-0.0012997941277373,0.0012997941288471,-0.0013625345232008,0.0013625345245949,-0.0013625345235352,0.0013625345242471,-0.0013625345228412,0.0013625345249273,-0.0013625345232204,0.0013625345245205,-0.0012319088313746,0.0012319088344554,-0.0012319088323592,0.0012319088333568,-0.0012319088328051,0.001231908832914,-0.0012319088320175,0.0012319088338584,-6.9364973888838e-12,7.6336512383711e-12,-0.0012997941279612,0.0012997941286351,-1.7495486113144e-13,8.6259338365835e-13,-0.0013625345263783,0.001362534521692,-0.0013625345257596,0.0013625345218049,-0.0013625345213508,0.0013625345265849,-0.0013625345207949,0.0013625345268088,-0.0012319088252076,0.0012319088405275,-0.0012319088395326,0.0012319088263495,0.0034828645301574,0.0034195818160057,0.73724834057904,0.70596343951481,1368840,32768,0.0054009644887565,0.0054009644887776,0.0054009644888023,17.735117623809,17.739016271248,5.7080940990471e-05,5.7080940990471e-05,5.7080940990471e-05,531085.44578609,0.016335816072888
24344046,0.99942249234325,0.016066523241303,0.0053555077470678,0.0053555077471064,0.0053555077471288,-0.0013000871471197,0.0013000871465195,7.0040814418844e-12,-7.6104073896312e-12,1.6468767478693e-13,-7.8093531943263e-13,-0.0013627664241962,0.001362766428706,-0.001362766428994,0.0013627664239106,-0.001362766424649,0.0013627664285004,-0.0013627664294045,0.0013627664237265,-0.0012322574856222,0.0012322574988873,-0.0012322574997382,0.001232257484692,1.8102544038529e-13,1.1374652512174e-12,1.4406813999369e-12,3.8847454413404e-13,-0.0013000871462589,0.0013000871473952,-0.0013627664257932,0.0013627664271501,-0.001362766426128,0.001362766426862,-0.0013627664254585,0.0013627664275352,-0.0013627664257955,0.0013627664271304,-0.0012322574906458,0.0012322574939344,-0.0012322574917082,0.0012322574928709,-0.0012322574922012,0.0012322574923822,-0.0012322574913657,0.0012322574933049,-6.9646342940265e-12,7.619347028296e-12,-0.0013000871465072,0.0013000871471577,-1.954151772593e-13,8.5319314141754e-13,-0.0013627664289676,0.001362766424263,-0.0013627664283649,0.0013627664244061,-0.0013627664239688,0.0013627664292489,-0.0013627664233963,0.0013627664293579,-0.0012322574845771,0.0012322574998866,-0.0012322574988592,0.0012322574856456,0.0034837620592153,0.0034193405257299,0.73858916065269,0.72820964038873,1368840,32768,0.0054021790478487,0.0054021790478795,0.005402179047902,17.816061525232,17.819625405938,5.7728492201857e-05,5.7728492201857e-05,5.7728492201857e-05,526568.82873037,0.016339518591933
24430446,0.99943319570864,0.016066695401194,0.0053555651336983,0.0053555651337368,0.0053555651337593,-0.0013003791024704,0.001300379101855,7.0230700382664e-12,-7.630467365048e-12,1.6744253180441e-13,-8.1787960257485e-13,-0.0013629984706482,0.0013629984751526,-0.0013629984754622,0.0013629984703649,-0.0013629984711066,0.0013629984750333,-0.0013629984759105,0.0013629984702056,-0.0012326037876938,0.0012326038011264,-0.0012326038019445,0.0012326037870801,1.8519551887461e-13,1.1813386167985e-12,1.4832321882748e-12,4.4303311270134e-13,-0.00130037910157,0.0013003791027724,-0.0013629984722757,0.001362998473648,-0.0013629984725879,0.0013629984733228,-0.0013629984719287,0.0013629984740444,-0.0013629984723219,0.0013629984736664,-0.0012326037927703,0.001232603796241,-0.001232603793817,0.0012326037950853,-0.0012326037943387,0.0012326037946357,-0.0012326037936278,0.0012326037954492,-6.945350765478e-12,7.6775274273954e-12,-0.0013003791018061,0.0013003791025391,-1.5379644868289e-13,8.8218475574362e-13,-0.0013629984754406,0.0013629984707097,-0.0013629984747999,0.001362998470962,-0.0013629984703665,0.0013629984757534,-0.0013629984697259,0.0013629984758697,-0.0012326037866823,0.0012326038020657,-0.0012326038011344,0.0012326037879363,0.003484662928648,0.0034191043493905,0.73612860601544,0.68549512750315,1368840,32768,0.0054033891869548,0.0054033891869901,0.005403389186996,17.896693040387,17.900234540629,5.8373544323097e-05,5.8373544323097e-05,5.8373544323097e-05,522054.03602999,0.016343207701191
24516846,0.99944375390162,0.016066866075679,0.0053556220251931,0.0053556220252316,0.0053556220252541,-0.0013003103584977,0.0013003103578508,6.9857709424341e-12,-7.6526829804938e-12,1.2172481080235e-13,-7.9320341523896e-13,-0.0013630450920002,0.0013630450964754,-0.0013630450967398,0.0013630450917948,-0.0013630450925874,0.0013630450962826,-0.0013630450971708,0.0013630450915778,-0.0012324282489619,0.0012324282622048,-0.0012324282633521,0.0012324282482104,1.5098568160871e-13,1.0770562731408e-12,1.3815204131467e-12,3.4451973986432e-13,-0.0013003103576582,0.0013003103587023,-0.0013630450936437,0.0013630450949391,-0.0013630450940283,0.0013630450946651,-0.0013630450933823,0.00136304509531,-0.0013630450936513,0.0013630450949295,-0.0012324282543434,0.0012324282572612,-0.0012324282552592,0.00123242825616,-0.0012324282557693,0.0012324282558818,-0.0012324282548355,0.0012324282567576,-6.9805887478054e-12,7.6270824684542e-12,-0.0013003103578499,0.0013003103584983,-1.8282876764782e-13,8.4997223981387e-13,-0.0013630450967988,0.001363045092044,-0.0013630450961215,0.0013630450922121,-0.0013630450918403,0.001363045097076,-0.0013630450912899,0.001363045097186,-0.0012324282483578,0.0012324282634002,-0.0012324282625035,0.0012324282490393,0.0034841274618495,0.0034188734186457,0.73978525343677,0.74958088864451,1368840,32768,0.0054031038712812,0.0054031038713062,0.0054031038712807,17.977303846587,17.98084367532,5.9018430772694e-05,5.9018430772694e-05,5.9018430772694e-05,528328.23270902,0.016342339019908
24603246,0.99945416785855,0.016067035377098,0.0053556784589996,0.0053556784590381,0.0053556784590606,-0.0013008313795211,0.0013008313789682,7.0354331311707e-12,-7.5967965701382e-12,1.2670218815865e-13,-6.9552722270901e-13,-0.0013633962294778,0.0013633962340093,-0.0013633962343454,0.0013633962292708,-0.0013633962299326,0.0013633962338265,-0.0013633962347245,0.0013633962290985,-0.0012331057117942,0.0012331057250062,-0.0012331057259995,0.001233105710996,2.0424128998055e-13,1.0376407125532e-12,1.3942871701899e-12,3.7684972279377e-13,-0.0013008313787027,0.0013008313797873,-0.0013633962311296,0.0013633962324451,-0.0013633962314885,0.0013633962321752,-0.0013633962308294,0.0013633962328713,-0.0013633962311534,0.0013633962324078,-0.0012331057169212,0.0012331057200321,-0.0012331057182059,0.0012331057189378,-0.0012331057186665,0.0012331057183767,-0.0012331057177417,0.0012331057193744,-6.9742376477095e-12,7.6272318462438e-12,-0.0013008313789287,0.0013008313795865,-1.8485699980437e-13,8.2828196126052e-13,-0.0013633962342614,0.0013633962295337,-0.0013633962336778,0.0013633962298133,-0.0013633962292691,0.0013633962345893,-0.0013633962287649,0.0013633962347107,-0.0012331057109505,0.001233105726047,-0.0012331057250173,0.001233105711793,0.003485954661619,0.0034186476427053,0.74408339469767,0.81366664978588,1368840,32768,0.0054052637259052,0.0054052637259067,0.005405263725959,18.057913360454,18.061452810011,5.9663306883626e-05,5.9663306883626e-05,5.9663306883626e-05,517016.96832659,0.01634892262231
24689646,0.99946443852839,0.016067203504104,0.0053557345013348,0.0053557345013734,0.0053557345013958,-0.001301341078915,0.0013013410783184,7.0116532693938e-12,-7.6266036595521e-12,1.3595149383401e-13,-7.4906911645267e-13,-0.0013637311528247,0.0013637311573348,-0.0013637311576174,0.0013637311525381,-0.0013637311532532,0.0013637311571369,-0.0013637311580101,0.0013637311523725,-0.0012337722528851,0.0012337722661655,-0.0012337722670846,0.0012337722519294,1.9217865848566e-13,1.0881656396396e-12,1.4630443050008e-12,3.5854739956424e-13,-0.0013013410780657,0.0013013410791841,-0.0013637311544252,0.0013637311558112,-0.001363731154792,0.001363731155487,-0.0013637311541022,0.001363731156174,-0.0013637311544722,0.0013637311557444,-0.0012337722579531,0.0012337722612671,-0.0012337722590385,0.0012337722600727,-0.0012337722594642,0.001233772259593,-0.0012337722586009,0.0012337722604776,-6.9644740048056e-12,7.6433272074827e-12,-0.0013013410782991,0.0013013410789618,-2.1221775218746e-13,8.8813189759193e-13,-0.0013637311576317,0.0013637311528934,-0.0013637311570135,0.0013637311530657,-0.0013637311526127,0.0013637311578913,-0.0013637311520347,0.0013637311580183,-0.0012337722518074,0.001233772267182,-0.0012337722660782,0.0012337722528125,0.0034877464585593,0.0034184269606173,0.74913195118813,0.87775241092724,1368840,32768,0.0054073765771331,0.0054073765771672,0.0054073765771901,18.138522895026,18.142061944701,6.0308183160202e-05,6.0308183160202e-05,6.0308183160202e-05,505827.20827291,0.01635536313772
24776046,0.99947456686988,0.016067364989267,0.0053557883297224,0.0053557883297609,0.0053557883297834,-0.0013018394968983,0.0013018394963223,7.0525797838228e-12,-7.659357423653e-12,1.0608499447036e-13,-6.9798220653447e-13,-0.0013640619788123,0.0013640619833352,-0.0013640619836155,0.0013640619784996,-0.0013640619791825,0.001364061983172,-0.0013640619839619,0.0013640619783802,-0.0012344186628664,0.0012344186761869,-0.0012344186771385,0.0012344186617755,2.1225510398756e-13,1.0273029695406e-12,1.3741346093662e-12,4.2335136102417e-13,-0.001301839496073,0.001301839497163,-0.0013640619804703,0.0013640619818044,-0.001364061980775,0.001364061981522,-0.001364061980127,0.0013640619820963,-0.0013640619804397,0.0013640619817252,-0.0012344186679543,0.0012344186710607,-0.0012344186688915,0.0012344186700838,-0.0012344186692808,0.0012344186695726,-0.0012344186685823,0.0012344186703646,-7.0415071809067e-12,7.6400007208693e-12,-0.0013018394963296,0.0013018394969161,-1.9248379622274e-13,7.5473909029769e-13,-0.0013640619836307,0.00136406197888,-0.0013640619830751,0.0013640619789892,-0.0013640619785922,0.0013640619839072,-0.0013640619780647,0.0013640619839822,-0.0012344186617142,0.0012344186771133,-0.0012344186759495,0.001234418662489,0.0034895049088014,0.0034182102683288,0.72943366038319,0.56168785913149,1368840,32768,0.0054094426007638,0.0054094426007958,0.0054094426008157,18.219131156741,18.222671079392,6.0953049253926e-05,6.0953049253926e-05,6.0953049253926e-05,494893.60184084,0.01636166116204
24862446,0.99948455385377,0.01606752294006,0.0053558409799869,0.0053558409800254,0.0053558409800479,-0.0013002660413359,0.001300266040671,6.9973070017801e-12,-7.6787638308006e-12,6.4143746334932e-14,-7.452305866583e-13,-0.0013633508724993,0.0013633508769157,-0.0013633508773181,0.001363350872134,-0.0013633508727954,0.0013633508766812,-0.0013633508777103,0.0013633508719016,-0.0012320595029985,0.0012320595164751,-0.0012320595174424,0.0012320595021183,2.3998234517467e-13,1.0590967629679e-12,1.2662994918903e-12,4.6625978549537e-13,-0.0013002660404676,0.0013002660415513,-0.0013633508741665,0.0013633508753633,-0.0013633508742229,0.0013633508751981,-0.0013633508737456,0.0013633508756451,-0.001363350874122,0.0013633508753894,-0.001232059508226,0.0012320595111653,-0.0012320595092367,0.0012320595103086,-0.0012320595097107,0.0012320595102203,-0.001232059508768,0.0012320595108273,-7.0459428101072e-12,7.5993296104027e-12,-0.0013002660407364,0.0013002660412809,-1.2011844811092e-13,6.7597173188054e-13,-0.0013633508771347,0.0013633508724817,-0.0013633508767553,0.0013633508725953,-0.0013633508721937,0.0013633508776442,-0.0013633508719058,0.0013633508774416,-0.0012320595019444,0.0012320595173859,-0.001232059516578,0.0012320595027329,0.0034829667902278,0.0034179980090884,0.72342744371094,0.4801931146962,1368840,32768,0.005402918900089,0.0054029189001139,0.0054029189001106,18.299740215972,18.303280214083,6.1597921727777e-05,6.1597921727777e-05,6.1597921727777e-05,546654.16726429,0.016341778911891
24948846,0.99949441653662,0.016067679240812,0.0053558930802375,0.005355893080276,0.0053558930802985,-0.0012999452460037,0.0012999452454816,7.0958869314074e-12,-7.5889171637899e-12,1.1303360572446e-13,-6.9814467215949e-13,-0.0013633163477109,0.0013633163522069,-0.0013633163525077,0.0013633163473065,-0.0013633163481253,0.0013633163518957,-0.0013633163527034,0.0013633163473834,-0.0012314811657957,0.0012314811794751,-0.0012314811803251,0.0012314811654009,2.1863370324338e-13,1.0410626080166e-12,1.2340286836237e-12,5.1967688893364e-13,-0.0012999452452016,0.0012999452462771,-0.0013633163494203,0.0013633163506443,-0.0013633163496284,0.001363316350447,-0.001363316349219,0.0013633163509842,-0.0013633163492846,0.0013633163506991,-0.0012314811717841,0.0012314811744513,-0.001231481172201,0.0012314811734994,-0.0012314811728388,0.0012314811730909,-0.0012314811718226,0.0012314811742588,-7.1472365980044e-12,7.5065003286264e-12,-0.0012999452455387,0.0012999452459893,-7.9894088702196e-14,6.3289681249564e-13,-0.0013633163526071,0.0013633163477423,-0.0013633163519372,0.0013633163478305,-0.0013633163474407,0.0013633163527576,-0.0013633163471418,0.0013633163527374,-0.0012314811653775,0.0012314811803891,-0.0012314811799708,0.0012314811662787,0.0034814407946282,0.0034177904331484,0.72544708128845,0.52548019732377,1368840,32768,0.0054015886935321,0.0054015886935181,0.0054015886936204,18.406528540035,18.411192013281,6.2452228320279e-05,6.2452228320279e-05,6.2452228320279e-05,562807.28207934,0.016337725331032
25035246,0.99950425614933,0.016067835594137,0.0053559451980127,0.0053559451980512,0.0053559451980737,-0.0013007651185614,0.0013007651179373,7.1184562419305e-12,-7.6347642926033e-12,9.5221443991425e-14,-7.5182803216969e-13,-0.001364002785174,0.0013640027898693,-0.0013640027902258,0.0013640027847878,-0.0013640027855326,0.0013640027894083,-0.0013640027904573,0.001364002784919,-0.0012324253580814,0.001232425371684,-0.001232425373197,0.0012324253577741,2.3049092924856e-13,1.0873032542202e-12,1.325431773675e-12,4.839729502527e-13,-0.00130076511766,0.0013007651188145,-0.0013640027869636,0.0013640027881213,-0.0013640027869241,0.001364002787802,-0.0013640027864892,0.001364002788486,-0.0013640027867803,0.0013640027882856,-0.0012324253639488,0.0012324253667846,-0.0012324253645663,0.0012324253653152,-0.0012324253650229,0.0012324253653609,-0.0012324253643705,0.001232425366568,-7.2636900404317e-12,7.4560702515836e-12,-0.0013007651181033,0.0013007651184408,-2.0421623192253e-13,6.3684051554763e-13,-0.0013640027902623,0.0013640027854442,-0.0013640027894943,0.0013640027853278,-0.0013640027854285,0.0013640027899296,-0.0013640027845908,0.0013640027903599,-0.001232425357771,0.0012324253720785,-0.0012324253722301,0.0012324253581245,0.0034845469465743,0.0034175879921958,0.72758497777963,0.5707672799513,1368840,32768,0.0054049869791408,0.0054049869790905,0.0054049869792346,18.679158761955,18.690964476615,6.463327009564e-05,6.463327009564e-05,6.463327009564e-05,553533.81325687,0.016348085142559
25121646,0.99951407318369,0.016067992088608,0.0053559973628361,0.0053559973628747,0.0053559973628971,-0.001301591486289,0.0013015914861677,7.27104622747e-12,-7.3772859230967e-12,3.9624083629091e-13,-4.4802866597297e-13,-0.0013646949307618,0.0013646949361735,-0.0013646949363339,0.0013646949310627,-0.0013646949314906,0.0013646949355241,-0.0013646949359695,0.0013646949307264,-0.0012333763244423,0.0012333763385039,-0.001233376338483,0.0012333763241847,1.9597657187378e-13,1.0532202366094e-12,1.1696337390804e-12,2.9182061449231e-13,-0.0013015914858172,0.0013015914867052,-0.0013646949326379,0.0013646949344398,-0.0013646949336451,0.0013646949339321,-0.0013646949327725,0.0013646949343346,-0.0013646949325301,0.0013646949345849,-0.0012333763296925,0.0012333763329767,-0.001233376331283,0.0012333763320697,-0.0012333763320897,0.001233376332458,-0.0012333763304088,0.0012333763324407,-7.173735435542e-12,7.4458464168559e-12,-0.0013015914861168,0.0013015914864077,-2.7147647128603e-13,6.0424421722452e-13,-0.0013646949363508,0.0013646949316265,-0.0013646949362919,0.0013646949318057,-0.0013646949313817,0.0013646949365799,-0.0013646949310467,0.0013646949363458,-0.0012333763246983,0.0012333763396468,-0.0012333763390512,0.0012333763252393,0.0034876896598955,0.0034173906095322,0.72983464523334,0.61605436257883,1368840,32768,0.005408412126488,0.0054084121266241,0.0054084121266285,18.958482780183,18.970736939949,6.6867862241458e-05,6.6867862241458e-05,6.6867862241458e-05,544452.08747366,0.016358527093952
25208046,0.99952386415742,0.016068148693305,0.0053560495644019,0.0053560495644404,0.0053560495644629,-0.0013024118002254,0.0013024117993372,6.8584490673241e-12,-7.7501837666176e-12,-3.7187099253762e-16,-9.0649630716006e-13,-0.0013653817525709,0.0013653817565091,-0.0013653817570546,0.0013653817513543,-0.0013653817526254,0.0013653817565667,-0.0013653817576917,0.0013653817518585,-0.0012343201809555,0.0012343201942334,-0.00123432019472,0.001234320179775,3.7170914454078e-13,1.2898750657904e-12,1.4073832112913e-12,5.4019846789585e-13,-0.0013024117991295,0.0013024118004709,-0.001365381753379,0.001365381755438,-0.0013653817541567,0.0013653817551931,-0.0013653817534932,0.0013653817554446,-0.0013653817534,0.0013653817554074,-0.0012343201853937,0.0012343201887742,-0.001234320187043,0.0012343201880821,-0.0012343201872561,0.0012343201883554,-0.0012343201866342,0.0012343201884331,-6.9734826119518e-12,7.6040830240127e-12,-0.0013024117994418,0.001302411800051,-1.6319933790166e-13,6.9710158637799e-13,-0.0013653817572024,0.0013653817519496,-0.001365381756697,0.0013653817523782,-0.0013653817516735,0.0013653817574104,-0.0013653817515563,0.0013653817569864,-0.0012343201799088,0.0012343201949631,-0.001234320193482,0.0012343201810368,0.0034908144715169,0.0034171981696886,0.73221211770306,0.66134144520638,1368840,32768,0.0054118121456086,0.0054118121456868,0.0054118121454639,19.238225252453,19.250509403282,6.9105802019623e-05,6.9105802019623e-05,6.9105802019623e-05,535572.19888483,0.016368892599871
25294446,0.99953362532108,0.016068305385468,0.005356101795123,0.0053561017951615,0.005356101795184,-0.0013032251886158,0.0013032251879651,6.9372183080367e-12,-7.5905601135989e-12,7.5723569049885e-14,-7.0015231670968e-13,-0.0013660613234701,0.0013660613277419,-0.0013660613282227,0.0013660613232003,-0.0013660613234839,0.0013660613274487,-0.0013660613287584,0.001366061322828,-0.0012352566103285,0.0012352566242214,-0.0012352566243796,0.0012352566097778,2.7612232935826e-13,1.064648887472e-12,1.3019824606237e-12,4.3576592294429e-13,-0.0013032251877686,0.0013032251888517,-0.0013660613251241,0.0013660613261504,-0.0013660613253366,0.0013660613257242,-0.0013660613245324,0.0013660613267026,-0.0013660613248989,0.0013660613262013,-0.0012352566156535,0.0012352566189751,-0.0012352566165947,0.0012352566182429,-0.0012352566173622,0.0012352566181835,-0.0012352566160361,0.0012352566185493,-6.9543564903593e-12,7.5425560506783e-12,-0.0013032251880554,0.0013032251886028,-1.3858729566501e-13,7.2383709315602e-13,-0.0013660613282337,0.0013660613234054,-0.0013660613275476,0.001366061323546,-0.0013660613233686,0.0013660613284598,-0.0013660613228742,0.0013660613284065,-0.0012352566093955,0.0012352566246985,-0.0012352566243346,0.0012352566111706,0.003493917379642,0.0034170105611462,0.73478000475232,0.70662852783392,1368840,32768,0.005415183428154,0.0054151834282354,0.0054151834283138,19.517995887773,19.530281866617,7.1343967102178e-05,7.1343967102178e-05,7.1343967102178e-05,526873.04319717,0.016379170648613
25380846,0.99954335289106,0.016068462852963,0.0053561542842878,0.0053561542843263,0.0053561542843488,-0.0013040319872502,0.0013040319867672,7.0193245644528e-12,-7.4986112755139e-12,1.5411764475292e-13,-6.4618484773175e-13,-0.0013667402735636,0.0013667402784066,-0.0013667402785043,0.001366740273906,-0.001366740274275,0.0013667402781052,-0.0013667402786011,0.0013667402735694,-0.0012361809392562,0.0012361809533081,-0.0012361809535674,0.0012361809391758,2.31596248423e-13,1.0437094683333e-12,1.3896559587291e-12,4.3896241352899e-13,-0.0013040319864711,0.0013040319875526,-0.0013667402756976,0.0013667402768144,-0.0013667402755596,0.0013667402761088,-0.0013667402749396,0.0013667402772091,-0.0013667402756861,0.0013667402767645,-0.001236180944511,0.0012361809487433,-0.0012361809458905,0.001236180947377,-0.001236180946431,0.0012361809470997,-0.0012361809456049,0.0012361809476427,-6.9206765780811e-12,7.5653370312056e-12,-0.0013040319867546,0.0013040319873376,-1.9513359762607e-13,7.511362003635e-13,-0.0013667402786305,0.0013667402738961,-0.0013667402781837,0.0013667402737158,-0.0013667402737495,0.0013667402791161,-0.0013667402733086,0.0013667402791446,-0.0012361809392379,0.00123618095413,-0.0012361809542454,0.0012361809405205,0.0034970005017009,0.0034168278003616,0.74090474194276,0.80699656310905,1368840,32768,0.0054185273688579,0.0054185273688706,0.0054185273690126,19.797769367378,19.81005432995,7.3582154939023e-05,7.3582154939023e-05,7.3582154939023e-05,518413.10164459,0.01638936551511
25467246,0.99955303987214,0.016068621619675,0.0053562072065252,0.0053562072065637,0.0053562072065862,-0.0013051100073825,0.0013051100069614,7.1710377532484e-12,-7.6430009233328e-12,7.1496815821354e-14,-4.9405731865275e-13,-0.0013675459241233,0.0013675459288201,-0.0013675459288773,0.0013675459237653,-0.0013675459245638,0.0013675459287805,-0.001367545929205,0.0013675459236658,-0.0012375068297254,0.0012375068431943,-0.0012375068441687,0.0012375068282802,4.778164618586e-13,1.0533502914599e-12,1.4597127008966e-12,2.6583596712897e-13,-0.0013051100066778,0.0013051100077015,-0.0013675459258396,0.0013675459271284,-0.0013675459261334,0.0013675459268453,-0.0013675459254476,0.0013675459272267,-0.0013675459259309,0.0013675459268589,-0.00123750683506,0.001237506838582,-0.0012375068361066,0.0012375068373954,-0.0012375068369483,0.0012375068374465,-0.0012375068347852,0.0012375068367102,-7.1829514481168e-12,7.600502662802e-12,-0.0013051100069019,0.0013051100074662,-2.3846542092743e-13,9.5142852274701e-13,-0.0013675459290775,0.0013675459241645,-0.0013675459283966,0.0013675459243719,-0.0013675459239937,0.0013675459291629,-0.0013675459234914,0.0013675459292297,-0.0012375068299956,0.0012375068458077,-0.0012375068440129,0.001237506830362,0.0035011708179223,0.0034166498510188,0.7501104043723,0.97189412652566,1368840,32768,0.0054229957623187,0.0054229957623919,0.0054229957623687,20.072186952106,20.089826793285,7.5777495616845e-05,7.5777495616845e-05,7.5777495616845e-05,501434.97030002,0.016402987670773
25553646,0.99956268544553,0.016068779692935,0.0053562598976118,0.0053562598976503,0.0053562598976728,-0.0013064559590264,0.0013064559585041,7.259125415172e-12,-7.8125631550878e-12,5.0958325611073e-14,-5.6920061131204e-13,-0.0013684954898919,0.001368495494404,-0.0013684954947424,0.0013684954894723,-0.0013684954900445,0.00136849549427,-0.0013684954951542,0.0013684954894916,-0.0012392170666218,0.0012392170807853,-0.0012392170815044,0.0012392170658194,1.9016310241246e-13,8.2149008051252e-13,1.2857570739451e-12,3.4453373943664e-13,-0.0013064559583257,0.0013064559592362,-0.0013684954917589,0.0013684954928267,-0.0013684954919011,0.0013684954924807,-0.0013684954913333,0.0013684954930423,-0.0013684954915066,0.0013684954926867,-0.0012392170721483,0.0012392170748722,-0.0012392170732895,0.0012392170744214,-0.0012392170732188,0.0012392170735902,-0.0012392170712168,0.0012392170740295,-7.2056521663901e-12,7.8354572498065e-12,-0.0013064559584657,0.0013064559590955,-1.6609939636569e-13,7.7055807762672e-13,-0.0013684954947283,0.0013684954900987,-0.0013684954942624,0.001368495490132,-0.0013684954896266,0.0013684954951482,-0.0013684954892067,0.0013684954952101,-0.0012392170656091,0.0012392170813635,-0.0012392170803259,0.0012392170664777,0.0035064089184399,0.0034164763438516,0.74983707826244,0.8911650188685,1368840,32768,0.0054285750159953,0.0054285750160605,0.0054285750160591,20.351461536886,20.369599256618,7.8011692295087e-05,7.8011692295087e-05,7.8011692295087e-05,477236.97188433,0.016419995620913
25640046,0.99957228606689,0.016068937563955,0.005356312521285,0.0053563125213236,0.005356312521346,-0.0013066639243165,0.0013066639237412,6.935392363818e-12,-7.8239462779294e-12,1.0499767474605e-13,-5.9860653651062e-13,-0.0013688590254772,0.0013688590302083,-0.0013688590305988,0.0013688590256239,-0.0013688590259983,0.0013688590303853,-0.0013688590304132,0.00136885902442,-0.0012392650991031,0.0012392651131549,-0.0012392651157796,0.001239265100487,7.3889042740464e-13,1.4541199305754e-12,1.5995403998446e-12,6.8292313716694e-13,-0.0013066639231105,0.0013066639250028,-0.001368859026217,0.0013688590291152,-0.0013688590282119,0.0013688590288552,-0.0013688590262781,0.0013688590295564,-0.0013688590265248,0.0013688590285837,-0.0012392651056953,0.0012392651087279,-0.0012392651063572,0.0012392651081607,-0.0012392651063209,0.0012392651073257,-0.0012392651064854,0.0012392651100693,-6.5386715421903e-12,8.1896669877657e-12,-0.0013066639232641,0.0013066639248451,3.8028441198402e-13,1.2891284415404e-12,-0.0013688590299947,0.001368859025945,-0.0013688590295115,0.0013688590262462,-0.0013688590247723,0.00136885903076,-0.0013688590244194,0.0013688590315279,-0.0012392651009155,0.0012392651161879,-0.0012392651143303,0.0012392651014065,0.0035071561204585,0.0034163072438036,0.75212499183251,0.88566267385759,1368840,32768,0.0054294358210732,0.0054294358211886,0.0054294358211799,20.631172472312,20.649371719951,8.0249379778491e-05,8.0249379778491e-05,8.0249379778491e-05,485451.81447145,0.016422623669715
25726446,0.99958180842126,0.016069093745945,0.0053563645819486,0.0053563645819872,0.0053563645820096,-0.0013071096563346,0.0013071096558496,7.0917200587025e-12,-7.646465758661e-12,5.8562681538513e-14,-5.3790556735415e-13,-0.0013693082897553,0.0013693082945465,-0.0013693082947531,0.0013693082896283,-0.0013693082902617,0.0013693082946755,-0.0013693082951426,0.0013693082896814,-0.0012396996096055,0.00123969962276,-0.0012396996236004,0.001239699609254,2.4619194959317e-13,8.5348333843457e-13,1.227263125601e-12,3.2471902123327e-13,-0.0013071096556023,0.0013071096565522,-0.0013693082895417,0.0013693082911413,-0.0013693082901641,0.001369308290939,-0.0013693082895173,0.0013693082913059,-0.0013693082897049,0.0013693082909288,-0.001239699615202,0.0012396996176696,-0.0012396996165677,0.0012396996171268,-0.0012396996163183,0.0012396996167098,-0.0012396996159407,0.001239699617278,-7.0777226627839e-12,7.6301228167502e-12,-0.0013071096558058,0.0013071096563736,-1.8612719629486e-13,7.1285831090322e-13,-0.0013693082927623,0.001369308287879,-0.0013693082922065,0.0013693082882771,-0.001369308287723,0.0013693082930895,-0.0013693082872219,0.001369308293211,-0.0012396996095259,0.0012396996241451,-0.0012396996236013,0.0012396996102462,0.0035088218708154,0.0034161420990871,0.75025764495366,0.82276034265226,1368840,32768,0.0054312827460209,0.0054312827459578,0.0054312827460093,20.860221359501,20.875249305261,8.2081770876009e-05,8.2081770876009e-05,8.2081770876009e-05,484405.07866779,0.016428256275553
25812846,0.99959109468131,0.016069246023975,0.0053564153412919,0.0053564153413304,0.0053564153413529,-0.0013067452699255,0.0013067452694319,7.1208209343966e-12,-7.6400331904656e-12,5.6421570477398e-14,-5.5280193580973e-13,-0.0013690915685445,0.0013690915731216,-0.0013690915733081,0.0013690915681684,-0.0013690915688487,0.00136909157296,-0.0013690915736694,0.0013690915681549,-0.0012391954099394,0.001239195423292,-0.0012391954241027,0.0012391954090848,2.981916551555e-13,9.181874205928e-13,1.3020823693362e-12,4.1248619294759e-13,-0.0013067452691648,0.0013067452702026,-0.0013690915699238,0.0013690915712843,-0.0013690915702588,0.0013690915710232,-0.0013690915696812,0.0013690915715769,-0.0013690915700533,0.0013690915712039,-0.0012391954152321,0.0012391954180688,-0.0012391954161996,0.001239195417116,-0.0012391954164861,0.0012391954169687,-0.0012391954159729,0.0012391954175086,-7.0698565501471e-12,7.6605780922448e-12,-0.0013067452693918,0.00130674526998,-1.5442313542039e-13,7.3181770229506e-13,-0.0013690915731232,0.0013690915683234,-0.0013690915725761,0.0013690915684771,-0.0013690915680882,0.0013690915733741,-0.0013690915675489,0.0013690915734306,-0.0012391954091209,0.0012391954243338,-0.0012391954233084,0.0012391954099511,0.0035071632633991,0.0034159800381312,0.75007278725065,0.80409036389844,1368840,32768,0.0054297719745731,0.0054297719745937,0.0054297719746028,20.817642865789,20.815464583242,8.174114292631e-05,8.174114292631e-05,8.174114292631e-05,492074.89284356,0.01642365181304
25899246,0.99960014254302,0.016069394271914,0.0053564647572716,0.00535646475731,0.0053564647573325,-0.0013065552096066,0.0013065552091496,7.1525600824345e-12,-7.6181131542253e-12,6.4697611767665e-14,-5.2831903668667e-13,-0.0013689476864809,0.0013689476911195,-0.0013689476912612,0.0013689476862128,-0.0013689476867414,0.0013689476909392,-0.0013689476915879,0.001368947686073,-0.0012389601918625,0.0012389602055081,-0.0012389602061607,0.0012389601913524,2.8878067794851e-13,8.9262826023114e-13,1.2867933364057e-12,4.2405422190519e-13,-0.0013065552088844,0.0013065552099004,-0.0013689476880482,0.0013689476894279,-0.0013689476884379,0.0013689476891381,-0.0013689476878936,0.0013689476896934,-0.001368947688159,0.0013689476893333,-0.0012389601973107,0.0012389602002978,-0.0012389601981969,0.0012389601993809,-0.0012389601984996,0.0012389601990305,-0.0012389601979643,0.0012389601995147,-7.0697720233176e-12,7.670306912683e-12,-0.0013065552090994,0.0013065552096857,-1.3215560979566e-13,7.272959580783e-13,-0.0013689476912283,0.0013689476865118,-0.001368947690776,0.0013689476865748,-0.0013689476861887,0.0013689476915371,-0.0013689476856915,0.0013689476915752,-0.001238960191032,0.0012389602062532,-0.0012389602054695,0.0012389601919455,0.0035061849320934,0.00341582093385,0.74953420405458,0.78542038514462,1368840,32768,0.0054289841222603,0.0054289841223193,0.0054289841223202,20.759407602895,20.755679861222,8.127526082316e-05,8.127526082316e-05,8.127526082316e-05,493820.48136097,0.016421250158175
25985646,0.99960895806259,0.016069538205087,0.0053565127349958,0.0053565127350343,0.0053565127350568,-0.0013063580700732,0.0013063580696094,7.142536271008e-12,-7.638061485994e-12,2.9813265695786e-14,-5.1937060417279e-13,-0.0013687975931822,0.0013687975977293,-0.001368797597913,0.001368797592866,-0.0013687975934466,0.001368797597616,-0.0013687975982401,0.00136879759269,-0.0012387176110067,0.001238717624603,-0.0012387176254373,0.0012387176103274,3.1004629300445e-13,8.7005230285231e-13,1.2617570424238e-12,4.3784218304538e-13,-0.0013063580693559,0.0013063580703604,-0.0013687975947789,0.0013687975959752,-0.0013687975950299,0.0013687975957645,-0.0013687975946375,0.0013687975962956,-0.0013687975948111,0.0013687975959208,-0.001238717616507,0.0012387176192866,-0.0012387176173545,0.0012387176184305,-0.0012387176176143,0.0012387176180119,-0.0012387176171843,0.0012387176186352,-7.0734553813817e-12,7.6767119817184e-12,-0.0013063580695911,0.0013063580701501,-1.3335186736846e-13,6.8744238146007e-13,-0.001368797597983,0.0013687975931866,-0.001368797597424,0.0013687975932523,-0.0013687975928377,0.001368797598141,-0.0013687975925028,0.0013687975981736,-0.0012387176101733,0.0012387176255183,-0.0012387176246111,0.0012387176108604,0.0035051778769857,0.003415664661644,0.74689994653967,0.73949931413216,1368840,32768,0.0054281669578988,0.0054281669579685,0.0054281669580203,20.699771826368,20.695895139203,8.0798174610941e-05,8.0798174610941e-05,8.0798174610941e-05,495743.15362964,0.016418759021897
26072046,0.99961754782481,0.016069675206064,0.0053565584019882,0.0053565584020267,0.0053565584020492,-0.001306013371073,0.0013060133705694,7.1557843956986e-12,-7.6942596515315e-12,-5.5752414449067e-15,-5.2798739975913e-13,-0.0013685747708139,0.0013685747753865,-0.0013685747756733,0.001368574770455,-0.0013685747711442,0.0013685747753288,-0.0013685747759699,0.0013685747704605,-0.0012382604477701,0.0012382604614271,-0.0012382604621003,0.0012382604470074,3.4989260513874e-13,8.833666608137e-13,1.306177156008e-12,4.314499665585e-13,-0.0013060133703138,0.00130601337134,-0.0013685747724859,0.0013685747737341,-0.0013685747727746,0.0013685747735616,-0.0013685747722583,0.0013685747740263,-0.0013685747725444,0.0013685747736999,-0.0012382604531747,0.0012382604560341,-0.0012382604540446,0.0012382604550122,-0.0012382604543335,0.0012382604549632,-0.0012382604541269,0.0012382604552241,-7.1202527752829e-12,7.6992636163109e-12,-0.0013060133705356,0.0013060133711335,-1.1573781723031e-13,7.5566788545304e-13,-0.001368574775654,0.001368574770888,-0.0013685747751279,0.0013685747709564,-0.0013685747705575,0.0013685747759692,-0.001368574770099,0.0013685747759425,-0.0012382604468139,0.0012382604621613,-0.0012382604611649,0.0012382604476496,0.0035035807953714,0.0034155106662036,0.72953814593929,0.48696973930173,1368840,32768,0.0054267380699867,0.0054267380700101,0.0054267380700419,20.640001826675,20.636110417183,8.0320014613397e-05,8.0320014613397e-05,8.0320014613397e-05,502179.97370343,0.016414403246119
26158446,0.99962591827453,0.016069811170097,0.0053566037233325,0.0053566037233711,0.0053566037233935,-0.0013044178761477,0.0013044178756525,7.1456057066506e-12,-7.6499178884949e-12,4.4116358157894e-14,-5.4874470681411e-13,-0.0013677383373669,0.001367738341922,-0.0013677383422158,0.0013677383370782,-0.0013677383376995,0.0013677383418334,-0.0013677383425131,0.0013677383370132,-0.0012359771122797,0.0012359771259584,-0.0012359771266466,0.0012359771115802,2.8904031707554e-13,8.9296524993633e-13,1.2557837543154e-12,4.8190501342675e-13,-0.0013044178753984,0.0013044178764183,-0.0013677383390501,0.0013677383403173,-0.0013677383393063,0.0013677383400991,-0.0013677383388345,0.0013677383405798,-0.0013677383390796,0.0013677383402626,-0.001235977117823,0.0012359771206088,-0.0012359771185456,0.0012359771197737,-0.0012359771189413,0.0012359771194114,-0.0012359771183813,0.0012359771199701,-7.1057006904273e-12,7.6587611183403e-12,-0.0013044178756382,0.0013044178761893,-1.0410120213267e-13,6.6698382998418e-13,-0.0013677383422101,0.0013677383374283,-0.0013677383417072,0.0013677383374909,-0.001367738337138,0.0013677383424804,-0.0013677383366761,0.0013677383424976,-0.0012359771114783,0.0012359771267723,-0.001235977125946,0.0012359771123004,0.0034969536659753,0.0034153599224286,0.74315228560846,0.74505266470285,1368840,32768,0.0054201238141163,0.0054201238141505,0.0054201238141728,20.580217330711,20.576325695164,7.9841738645687e-05,7.9841738645687e-05,7.9841738645687e-05,547278.17817845,0.016394241795935
26244846,0.99963407566153,0.01606994512006,0.00535664837332,0.0053566483733585,0.005356648373381,-0.001305792371837,0.001305792371355,7.1497760498377e-12,-7.6371999240788e-12,3.4969519940464e-14,-5.2063362441192e-13,-0.0013683724475164,0.0013683724520757,-0.0013683724523584,0.0013683724472292,-0.0013683724478439,0.0013683724519742,-0.0013683724526457,0.0013683724471756,-0.0012380363660726,0.0012380363797986,-0.0012380363805031,0.0012380363654178,3.0285324804116e-13,8.6941061657304e-13,1.2625219896434e-12,4.544752631515e-13,-0.0013057923710988,0.0013057923721105,-0.0013683724491803,0.0013683724504655,-0.0013683724494471,0.0013683724502391,-0.0013683724489641,0.0013683724507273,-0.0013683724492367,0.0013683724504022,-0.0012380363716299,0.0012380363745566,-0.0012380363724755,0.0012380363735702,-0.0012380363727634,0.0012380363732956,-0.0012380363722817,0.0012380363738076,-7.1048931268625e-12,7.6514683117188e-12,-0.0013057923713335,0.0013057923718861,-1.1277202548027e-13,6.9235240793272e-13,-0.0013683724523708,0.0013683724475812,-0.0013683724518502,0.0013683724476454,-0.0013683724473002,0.0013683724526257,-0.0013683724468294,0.0013683724526451,-0.0012380363653189,0.0012380363806298,-0.0012380363798252,0.0012380363661213,0.0035022321703014,0.0034152121980307,0.75178769310752,0.89063143819142,1368840,32768,0.0054258225744078,0.0054258225744437,0.0054258225744652,20.520430371523,20.516540973144,7.9363442972179e-05,7.9363442972179e-05,7.9363442972179e-05,502037.66964921,0.016411610499486
26331246,0.99964202604403,0.01607007582677,0.0053566919422234,0.0053566919422619,0.0053566919422844,-0.0013064131447353,0.0013064131442465,7.1489288404253e-12,-7.646165003143e-12,3.9204272924608e-14,-5.3409403673497e-13,-0.0013686295682182,0.0013686295727836,-0.0013686295730664,0.001368629567929,-0.0013686295685468,0.0013686295726935,-0.0013686295733603,0.0013686295678653,-0.0012389896832888,0.0012389896970058,-0.0012389896976514,0.0012389896826274,2.9635885820502e-13,8.8058062827802e-13,1.2649264750115e-12,4.5868678155132e-13,-0.0013064131439906,0.0013064131450072,-0.001368629569886,0.0013686295711786,-0.0013686295701615,0.00136862957094,-0.0013686295696685,0.0013686295714372,-0.0013686295699434,0.0013686295711084,-0.001238989688769,0.001238989691597,-0.001238989689573,0.0012389896907367,-0.0012389896899357,0.0012389896903891,-0.0012389896894095,0.0012389896908907,-7.1022139734147e-12,7.6625387088199e-12,-0.0013064131442257,0.0013064131447837,-1.1885454554581e-13,6.8439768035595e-13,-0.0013686295730735,0.0013686295682775,-0.0013686295725579,0.0013686295683557,-0.0013686295679922,0.0013686295733376,-0.0013686295675154,0.0013686295733665,-0.0012389896824036,0.0012389896977205,-0.0012389896969004,0.0012389896832845,0.0035045044313878,0.0034150672668036,0.75220649846427,0.8567619902571,1368840,32768,0.0054283964225945,0.0054283964226276,0.0054283964226517,20.460644990793,20.456756251124,7.8885159926339e-05,7.8885159926339e-05,7.8885159926339e-05,479684.6436652,0.016419454865678
26417646,0.99964977528958,0.016070204182787,0.0053567347275626,0.0053567347276011,0.0053567347276236,-0.001306163755647,0.0013061637551772,7.1473263599682e-12,-7.6355539155397e-12,2.6330430917527e-14,-5.0071752695267e-13,-0.0013684462627408,0.0013684462673188,-0.001368446267577,0.0013684462624915,-0.0013684462630513,0.0013684462672724,-0.0013684462678856,0.0013684462624258,-0.0012386710815097,0.0012386710953348,-0.0012386710958592,0.0012386710809445,3.3454513281701e-13,8.7255105004672e-13,1.272213575925e-12,4.3796735569203e-13,-0.001306163754913,0.0013061637559238,-0.0013684462644424,0.0013684462657274,-0.001368446264754,0.0013684462654651,-0.0013684462642034,0.0013684462659401,-0.0013684462644888,0.0013684462655668,-0.0012386710871159,0.0012386710899656,-0.0012386710879244,0.001238671088966,-0.0012386710881339,0.0012386710887217,-0.0012386710877685,0.0012386710890931,-7.0819842384781e-12,7.6705024949434e-12,-0.001306163755139,0.0013061637557099,-1.2045837890274e-13,7.108503428335e-13,-0.0013684462676203,0.0013684462628207,-0.0013684462670629,0.0013684462628871,-0.0013684462625243,0.0013684462678323,-0.001368446262086,0.0013684462679213,-0.0012386710807177,0.0012386710960238,-0.0012386710952322,0.0012386710816636,0.003503327162944,0.0034149252072219,0.75764036917178,0.92177867717295,1368840,32768,0.0054273624634845,0.0054273624635104,0.0054273624635357,20.400858442887,20.396971529105,7.8406867543098e-05,7.8406867543098e-05,7.8406867543098e-05,482635.08897689,0.016416303540459
26504046,0.99965734874358,0.01607033010785,0.0053567767025836,0.0053567767026221,0.0053567767026446,-0.0013064557590282,0.001306455758547,7.1464276815398e-12,-7.6427225788949e-12,2.9163579660895e-14,-5.1691173811299e-13,-0.0013685764741873,0.001368576478748,-0.0013685764790313,0.0013685764738971,-0.0013685764745047,0.0013685764786627,-0.0013685764793141,0.0013685764738424,-0.0012391051744536,0.0012391051881454,-0.001239105188769,0.0012391051737358,3.1143219184267e-13,8.6843946977032e-13,1.2680708201304e-12,4.4859050175045e-13,-0.0013064557582899,0.001306455759302,-0.0013685764758554,0.0013685764771494,-0.001368576476127,0.0013685764769222,-0.0013685764756499,0.0013685764773998,-0.0013685764759196,0.0013685764770708,-0.0012391051799527,0.0012391051827581,-0.0012391051807537,0.0012391051818701,-0.0012391051810429,0.0012391051815698,-0.0012391051805535,0.001239105182057,-7.0919139351326e-12,7.6669226043066e-12,-0.0013064557585206,0.0013064557590819,-1.2415417776333e-13,6.9233164386116e-13,-0.0013685764790382,0.0013685764742495,-0.0013685764785181,0.0013685764743216,-0.0013685764739636,0.0013685764792954,-0.0013685764734878,0.0013685764793258,-0.0012391051735783,0.0012391051889299,-0.0012391051880365,0.0012391051744571,0.0035043185941725,0.0034147859970587,0.76057691039395,0.92644670818879,1368840,32768,0.0054285730158876,0.005428573015922,0.0054285730159441,20.383457008889,20.382234234499,7.8267656071113e-05,7.8267656071113e-05,7.8267656071113e-05,472195.00598924,0.016419993449313
26590446,0.99966483955432,0.016070454687771,0.0053568182292238,0.0053568182292623,0.0053568182292848,-0.0013068460686299,0.0013068460681434,7.1056933377108e-12,-7.6333656294492e-12,1.0405623291822e-14,-5.0285787333126e-13,-0.001368937676879,0.0013689376814706,-0.0013689376817644,0.0013689376766253,-0.0013689376772243,0.0013689376814053,-0.0013689376820279,0.0013689376766016,-0.0012395120862331,0.0012395120998733,-0.0012395121007723,0.0012395120855941,3.2164337989788e-13,8.4590133476546e-13,1.2625424007845e-12,4.5203780820231e-13,-0.0013068460678922,0.0013068460688992,-0.001368937677028,0.0013689376783238,-0.0013689376773126,0.0013689376780877,-0.0013689376768783,0.0013689376785554,-0.0013689376770675,0.0013689376782292,-0.0012395120934285,0.0012395120961161,-0.0012395120943153,0.0012395120952494,-0.0012395120966606,0.0012395120972646,-0.0012395120962996,0.0012395120977126,-7.0926310308729e-12,7.6161438320338e-12,-0.0013068460681264,0.0013068460686742,-1.2717535017447e-13,6.8038500882266e-13,-0.0013689376802222,0.0013689376754236,-0.0013689376796928,0.0013689376755324,-0.0013689376751139,0.0013689376805053,-0.0013689376746841,0.0013689376804848,-0.001239512089522,0.0012395121047156,-0.0012395121038806,0.0012395120901237,0.0035057780644098,0.0034146499842754,0.7606284414966,0.88679273147522,1368840,32768,0.0054301903902408,0.0054301903902753,0.0054301903902945,20.561092995647,20.572219945625,7.968874396517e-05,7.968874396517e-05,7.968874396517e-05,469652.66424755,0.016424925600422
26676846,0.99967225181117,0.016070577817795,0.0053568592725651,0.0053568592726036,0.0053568592726261,-0.0013070511584867,0.0013070511580478,7.1809050400449e-12,-7.589121157558e-12,-9.7602900651323e-15,-4.9883523151433e-13,-0.0013692208581502,0.0013692208627036,-0.0013692208627537,0.0013692208577003,-0.0013692208582964,0.0013692208625611,-0.0013692208632219,0.0013692208577611,-0.0012396377235151,0.0012396377377096,-0.0012396377381086,0.0012396377234823,3.6240072302432e-13,8.6341827022334e-13,1.2666254231098e-12,4.5833967450815e-13,-0.0013070511577992,0.0013070511587909,-0.0013692208593746,0.0013692208605336,-0.0013692208596136,0.001369220860455,-0.0013692208590352,0.0013692208607379,-0.0013692208593814,0.0013692208604276,-0.0012396377298135,0.0012396377324511,-0.0012396377303521,0.0012396377314621,-0.0012396377317596,0.0012396377320964,-0.0012396377313121,0.0012396377327064,-7.0962065098798e-12,7.6437600766118e-12,-0.0013070511580403,0.0013070511585853,-1.1886592755104e-13,6.8643638278087e-13,-0.0013692208626361,0.0013692208577299,-0.0013692208620095,0.0013692208577093,-0.0013692208574299,0.0013692208628645,-0.0013692208569994,0.0013692208627751,-0.0012396377244387,0.0012396377395549,-0.0012396377391022,0.0012396377253091,0.003506506950267,0.0034145170806958,0.7597029679591,0.84713875476167,1368840,32768,0.0054310398183646,0.0054310398184789,0.0054310398185526,20.749959157131,20.762205656751,8.1199673257048e-05,8.1199673257048e-05,8.1199673257048e-05,473360.46443803,0.016427517269727
26763246,0.99967958475012,0.016070699348727,0.0053568997828758,0.0053568997829143,0.0053568997829368,-0.0013072455792988,0.0013072455789031,7.1978806390991e-12,-7.5830444020222e-12,8.1673975504347e-16,-4.6016947155028e-13,-0.0013695042522564,0.0013695042568672,-0.0013695042571629,0.001369504252101,-0.0013695042524808,0.00136950425687,-0.0013695042574328,0.0013695042520232,-0.0012397459001015,0.0012397459140376,-0.0012397459146237,0.0012397458994596,3.7546411806422e-13,8.4733458509829e-13,1.2578681318155e-12,4.6811575820844e-13,-0.0013072455785929,0.0013072455796179,-0.0013695042540142,0.0013695042551281,-0.001369504253857,0.001369504254868,-0.0013695042535895,0.0013695042552413,-0.0013695042539246,0.0013695042551683,-0.0012397459063823,0.0012397459084916,-0.0012397459069422,0.0012397459074424,-0.001239745907108,0.0012397459075173,-0.0012397459072635,0.0012397459078604,-7.0848560330996e-12,7.6655592930137e-12,-0.0013072455788796,0.0013072455793604,-1.386568817745e-13,6.4929084108108e-13,-0.0013695042570684,0.00136950425228,-0.001369504256465,0.0013695042521418,-0.0013695042520474,0.0013695042570869,-0.0013695042515193,0.0013695042573124,-0.0012397458996774,0.001239745915207,-0.0012397459142399,0.0012397459006511,0.0035071878224,0.0034143871786506,0.7579739489897,0.80748477804811,1368840,32768,0.0054318450984194,0.0054318450984374,0.0054318450984981,20.93982879283,20.952191367876,8.2718630342637e-05,8.2718630342637e-05,8.2718630342637e-05,477711.41858819,0.016429974105529
26849646,0.99968683721602,0.016070819167203,0.0053569397223679,0.0053569397224064,0.0053569397224289,-0.0013074286056825,0.0013074286051063,7.0769578626186e-12,-7.6397914331453e-12,-5.1910531815945e-14,-5.4617884402299e-13,-0.0013697844862362,0.0013697844904173,-0.0013697844910112,0.0013697844856884,-0.0013697844865489,0.0013697844904772,-0.0013697844912309,0.0013697844857986,-0.0012398371540185,0.0012398371674663,-0.0012398371679203,0.0012398371525596,2.6646783017893e-13,7.7230446545224e-13,1.1422936919471e-12,3.5748578493701e-13,-0.001307428604991,0.0013074286058285,-0.0013697844878653,0.0013697844889106,-0.0013697844880878,0.0013697844888185,-0.0013697844876119,0.0013697844890797,-0.001369784487748,0.0013697844888891,-0.0012398371595952,0.0012398371619495,-0.0012398371601963,0.0012398371611242,-0.0012398371603007,0.0012398371613279,-0.0012398371600693,0.0012398371611573,-6.9840242899108e-12,7.7019995327305e-12,-0.0013074286050819,0.0013074286057307,-5.1248993201966e-14,7.2995161224401e-13,-0.0013697844907665,0.001369784486183,-0.0013697844903374,0.0013697844863093,-0.0013697844858156,0.0013697844910909,-0.0013697844855214,0.0013697844911947,-0.0012398371529189,0.0012398371688145,-0.0012398371671268,0.0012398371539768,0.0035078188164453,0.0034142601795427,0.75561938917301,0.76783080133454,1368840,32768,0.0054326032089574,0.0054326032090209,0.0054326032090067,21.129794838469,21.142177079002,8.4238358707753e-05,8.4238358707753e-05,8.4238358707753e-05,482605.03574609,0.016432286932459
26936046,0.99969400805192,0.016070937191985,0.0053569790639619,0.0053569790640004,0.0053569790640229,-0.0013076012265921,0.0013076012261744,7.1885961580277e-12,-7.6150587181245e-12,-1.7212591814194e-14,-4.5192031179174e-13,-0.0013700612533597,0.0013700612579782,-0.0013700612581769,0.0013700612532239,-0.0013700612535795,0.0013700612579197,-0.0013700612585809,0.0013700612529793,-0.0012399132101581,0.0012399132240413,-0.0012399132248866,0.0012399132098938,3.883995170143e-13,8.3399269856612e-13,1.1989971067555e-12,3.9616075050218e-13,-0.0013076012258908,0.0013076012268792,-0.0013700612551211,0.0013700612562676,-0.0013700612555173,0.0013700612560084,-0.00137006125479,0.0013700612565712,-0.0013700612552839,0.0013700612563044,-0.0012399132163867,0.0012399132184478,-0.0012399132174377,0.0012399132173474,-0.0012399132169417,0.0012399132178006,-0.0012399132165187,0.0012399132180822,-7.0373153089655e-12,7.7359391429576e-12,-0.0013076012261018,0.0013076012267162,-9.4562728820604e-14,7.052723955889e-13,-0.0013700612584014,0.0013700612533843,-0.0013700612577352,0.0013700612535473,-0.0013700612530973,0.0013700612584871,-0.0013700612526819,0.0013700612584001,-0.0012399132097713,0.0012399132249297,-0.0012399132242867,0.0012399132103448,0.0035084056065933,0.0034141359931896,0.75282070804091,0.72817682462098,1368840,32768,0.0054333182344037,0.0054333182344109,0.0054333182345105,21.319770496494,21.332162790127,8.5758163971954e-05,8.5758163971954e-05,8.5758163971954e-05,487964.15826507,0.016434468254436
27022446,0.9997010961368,0.016071053367975,0.0053570177892919,0.0053570177893304,0.0053570177893529,-0.0013077645373799,0.0013077645366896,7.023242503586e-12,-7.7680619263345e-12,-1.5547142692522e-13,-6.2868967631488e-13,-0.0013703352739136,0.0013703352782545,-0.0013703352784741,0.0013703352733828,-0.0013703352742091,0.0013703352787071,-0.001370335279283,0.0013703352733459,-0.0012399752247132,0.0012399752380745,-0.0012399752385708,0.0012399752227663,3.2266596630563e-13,8.0617084262237e-13,1.2983195431115e-12,4.1894834847435e-13,-0.0013077645365871,0.0013077645375538,-0.0013703352757394,0.0013703352767137,-0.0013703352762417,0.0013703352765008,-0.0013703352752959,0.0013703352769439,-0.0013703352755025,0.0013703352764944,-0.0012399752298504,0.0012399752324068,-0.0012399752307912,0.0012399752318612,-0.0012399752301409,0.0012399752315539,-0.0012399752303032,0.0012399752317153,-6.9674434435031e-12,7.7936515857644e-12,-0.0013077645367018,0.0013077645373769,-1.3293149785752e-13,7.431461503364e-13,-0.0013703352787841,0.0013703352738883,-0.0013703352779881,0.0013703352740978,-0.0013703352736174,0.0013703352789681,-0.0013703352726262,0.0013703352791203,-0.0012399752230294,0.0012399752389258,-0.0012399752369707,0.0012399752238738,0.0035089543078645,0.003414014536734,0.7497247513595,0.68852284790742,1368840,32768,0.0054339946993252,0.0054339946994732,0.0054339946993445,21.509747342004,21.522148501253,8.727797873603e-05,8.727797873603e-05,8.727797873603e-05,493725.94184898,0.016436531917992
27108846,0.99970810039006,0.016071167657331,0.005357055885744,0.0053570558857825,0.0053570558858049,-0.0013079193117374,0.0013079193111955,7.1234940880277e-12,-7.5832905121508e-12,1.7635225961834e-14,-6.2110890790215e-13,-0.0013706050784315,0.0013706050828183,-0.0013706050833324,0.001370605078041,-0.0013706050787721,0.0013706050828894,-0.0013706050838442,0.0013706050780533,-0.0012400255766604,0.0012400255911415,-0.0012400255912436,0.0012400255764351,2.7526682608153e-13,9.2573660173521e-13,1.2227718804525e-12,4.9824316136637e-13,-0.0013079193109997,0.0013079193119692,-0.0013706050804224,0.0013706050811842,-0.0013706050806415,0.0013706050810715,-0.0013706050798252,0.0013706050816463,-0.0013706050800357,0.0013706050811691,-0.0012400255827159,0.0012400255851049,-0.0012400255837128,0.0012400255848488,-0.0012400255832199,0.0012400255846892,-0.0012400255829641,0.0012400255847145,-7.2172265186839e-12,7.4596171432285e-12,-0.0013079193113296,0.0013079193115846,-2.5957912885932e-13,4.6337381483626e-13,-0.0013706050831941,0.0013706050782214,-0.0013706050826534,0.0013706050784206,-0.0013706050784506,0.001370605083445,-0.0013706050778817,0.001370605083346,-0.0012400255759516,0.0012400255917937,-0.0012400255908902,0.0012400255771228,0.0035094691585216,0.0034138957327001,0.74642664370297,0.64886887119386,1368840,32768,0.0054346357985642,0.0054346357986386,0.0054346357985254,21.699724523825,21.712134212378,8.8797796190596e-05,8.8797796190596e-05,8.8797796190596e-05,499816.71142662,0.016438487697866
27195246,0.99971501977287,0.016071280033109,0.0053570933443366,0.0053570933443751,0.0053570933443975,-0.0013080658849429,0.0013080658844448,7.0531150027663e-12,-7.6699573939488e-12,1.2473313066495e-13,-4.7540947656682e-13,-0.0013708712242735,0.0013708712288038,-0.0013708712291638,0.0013708712242272,-0.0013708712245468,0.0013708712285639,-0.0013708712295803,0.0013708712239511,-0.0012400642786058,0.0012400642913108,-0.0012400642932341,0.0012400642775331,2.3565359506208e-13,8.4826785070532e-13,1.1158557349027e-12,5.2865482054635e-13,-0.0013080658842509,0.0013080658851883,-0.0013708712260048,0.0013708712271614,-0.0013708712262355,0.0013708712270842,-0.0013708712257064,0.0013708712274341,-0.0013708712258418,0.0013708712272664,-0.0012400642851964,0.0012400642859785,-0.0012400642846628,0.0012400642864771,-0.0012400642855293,0.0012400642857429,-0.0012400642851465,0.0012400642853548,-7.0974451779217e-12,7.5954995803486e-12,-0.0013080658844751,0.0013080658849438,-6.6858516341749e-14,5.1982414914083e-13,-0.0013708712288499,0.0013708712243274,-0.0013708712287386,0.0013708712244165,-0.0013708712242624,0.0013708712292198,-0.001370871223574,0.0013708712291594,-0.0012400642786515,0.0012400642938105,-0.0012400642923481,0.0012400642783129,0.0035099523100057,0.0034137795075558,0.74298409473274,0.60921489448029,1368840,32768,0.0054352429144363,0.0054352429145432,0.0054352429145011,21.889701923866,21.902119923504,9.0317615390924e-05,9.0317615390924e-05,9.0317615390924e-05,506216.108493,0.01644033983462
27281646,0.9997218473969,0.016071390380839,0.0053571301269132,0.0053571301269516,0.0053571301269741,-0.0013081767176657,0.0013081767171659,7.0763379403804e-12,-7.5854075651233e-12,1.9045771105943e-14,-5.4985867278322e-13,-0.001371106407599,0.0013711064118969,-0.0013711064122506,0.0013711064072113,-0.0013711064082399,0.0013711064119976,-0.0013711064128376,0.0013711064076549,-0.0012400635395379,0.0012400635536249,-0.0012400635538438,0.0012400635389456,4.5255202778737e-13,1.032644629886e-12,1.1445679459996e-12,6.122272380546e-13,-0.001308176716916,0.0013081767179445,-0.001371106409553,0.0013711064102799,-0.00137110640941,0.0013711064101759,-0.0013711064090067,0.0013711064106778,-0.0013711064091294,0.0013711064103968,-0.0012400635455483,0.0012400635472755,-0.0012400635457762,0.001240063547256,-0.0012400635461457,0.0012400635477899,-0.0012400635445074,0.0012400635473495,-7.0840102354088e-12,7.5468349199618e-12,-0.0013081767172276,0.0013081767176295,-1.1280531858083e-13,4.1723119504986e-13,-0.0013711064124031,0.0013711064075625,-0.0013711064118514,0.0013711064077454,-0.0013711064075143,0.0013711064126688,-0.0013711064071697,0.0013711064126523,-0.0012400635384327,0.0012400635539731,-0.0012400635534207,0.0012400635397242,0.0035102897253027,0.0034136657597741,0.73943542771427,0.56956091776674,1368840,32768,0.0054357019158441,0.0054357019159041,0.0054357019158968,22.06541366493,22.07693735529,9.1723309319435e-05,9.1723309319435e-05,9.1723309319435e-05,512921.96909964,0.016441740328543
27368046,0.99972855940421,0.01607149976589,0.0053571665885968,0.0053571665886352,0.0053571665886577,-0.0013081688766033,0.0013081688761102,7.0452912417769e-12,-7.5622968593748e-12,1.894383304361e-14,-5.4360251096349e-13,-0.0013712300629457,0.0013712300675017,-0.0013712300677482,0.0013712300626693,-0.0013712300633435,0.001371230067426,-0.0013712300680591,0.0013712300626472,-0.0012399386001607,0.0012399386136611,-0.0012399386141122,0.0012399385992846,3.113549294971e-13,8.8479755827724e-13,1.1966827362815e-12,5.2498175628535e-13,-0.0013081688758635,0.0013081688768688,-0.0013712300646449,0.0013712300658451,-0.001371230064881,0.0013712300656586,-0.0013712300644448,0.0013712300661262,-0.0013712300647235,0.0013712300658491,-0.0012399386053732,0.0012399386082586,-0.0012399386062491,0.0012399386076575,-0.0012399386063613,0.0012399386070588,-0.0012399386060044,0.0012399386079344,-6.9953488851286e-12,7.5813729824947e-12,-0.0013081688761039,0.0013081688766374,-8.1107404577406e-14,5.8792639219346e-13,-0.001371230067771,0.001371230063007,-0.0013712300673012,0.001371230063065,-0.0013712300627437,0.0013712300680219,-0.0013712300623029,0.0013712300680294,-0.0012399385991794,0.0012399386144359,-0.001239938613511,0.001239938600188,0.0035101367858536,0.0034135545571364,0.74571666995988,0.68857783861045,1368840,32768,0.0054356691173786,0.0054356691174175,0.0054356691174362,22.183946839197,22.191828702197,9.2671574713577e-05,9.2671574713577e-05,9.2671574713577e-05,519971.5065891,0.016441641200265
27454446,0.9997351552174,0.016071607388369,0.0053572024627564,0.0053572024627949,0.0053572024628173,-0.0013090599324772,0.0013090599319736,7.0435545301263e-12,-7.5635382332164e-12,4.2977745882894e-14,-5.5958984609079e-13,-0.0013717917532753,0.0013717917577846,-0.0013717917580597,0.0013717917529919,-0.0013717917536096,0.0013717917576803,-0.0013717917583774,0.0013717917529123,-0.0012411357067422,0.0012411357201522,-0.0012411357208617,0.0012411357059991,2.8782188370961e-13,9.0132546512573e-13,1.1940486402807e-12,5.2985725440106e-13,-0.0013090599317214,0.0013090599327465,-0.0013717917549494,0.0013717917561782,-0.0013717917551701,0.0013717917559915,-0.0013717917547204,0.0013717917564509,-0.0013717917549314,0.0013717917561669,-0.0012411357121543,0.0012411357148161,-0.0012411357128513,0.0012411357141167,-0.0012411357132126,0.0012411357138245,-0.00124113571274,0.0012411357142177,-7.0303779914841e-12,7.5459593290634e-12,-0.0013090599319868,0.0013090599324928,-7.2736748530496e-14,5.8913129656093e-13,-0.0013717917580776,0.0013717917533414,-0.001371791757618,0.0013717917533661,-0.0013717917530564,0.0013717917583346,-0.0013717917526315,0.0013717917583182,-0.001241135705892,0.0012411357208858,-0.0012411357201158,0.0012411357066267,0.0035135899333603,0.0034134456996443,0.74670651121079,0.70973380380836,1368840,32768,0.0054393629168224,0.0054393629168577,0.0054393629168819,22.299165271716,22.306720049104,9.3593322173725e-05,9.3593322173725e-05,9.3593322173725e-05,499521.57646804,0.016452901257987
27540846,0.9997416355678,0.016071713321116,0.0053572377736722,0.0053572377737107,0.0053572377737332,-0.0013094009240452,0.0013094009235451,7.074547112736e-12,-7.5873678581789e-12,4.3609726576317e-14,-5.4898122900029e-13,-0.0013720779014568,0.0013720779059783,-0.0013720779062677,0.0013720779011735,-0.0013720779017912,0.0013720779058661,-0.0013720779065687,0.0013720779010934,-0.0012415283697808,0.001241528383298,-0.0012415283839545,0.0012415283690009,2.9130213033164e-13,8.948744269064e-13,1.195348777033e-12,5.2606995833565e-13,-0.0013094009232923,0.0013094009243141,-0.0013720779031338,0.0013720779043737,-0.0013720779033477,0.0013720779042001,-0.0013720779029015,0.0013720779046405,-0.0013720779031249,0.0013720779043637,-0.0012415283752152,0.0012415283779887,-0.0012415283759173,0.0012415283771342,-0.0012415283762746,0.0012415283767274,-0.0012415283757325,0.0012415283772689,-7.0507986617643e-12,7.5804493636518e-12,-0.0013094009235521,0.0013094009240657,-7.5363374171239e-14,5.9152763511914e-13,-0.0013720779062732,0.0013720779015392,-0.0013720779058046,0.0013720779015415,-0.0013720779012519,0.0013720779065326,-0.0013720779008131,0.0013720779065104,-0.0012415283688812,0.0012415283840218,-0.0012415283832009,0.0012415283696683,0.0035148479692741,0.0034133391502223,0.74787266373605,0.73088976900627,1368840,32768,0.0054407762190238,0.0054407762190574,0.005440776219081,22.414085998532,22.421611396011,9.4512687988256e-05,9.4512687988256e-05,9.4512687988256e-05,495553.35673289,0.016457210289407
27627246,0.99974800131878,0.016071817575627,0.005357272525176,0.0053572725252145,0.005357272525237,-0.0013097416135407,0.0013097416130306,7.0619017931595e-12,-7.5990232668201e-12,5.4603802479551e-14,-5.6133402810134e-13,-0.0013723633582798,0.0013723633627966,-0.0013723633630784,0.0013723633579822,-0.0013723633586102,0.0013723633626898,-0.0013723633633912,0.0013723633579059,-0.0012419205491418,0.0012419205625946,-0.0012419205632866,0.0012419205483138,2.8849056916408e-13,9.1545691577256e-13,1.2116757782543e-12,5.271824831723e-13,-0.0013097416127788,0.0013097416138097,-0.0013723633599501,0.0013723633611848,-0.0013723633601719,0.0013723633610053,-0.0013723633597179,0.0013723633614598,-0.0013723633599415,0.0013723633611739,-0.0012419205545734,0.0012419205573368,-0.0012419205552113,0.0012419205565735,-0.0012419205556283,0.001241920556154,-0.0012419205549998,0.0012419205567947,-7.0460856880953e-12,7.5841791908846e-12,-0.0013097416130394,0.0013097416135592,-7.7251463550228e-14,6.0476873061276e-13,-0.0013723633630815,0.0013723633583398,-0.0013723633626147,0.0013723633583623,-0.0013723633580525,0.001372363363349,-0.0013723633576223,0.0013723633633333,-0.001241920548313,0.0012419205634413,-0.0012419205625782,0.0012419205490839,0.0035161092322769,0.0034132348529975,0.74924093549264,0.75204573420417,1368840,32768,0.005442188252144,0.0054421882521796,0.0054421882522006,22.528978075675,22.536502742918,9.5431824605401e-05,9.5431824605401e-05,9.5431824605401e-05,491562.01572482,0.016461515519454
27713646,0.99975425336326,0.016071920191264,0.0053573067303882,0.0053573067304267,0.0053573067304491,-0.0013100819746599,0.0013100819741479,7.0819788268787e-12,-7.6130074278488e-12,5.9193956371147e-14,-5.790140762233e-13,-0.0013726480845556,0.0013726480890913,-0.0013726480893731,0.0013726480842694,-0.0013726480849096,0.0013726480889793,-0.001372648089694,0.001372648084189,-0.0012423120518939,0.0012423120654201,-0.0012423120661406,0.0012423120511694,2.8277012627263e-13,9.319105895947e-13,1.2100477691654e-12,5.31371825779e-13,-0.0013100819738928,0.0013100819749314,-0.0013726480862386,0.0013726480874682,-0.0013726480864558,0.0013726480872907,-0.0013726480859997,0.0013726480877498,-0.0013726480862181,0.0013726480874686,-0.0012423120574327,0.0012423120601375,-0.0012423120580688,0.0012423120594173,-0.0012423120584699,0.0012423120589844,-0.0012423120578385,0.0012423120595856,-7.0731514494902e-12,7.5911660362648e-12,-0.0013100819741627,0.0013100819746724,-8.0776385278053e-14,5.9551442509015e-13,-0.0013726480893763,0.0013726480846115,-0.0013726480889057,0.0013726480846422,-0.0013726480843301,0.0013726480896351,-0.001372648083908,0.0013726480896171,-0.0012423120511284,0.0012423120662159,-0.0012423120654701,0.0012423120518699,0.003517373653629,0.003413132762341,0.75084091859929,0.77320169940208,1368840,32768,0.0054435989062773,0.0054435989063113,0.0054435989063341,22.643867445383,22.651394089824,9.6350939563065e-05,9.6350939563065e-05,9.6350939563065e-05,487542.339753,0.016465816616061
27800046,0.99976039261346,0.016072021209512,0.0053573404031375,0.005357340403176,0.0053573404031985,-0.0013104219773646,0.0013104219768611,7.1057872760175e-12,-7.6068492042136e-12,5.8621032697102e-14,-5.8365152278779e-13,-0.0013729320936609,0.0013729320982076,-0.0013729320984599,0.0013729320933914,-0.0013729320940459,0.0013729320980936,-0.0013729320988161,0.0013729320933226,-0.0012427026800676,0.0012427026936946,-0.0012427026943657,0.0012427026793581,2.7390148543881e-13,9.2703479737034e-13,1.2286001729904e-12,5.1613293837537e-13,-0.0013104219765994,0.0013104219776358,-0.0013729320953747,0.0013729320965806,-0.0013729320955958,0.001372932096395,-0.0013729320951223,0.0013729320968714,-0.0013729320953367,0.0013729320966023,-0.0012427026856108,0.0012427026884579,-0.0012427026862952,0.0012427026876464,-0.0012427026867042,0.0012427026872113,-0.001242702686192,0.0012427026878654,-7.0659032591527e-12,7.6161702724026e-12,-0.0013104219768575,0.0013104219773935,-8.5837436548764e-14,6.2405881778443e-13,-0.0013729320984855,0.0013729320937428,-0.0013729320980182,0.0013729320937722,-0.0013729320934466,0.0013729320987696,-0.0013729320930082,0.0013729320987428,-0.0012427026793534,0.0012427026945694,-0.0012427026937992,0.0012427026801902,0.0035186411895327,0.0034130328344676,0.75269821024138,0.79435766459998,1368840,32768,0.0054450080557369,0.0054450080557566,0.0054450080557895,22.758756668158,22.766285436731,9.7270053345258e-05,9.7270053345258e-05,9.7270053345258e-05,483489.41272105,0.016470113200258
27886446,0.99976641999948,0.016072120672135,0.0053573735573451,0.0053573735573836,0.0053573735574061,-0.0013107615672776,0.0013107615668126,7.1174528019966e-12,-7.5770918191637e-12,1.0542307351512e-13,-5.5221701250227e-13,-0.001373216854324,0.0013732168588129,-0.001373216859238,0.0013732168542121,-0.0013732168547627,0.0013732168587553,-0.0013732168595745,0.0013732168541138,-0.0012430910778501,0.0012430910912174,-0.0012430910917173,0.0012430910768265,3.2356482119917e-13,9.9245050484773e-13,1.2653419917295e-12,5.5723100638702e-13,-0.0013107615665028,0.0013107615676103,-0.0013732168561151,0.0013732168574494,-0.0013732168563562,0.0013732168571774,-0.0013732168558039,0.0013732168575686,-0.0013732168562038,0.0013732168571789,-0.0012430910832366,0.0012430910860171,-0.0012430910835526,0.0012430910851227,-0.0012430910844074,0.00124309108497,-0.0012430910836652,0.0012430910855942,-7.0449450170597e-12,7.6189628929723e-12,-0.0013107615667745,0.001310761567347,-5.3507188921519e-14,6.516755035254e-13,-0.0013732168591561,0.0013732168546013,-0.001373216858755,0.0013732168545344,-0.0013732168541643,0.0013732168596812,-0.0013732168536821,0.0013732168595642,-0.0012430910769704,0.0012430910922193,-0.001243091091081,0.0012430910778945,0.0035199117873991,0.0034129350269504,0.7548261876151,0.81551362979789,1368840,32768,0.005446415476348,0.0054464154763954,0.0054464154764127,22.873646003168,22.881176783638,9.8189168025344e-05,9.8189168025344e-05,9.8189168025344e-05,479419.17929011,0.01647440459573
27972846,0.99977233646873,0.0160722186189,0.0053574062062668,0.0053574062063052,0.0053574062063277,-0.0013111006291233,0.0013111006286897,7.1086815405409e-12,-7.5584466828774e-12,1.2014350616894e-13,-5.6873333146947e-13,-0.0013735003688377,0.001373500373368,-0.0013735003735055,0.0013735003684818,-0.0013735003693646,0.0013735003735483,-0.0013735003740851,0.0013735003688219,-0.0012434785739209,0.0012434785872513,-0.001243478587894,0.001243478573021,3.200981918082e-13,1.0189840472074e-12,1.2719315845396e-12,5.7717663235595e-13,-0.0013111006283496,0.0013111006294984,-0.0013735003706155,0.0013735003719729,-0.0013735003708081,0.0013735003717855,-0.0013735003703835,0.0013735003720599,-0.001373500370658,0.0013735003717506,-0.0012434785789307,0.0012434785821015,-0.0012434785798013,0.0012434785811239,-0.0012434785801677,0.0012434785808248,-0.0012434785796399,0.0012434785814949,-7.0223007676495e-12,7.614150187056e-12,-0.0013111006286099,0.0013111006291872,-6.5916162777062e-14,6.2559021217785e-13,-0.0013735003736623,0.0013735003689688,-0.0013735003732181,0.0013735003692019,-0.0013735003686629,0.0013735003738945,-0.0013735003681549,0.0013735003739662,-0.0012434785730045,0.0012434785881081,-0.0012434785870553,0.0012434785739985,0.0035211847574485,0.0034128392981304,0.7572215176488,0.83666959499579,1368840,32768,0.0054478206873981,0.0054478206874704,0.0054478206873649,22.988535476064,22.996068130545,9.9108283808511e-05,9.9108283808511e-05,9.9108283808511e-05,475307.17413476,0.016478689331515
28059246,0.99977814059566,0.016072315045983,0.0053574383486278,0.0053574383486662,0.0053574383486887,-0.0013114257129311,0.0013114257124272,7.0796576036728e-12,-7.6170842444814e-12,6.5220125217002e-14,-6.3251479475425e-13,-0.0013737690767542,0.0013737690813825,-0.0013737690816177,0.0013737690765576,-0.001373769076897,0.001373769081351,-0.0013737690819605,0.001373769076461,-0.0012438518920524,0.0012438519052639,-0.0012438519061956,0.001243851890931,8.6671175784485e-14,7.9602038800591e-13,1.0410380205325e-12,3.145111860168e-13,-0.0013114257123355,0.0013114257130114,-0.0013737690785736,0.0013737690795299,-0.0013737690787855,0.0013737690793913,-0.001373769078325,0.0013737690799866,-0.0013737690786076,0.0013737690796427,-0.0012438518977039,0.0012438518998849,-0.0012438518980864,0.0012438518989029,-0.0012438518983671,0.001243851898589,-0.0012438518981102,0.0012438518993317,-6.9771237360121e-12,7.689216158548e-12,-0.0013114257123085,0.0013114257130214,1.605539187174e-16,7.2401944052661e-13,-0.0013737690814564,0.0013737690771158,-0.0013737690811154,0.0013737690769597,-0.0013737690765079,0.0013737690819312,-0.0013737690761235,0.0013737690819575,-0.0012438518910133,0.0012438519063799,-0.001243851905061,0.0012438518918009,0.0035224040070411,0.0034127455937576,0.75986550243682,0.8578255601937,1368840,32768,0.0054491679512796,0.005449167951256,0.0054491679512208,23.096559105562,23.103658178699,9.9972472844498e-05,9.9972472844498e-05,9.9972472844498e-05,471159.87540273,0.016482797439009
28145646,0.99978382525815,0.016072409848842,0.005357469949581,0.0053574699496195,0.0053574699496419,-0.0013117030179735,0.0013117030173795,7.0150544596075e-12,-7.6773104634352e-12,6.1981224163206e-14,-6.4875406336163e-13,-0.0013739904591666,0.0013739904638321,-0.0013739904640012,0.0013739904588826,-0.0013739904595916,0.0013739904636641,-0.0013739904643966,0.0013739904588987,-0.0012441763502564,0.0012441763633802,-0.001244176364555,0.0012441763491381,1.9113033756997e-13,9.1307810609062e-13,1.1480348694992e-12,3.9123793030273e-13,-0.0013117030172324,0.0013117030181188,-0.00137399046107,0.0013739904620871,-0.0013739904611295,0.0013739904618951,-0.0013739904606649,0.0013739904623796,-0.0013739904610429,0.0013739904621374,-0.0012441763557776,0.001244176358318,-0.0012441763564286,0.0012441763570817,-0.001244176356839,0.0012441763570053,-0.0012441763558376,0.0012441763575063,-7.0287506294342e-12,7.633105137407e-12,-0.0013117030173635,0.001311703017983,-5.3242138195107e-14,7.006364489786e-13,-0.0013739904639655,0.0013739904593964,-0.0013739904635461,0.0013739904593353,-0.0013739904591083,0.0013739904644799,-0.0013739904584036,0.0013739904641102,-0.0012441763493835,0.0012441763645226,-0.0012441763633742,0.0012441763500615,0.0035234287105391,0.0034126538285463,0.76272929701689,0.87898152539162,1368840,32768,0.0054503171992737,0.0054503171992698,0.0054503171992602,23.18035019811,23.18589978272,0.00010064280158488,0.00010064280158488,0.00010064280158488,467007.76240862,0.016486301785254
28232046,0.99978939169005,0.016072503056041,0.0053575010186473,0.0053575010186857,0.0053575010187082,-0.001311976317008,0.0013119763165187,7.0771614446346e-12,-7.5907837538257e-12,9.9791363207059e-14,-5.8403774628304e-13,-0.0013742076251421,0.0013742076297809,-0.0013742076298862,0.0013742076249113,-0.0013742076256274,0.0013742076298044,-0.0013742076303578,0.0013742076251063,-0.001244496246771,0.0012444962602448,-0.0012444962609813,0.0012444962460492,2.0378733326038e-13,8.9879160135706e-13,1.185910330077e-12,4.1225328829796e-13,-0.0013119763163216,0.0013119763172462,-0.0013742076268158,0.0013742076281802,-0.0013742076273021,0.0013742076279145,-0.0013742076267263,0.001374207628434,-0.0013742076270869,0.0013742076281953,-0.0012444962523452,0.0012444962548149,-0.0012444962527949,0.0012444962536616,-0.0012444962533625,0.0012444962533895,-0.00124449625278,0.0012444962542048,-7.0666562949715e-12,7.5710173576755e-12,-0.0013119763165338,0.0013119763170501,-1.090928437591e-13,6.6220603476608e-13,-0.0013742076298948,0.0013742076252705,-0.0013742076295882,0.0013742076253901,-0.0013742076251076,0.0013742076302603,-0.0013742076244548,0.001374207630267,-0.0012444962458356,0.0012444962608146,-0.0012444962599409,0.0012444962467519,0.0035244400874301,0.0034125639616844,0.7657823753544,0.90013749058951,1368840,32768,0.0054514498353589,0.0054514498354441,0.0054514498354773,23.26273190089,23.26814138674,0.00010130185520711,0.00010130185520711,0.00010130185520711,462846.49356385,0.016489755513916
28318446,0.99979484158012,0.016072594699022,0.0053575315663075,0.005357531566346,0.0053575315663685,-0.0013122478344879,0.0013122478340316,7.1122107268443e-12,-7.5751734071816e-12,1.0496167584579e-13,-5.4566909488959e-13,-0.0013744224776426,0.0013744224823255,-0.0013744224824686,0.0013744224773708,-0.0013744224779545,0.0013744224821397,-0.001374422482773,0.0013744224772768,-0.001244814209123,0.0012448142224494,-0.0012448142229783,0.0012448142082922,2.2590430466091e-13,8.8790887499335e-13,1.214181054661e-12,4.3384359931702e-13,-0.0013122478337912,0.0013122478347469,-0.0013744224793069,0.0013744224806248,-0.0013744224796519,0.0013744224803204,-0.0013744224791044,0.001374422480872,-0.001374422479538,0.0013744224805889,-0.0012448142146243,0.0012448142170322,-0.0012448142150523,0.0012448142160938,-0.001244814215508,0.0012448142159136,-0.0012448142150691,0.001244814216472,-7.0512016494533e-12,7.6057911777121e-12,-0.0013122478340001,0.0013122478345382,-1.1421015801689e-13,6.6282651581081e-13,-0.0013744224825109,0.0013744224776998,-0.0013744224819639,0.0013744224778534,-0.0013744224774405,0.0013744224826843,-0.0013744224769081,0.0013744224827218,-0.0012448142080414,0.0012448142231387,-0.0012448142221838,0.0012448142088963,0.0035254474265039,0.0034124759549663,0.7689948549572,0.92129345578742,1368840,32768,0.0054525750756384,0.0054525750756768,0.0054525750756774,23.344986700461,23.35038299076,0.00010195989360369,0.00010195989360369,0.00010195989360369,458689.5201952,0.01649318673044
28404846,0.99980017664915,0.016072684805614,0.0053575616018382,0.0053575616018767,0.0053575616018991,-0.0013125175617371,0.0013125175612445,7.0891124324813e-12,-7.5887420514924e-12,7.1444876231602e-14,-5.7051104186752e-13,-0.0013746365604897,0.001374636565,-0.0013746365652661,0.0013746365601094,-0.0013746365607408,0.0013746365648964,-0.0013746365655036,0.0013746365601069,-0.0012451290861365,0.0012451290995779,-0.0012451291002783,0.0012451290852465,2.3599358467563e-13,8.8857197238324e-13,1.2525575587558e-12,4.5169625981285e-13,-0.0013125175610078,0.0013125175619847,-0.0013746365621419,0.0013746365634103,-0.0013746365623742,0.0013746365631463,-0.0013746365619339,0.0013746365637056,-0.0013746365622831,0.0013746365633125,-0.001245129091352,0.0012451290943181,-0.0012451290921427,0.001245129093318,-0.0012451290925274,0.0012451290929644,-0.0012451290920129,0.0012451290935126,-7.0416978809633e-12,7.6062173411637e-12,-0.0013125175612293,0.0013125175617836,-1.1933326621534e-13,6.786680906851e-13,-0.0013746365653289,0.0013746365604412,-0.0013746365648392,0.0013746365605815,-0.0013746365601659,0.0013746365655846,-0.0013746365597493,0.0013746365656063,-0.0012451290850971,0.0012451291003174,-0.0012451290993443,0.0012451290859439,0.00352645051023,0.0034123897703606,0.77233870641553,0.94244942098532,1368840,32768,0.0054536928883397,0.0054536928883621,0.0054536928884046,23.427229270511,23.43262459478,0.00010261783416409,0.00010261783416409,0.00010261783416409,454568.406916,0.016496595334086
28491246,0.99980539861291,0.016072773399947,0.0053575911332825,0.005357591133321,0.0053575911333435,-0.001312785347336,0.0013127853467777,7.048775194168e-12,-7.6011399080405e-12,3.2876936808619e-14,-6.235490098293e-13,-0.0013748503723178,0.0013748503767824,-0.0013748503770999,0.0013748503719194,-0.0013748503726375,0.0013748503766979,-0.0013748503774244,0.0013748503719001,-0.0012454402850519,0.0012454402983436,-0.0012454402988912,0.0012454402842252,2.9746582438796e-13,9.6466782417779e-13,1.2822059765464e-12,5.021952759261e-13,-0.0013127853465275,0.0013127853476106,-0.0013748503739222,0.0013748503752347,-0.0013748503741285,0.0013748503749858,-0.0013748503736626,0.0013748503754969,-0.0013748503739386,0.0013748503751708,-0.0012454402902694,0.0012454402930273,-0.0012454402910178,0.0012454402921281,-0.0012454402915063,0.0012454402917625,-0.0012454402909954,0.0012454402925751,-7.010867705157e-12,7.608568151701e-12,-0.0013127853467726,0.0013127853473666,-8.9367505178179e-14,6.8781998757152e-13,-0.0013748503770363,0.0013748503723567,-0.0013748503765416,0.0013748503724229,-0.0013748503720626,0.0013748503773156,-0.0013748503715395,0.0013748503773638,-0.0012454402841103,0.0012454402992333,-0.0012454402982195,0.0012454402850445,0.0035274484611703,0.0034123053698716,0.77578779687594,0.96360538618322,1368840,32768,0.0054548026490837,0.0054548026491343,0.0054548026491365,23.509470674819,23.514866198801,0.00010327576539855,0.00010327576539855,0.00010327576539855,450501.05664485,0.01649997941424
28577646,0.99981050917828,0.016072860413579,0.0053576201378266,0.0053576201378651,0.0053576201378876,-0.0013130510615979,0.0013130510610577,7.046523262963e-12,-7.6158592230814e-12,5.48575006116e-14,-5.9467795064387e-13,-0.001375063244022,0.0013750632485091,-0.0013750632488353,0.0013750632436476,-0.0013750632443507,0.0013750632484995,-0.0013750632491449,0.0013750632435757,-0.0012457481545708,0.0012457481679159,-0.001245748168731,0.0012457481536858,2.8916640145904e-13,9.4928529410353e-13,1.2819202205701e-12,4.9195435348513e-13,-0.0013130510608017,0.0013130510618653,-0.0013750632456471,0.0013750632469102,-0.0013750632459794,0.0013750632466824,-0.0013750632453183,0.0013750632472296,-0.0013750632456331,0.0013750632469076,-0.0012457481598167,0.0012457481625749,-0.0012457481605512,0.0012457481617707,-0.0012457481611013,0.0012457481614451,-0.0012457481604904,0.0012457481621039,-7.0563470216774e-12,7.5755333079516e-12,-0.00131305106108,0.0013130510616027,-1.2790703370439e-13,6.5884010818106e-13,-0.0013750632488544,0.0013750632440774,-0.0013750632483384,0.0013750632441567,-0.0013750632438399,0.0013750632489969,-0.0013750632432887,0.0013750632491522,-0.0012457481536678,0.0012457481688579,-0.0012457481679466,0.0012457481543711,0.0035284404371231,0.0034122227008833,0.778513069247,0.96963251403155,1368840,32768,0.0054559038215612,0.0054559038215845,0.0054559038216172,23.591711626568,23.597107802821,0.00010393369301254,0.00010393369301254,0.00010393369301254,446488.67675523,0.016503337327124
28664046,0.99981551004237,0.016072945511242,0.0053576485037143,0.0053576485037527,0.0053576485037752,-0.0013132509424794,0.0013132509419881,7.0860098802034e-12,-7.5817348537927e-12,3.2101842840149e-14,-5.4605002442893e-13,-0.001375241581764,0.0013752415862985,-0.0013752415865793,0.0013752415814891,-0.0013752415820997,0.001375241586201,-0.0013752415868812,0.001375241581425,-0.001245960761619,0.0012459607751276,-0.0012459607757602,0.0012459607608951,3.1094744194556e-13,8.9999221173806e-13,1.2288857819123e-12,4.9727869083028e-13,-0.0013132509417328,0.0013132509427587,-0.0013752415832763,0.0013752415845392,-0.0013752415835236,0.0013752415843291,-0.0013752415830574,0.0013752415848115,-0.0013752415833078,0.0013752415844984,-0.0012459607670802,0.0012459607698517,-0.0012459607678345,0.0012459607689455,-0.0012459607683451,0.0012459607688965,-0.0012459607679696,0.0012459607694495,-7.0403220406414e-12,7.5971310599198e-12,-0.0013132509419779,0.0013132509425231,-8.3023346046709e-14,6.4595114898874e-13,-0.0013752415864258,0.0013752415816767,-0.0013752415859296,0.0013752415817367,-0.0013752415813905,0.001375241586692,-0.001375241580935,0.0013752415866913,-0.001245960760959,0.0012459607761034,-0.0012459607752539,0.0012459607618159,0.0035291726475439,0.003412141662841,0.77801198702606,0.92446254840013,1368840,32768,0.0054567320502416,0.005456732050291,0.0054567320503105,23.673951229378,23.679349406841,0.00010459160983502,0.00010459160983502,0.00010459160983502,444351.36140801,0.016505863294227
28750446,0.99982040289286,0.016073028613842,0.0053576762045809,0.0053576762046194,0.0053576762046419,-0.0013132279728687,0.0013132279723358,7.0493103542899e-12,-7.6005832779863e-12,4.727861449431e-14,-5.8330218051878e-13,-0.0013753091439666,0.0013753091484451,-0.0013753091487672,0.0013753091436606,-0.0013753091442928,0.0013753091483043,-0.001375309149058,0.0013753091435379,-0.0012458479351472,0.0012458479486153,-0.0012458479494004,0.0012458479344214,2.7625597233438e-13,9.1802060215958e-13,1.2237141457846e-12,5.1003027186647e-13,-0.0013132279721027,0.001313227973129,-0.001375309145557,0.001375309146843,-0.0013753091457979,0.0013753091465501,-0.0013753091452345,0.00137530914707,-0.0013753091455622,0.0013753091467487,-0.0012458479403355,0.0012458479431403,-0.0012458479410756,0.001245847942441,-0.0012458479417535,0.0012458479422249,-0.0012458479411402,0.0012458479427253,-7.0163214797244e-12,7.6033239001446e-12,-0.0013132279723326,0.0013132279729097,-6.4547145776062e-14,6.463304021087e-13,-0.0013753091486752,0.0013753091439366,-0.0013753091481418,0.0013753091439722,-0.0013753091436044,0.0013753091490205,-0.001375309143246,0.0013753091490279,-0.0012458479342193,0.0012458479493748,-0.0012458479483946,0.0012458479350335,0.003529016178234,0.0034120621946991,0.77650471774118,0.87929258276871,1368840,32768,0.0054566363961546,0.0054566363962111,0.005456636396233,23.75619050436,23.761591010862,0.00010524952403487,0.00010524952403487,0.00010524952403487,448752.2493223,0.016505573064901
28836846,0.99982519305917,0.016073109721942,0.0053577032406142,0.0053577032406527,0.0053577032406752,-0.0013132162249603,0.0013132162244412,7.0614286899654e-12,-7.5917556064892e-12,4.392430520145e-14,-5.8601292123692e-13,-0.001375398560368,0.0013753985647976,-0.0013753985651092,0.0013753985600352,-0.0013753985606338,0.0013753985646302,-0.0013753985654448,0.001375398559857,-0.0012457388257607,0.0012457388392433,-0.0012457388399914,0.0012457388249527,3.0276013323869e-13,9.4330994723451e-13,1.2507194678494e-12,5.4236066654804e-13,-0.0013132162241702,0.0013132162252644,-0.001375398561938,0.0013753985632409,-0.0013753985621742,0.0013753985630539,-0.0013753985616839,0.0013753985635147,-0.0013753985619245,0.0013753985632239,-0.0012457388311217,0.0012457388338259,-0.0012457388317146,0.0012457388332158,-0.0012457388324646,0.0012457388327971,-0.0012457388317417,0.0012457388332431,-7.0407409101981e-12,7.5820204921255e-12,-0.0013132162244576,0.0013132162249897,-7.4210556447852e-14,6.3147191484881e-13,-0.0013753985651426,0.0013753985603641,-0.0013753985646778,0.0013753985604126,-0.0013753985600073,0.0013753985654587,-0.0013753985596177,0.0013753985653904,-0.0012457388246923,0.0012457388398931,-0.0012457388392259,0.0012457388255094,0.0035289015054132,0.0034119842589891,0.77414522023804,0.83412261713731,1368840,32768,0.0054565873095233,0.0054565873095919,0.0054565873096183,23.851229626424,23.85744561833,0.00010600983701139,0.00010600983701139,0.00010600983701139,453786.49180961,0.016505424620495
28923246,0.99982989316067,0.016073188565055,0.0053577295216518,0.0053577295216903,0.0053577295217128,-0.0013132696318354,0.0013132696313339,7.0758776015022e-12,-7.5953742606476e-12,4.9188026751311e-14,-5.595735524709e-13,-0.0013755630512439,0.0013755630557697,-0.0013755630560508,0.0013755630509524,-0.0013755630515838,0.001375563055668,-0.0013755630563562,0.0013755630508833,-0.0012456877674926,0.0012456877809649,-0.001245687781705,0.0012456877667342,2.9111654776577e-13,9.1082546902478e-13,1.1911580521156e-12,5.376255759077e-13,-0.0013132696310786,0.0013132696321076,-0.0013755630529169,0.0013755630541544,-0.0013755630531371,0.0013755630539792,-0.0013755630526891,0.0013755630544281,-0.0013755630529106,0.0013755630541474,-0.0012456877729923,0.0012456877756268,-0.0012456877735743,0.0012456877749406,-0.0012456877740177,0.0012456877745179,-0.001245687773438,0.0012456877750896,-7.0649799344185e-12,7.5758316811894e-12,-0.0013132696313445,0.0013132696318522,-6.4087336293514e-14,5.8711485816174e-13,-0.0013755630560572,0.0013755630513022,-0.0013755630555895,0.0013755630513257,-0.0013755630510183,0.0013755630563136,-0.001375563050591,0.0013755630562932,-0.001245687766686,0.0012456877817534,-0.0012456877809649,0.0012456877673854,0.0035290547042455,0.0034119077872091,0.76696317774305,0.73129952395395,1368840,32768,0.0054568082771794,0.0054568082772145,0.0054568082772362,23.986393655719,23.995191766762,0.00010709114924575,0.00010709114924575,0.00010709114924575,459389.46763986,0.016506099530499
29009646,0.99983450446998,0.016073265402261,0.0053577551340539,0.0053577551340924,0.0053577551341149,-0.0013130290222276,0.001313029021571,6.9387407321159e-12,-7.6462524122374e-12,2.8856530217516e-14,-6.0504039878407e-13,-0.0013755820019906,0.0013755820064259,-0.0013755820067956,0.0013755820017681,-0.0013755820021835,0.0013755820061667,-0.0013755820069745,0.0013755820012563,-0.0012452093909117,0.0012452094033045,-0.0012452094049384,0.0012452093900011,2.3329054960443e-13,8.7858686565669e-13,1.2008875195929e-12,4.8531661508701e-13,-0.001313029021402,0.0013130290223861,-0.0013755820033689,0.0013755820047576,-0.0013755820039314,0.0013755820045856,-0.0013755820032662,0.0013755820050912,-0.0013755820034374,0.0013755820049606,-0.0012452093958927,0.0012452093983895,-0.0012452093965648,0.0012452093977783,-0.0012452093974068,0.0012452093981282,-0.0012452093961257,0.0012452093980049,-7.0589996465239e-12,7.4955116937335e-12,-0.001313029021655,0.0013130290221564,-8.4374216543248e-14,6.2821660253166e-13,-0.0013755820065567,0.0013755820017968,-0.0013755820060331,0.0013755820019519,-0.001375582001769,0.0013755820068007,-0.0013755820010419,0.0013755820067907,-0.0012452093905283,0.0012452094047655,-0.0012452094041113,0.0012452093909051,0.0035280246032191,0.0034118327827954,0.76188249370621,0.67171715834776,1368840,32768,0.0054558104003392,0.0054558104003175,0.0054558104003659,24.12389967717,24.132937915194,0.00010819119741736,0.00010819119741736,0.00010819119741736,474086.1857547,0.016503058820236
29096046,0.99983902765126,0.016073339815005,0.0053577799383019,0.0053577799383403,0.0053577799383628,-0.0013129742980473,0.0013129742975678,7.0113491610371e-12,-7.533307392042e-12,1.026839219002e-14,-4.9528334002217e-13,-0.0013757026103229,0.0013757026148007,-0.0013757026150915,0.0013757026100139,-0.0013757026106268,0.0013757026147307,-0.0013757026153475,0.0013757026099934,-0.0012449965959488,0.0012449966093258,-0.0012449966101043,0.0012449965952179,3.316926905454e-13,8.482667330924e-13,1.2559951890327e-12,4.5405071729755e-13,-0.0013129742973162,0.0013129742983133,-0.0013757026119579,0.0013757026132249,-0.0013757026122067,0.0013757026130099,-0.0013757026117599,0.0013757026134543,-0.0013757026120252,0.00137570261312,-0.0012449966012492,0.0012449966040382,-0.0012449966021203,0.0012449966031613,-0.0012449966023914,0.0012449966029912,-0.0012449966019331,0.0012449966034722,-6.9781411755182e-12,7.5358107861533e-12,-0.0013129742975453,0.0013129742980973,-1.2488333195876e-13,6.7414331714912e-13,-0.0013757026150739,0.0013757026103722,-0.0013757026145581,0.0013757026104426,-0.001375702610079,0.0013757026153402,-0.0013757026096207,0.001375702615359,-0.001244996595083,0.0012449966101261,-0.0012449966091978,0.001244996595777,0.0035277346368459,0.0034117591246835,0.75233392189418,0.55281947436706,1368840,32768,0.005455583221647,0.0054555832216768,0.005455583221704,24.26161692109,24.270684063626,0.00010929293536872,0.00010929293536872,0.00010929293536872,483559.56084438,0.01650236721154
29182446,0.9998434633363,0.016073413112211,0.0053578043707037,0.0053578043707422,0.0053578043707647,-0.0013125633846454,0.0013125633841711,7.0877610031783e-12,-7.5588077894929e-12,1.2149040619854e-14,-5.2110702171466e-13,-0.0013756457251904,0.0013756457297047,-0.0013756457299851,0.0013756457249087,-0.0013756457254831,0.0013756457296204,-0.001375645730252,0.0013756457248477,-0.0012442653431193,0.0012442653567024,-0.0012442653571679,0.001244265342298,2.9525936238209e-13,8.3955458747776e-13,1.2577889871745e-12,4.247159075735e-13,-0.0013125633839226,0.0013125633849106,-0.0013756457268142,0.0013756457281208,-0.0013756457271073,0.0013756457278774,-0.0013756457266192,0.0013756457283619,-0.0013756457268853,0.001375645728024,-0.0012442653485005,0.0012442653512452,-0.0012442653493122,0.0012442653503579,-0.0012442653497475,0.0012442653500387,-0.0012442653492085,0.0012442653506901,-7.0087430053592e-12,7.6068110289093e-12,-0.0013125633841375,0.0013125633847092,-1.3145333713196e-13,6.9849077923322e-13,-0.0013756457299738,0.0013756457252457,-0.0013756457294566,0.0013756457253081,-0.0013756457249584,0.0013756457302448,-0.0013756457244706,0.0013756457302662,-0.0012442653421165,0.0012442653574698,-0.0012442653564446,0.0012442653431668,0.0035260104853198,0.0034116870108749,0.75580461953441,0.63179694880017,1368840,32768,0.0054538794586572,0.0054538794586917,0.0054538794587197,24.399357002938,24.408430212058,0.0001103948560235,0.0001103948560235,0.0001103948560235,503964.06701022,0.016497174285198
29268846,0.99984781217266,0.016073484217239,0.0053578280723799,0.0053578280724184,0.0053578280724408,-0.0013132586511015,0.0013132586506114,7.0762602956935e-12,-7.5567760868542e-12,-8.3637444933468e-15,-4.7743600289313e-13,-0.0013761352796223,0.0013761352840826,-0.0013761352844252,0.0013761352793242,-0.0013761352799721,0.0013761352843279,-0.0013761352847303,0.0013761352794196,-0.0012451554490867,0.0012451554625822,-0.0012451554628393,0.0012451554482903,3.7501607292816e-13,8.561175520788e-13,1.281513085949e-12,5.3306580344091e-13,-0.0013132586503073,0.0013132586513553,-0.0013761352812418,0.0013761352822073,-0.0013761352814337,0.0013761352821951,-0.0013761352809798,0.0013761352828123,-0.0013761352813177,0.0013761352825678,-0.0012451554544119,0.001245155457088,-0.0012451554550812,0.0012451554565437,-0.0012451554555262,0.001245155455955,-0.0012451554547143,0.0012451554568305,-7.0408562596155e-12,7.5610781613111e-12,-0.0013132586505738,0.001313258651067,-1.3041101603298e-13,6.1542466978702e-13,-0.0013761352843755,0.0013761352795583,-0.001376135284152,0.0013761352793416,-0.0013761352792797,0.0013761352846211,-0.0013761352787347,0.0013761352845496,-0.0012451554483284,0.0012451554633566,-0.0012451554624032,0.0012451554493332,0.0035287317948615,0.0034116162067132,0.74802565362142,0.53498184157596,1368840,32768,0.0054567614924465,0.005456761492342,0.0054567614922968,24.537097924657,24.54617636049,0.00011149678339725,0.00011149678339725,0.00011149678339725,490871.18349183,0.016505960502937
29355246,0.99985207482946,0.016073553168253,0.0053578510560513,0.0053578510560898,0.0053578510561122,-0.0013129628461474,0.0013129628456556,7.1082784940301e-12,-7.6158514586127e-12,3.7606027632258e-14,-4.9013726193721e-13,-0.0013761245696435,0.0013761245743734,-0.0013761245744561,0.001376124569574,-0.0013761245701991,0.0013761245744102,-0.0013761245747361,0.0013761245695019,-0.0012446017976869,0.0012446018110523,-0.0012446018116069,0.0012446017967312,2.2416338725651e-13,7.6300910236038e-13,1.1303175578098e-12,3.7395881110913e-13,-0.0013129628455002,0.0013129628463366,-0.0013761245714654,0.0013761245722719,-0.001376124571638,0.0013761245723209,-0.0013761245712463,0.0013761245727237,-0.0013761245713335,0.0013761245725637,-0.0012446018031868,0.0012446018059018,-0.0012446018043047,0.0012446018051243,-0.0012446018045269,0.0012446018046966,-0.0012446018031327,0.0012446018048164,-7.1296501940805e-12,7.5630440130204e-12,-0.0013129628456653,0.0013129628461685,-1.2754536828243e-13,6.2644033326606e-13,-0.0013761245743999,0.0013761245697741,-0.001376124574055,0.0013761245697884,-0.0013761245696428,0.001376124574839,-0.0013761245690669,0.0013761245747941,-0.0012446017973459,0.0012446018123683,-0.0012446018113579,0.0012446017980135,0.0035274766762808,0.0034115466852434,0.73986048929055,0.43816673435174,1368840,32768,0.0054555348794866,0.0054555348795564,0.0054555348795504,24.674839653866,24.683922508922,0.00011259871723092,0.00011259871723092,0.00011259871723092,507645.08140374,0.016502222171941
29441646,0.99985625199662,0.016073619987484,0.0053578733291283,0.0053578733291668,0.0053578733291893,-0.0013126146344429,0.001312614634036,7.187876944705e-12,-7.6144366194821e-12,4.4380408914854e-15,-3.9900122255124e-13,-0.0013760975522292,0.001376097556893,-0.0013760975572138,0.0013760975521079,-0.001376097552555,0.0013760975568061,-0.0013760975573903,0.0013760975519694,-0.0012439644406667,0.0012439644544083,-0.0012439644550881,0.0012439644404312,3.5024224151641e-13,7.6530209113467e-13,1.1574132006447e-12,4.878032744154e-13,-0.0013126146337343,0.0013126146347392,-0.0013760975540875,0.0013760975552825,-0.0013760975541045,0.0013760975550043,-0.00137609755378,0.0013760975554147,-0.001376097553889,0.0013760975552274,-0.0012439644465791,0.0012439644490579,-0.0012439644470919,0.0012439644485327,-0.0012439644476951,0.0012439644479591,-0.0012439644471136,0.0012439644481622,-7.1851076763631e-12,7.586840638991e-12,-0.0013126146340642,0.0013126146344451,-1.344988029186e-13,5.3231976740827e-13,-0.0013760975571312,0.0013760975523586,-0.0013760975566977,0.0013760975522366,-0.00137609755207,0.001376097557202,-0.0013760975517345,0.0013760975574508,-0.0012439644399751,0.0012439644550118,-0.0012439644546939,0.0012439644407611,0.0035260064682047,0.0034114784091832,0.7318050667209,0.34589222286738,1368840,32768,0.0054540910759315,0.0054540910759202,0.0054540910759943,24.812581932977,24.821668657353,0.00011370065546381,0.00011370065546381,0.00011370065546381,526367.63510226,0.016497821577652
29528046,0.99986034438442,0.016073684937112,0.005357894979004,0.0053578949790425,0.005357894979065,-0.0013122402836261,0.0013122402831672,7.1667154147047e-12,-7.6448385142545e-12,-4.4021184594793e-14,-3.6969900006697e-13,-0.0013760600209404,0.0013760600254673,-0.0013760600258933,0.00137606002078,-0.0013760600215029,0.0013760600255441,-0.0013760600259634,0.0013760600208099,-0.0012432869091554,0.001243286922846,-0.0012432869234722,0.0012432869081733,3.9343965715913e-13,7.3183893694048e-13,1.1145275695948e-12,4.6410093968192e-13,-0.0013122402829036,0.0013122402838739,-0.0013760600225468,0.0013760600239756,-0.001376060022774,0.0013760600237015,-0.0013760600222498,0.0013760600241164,-0.0013760600225378,0.0013760600236872,-0.0012432869152581,0.0012432869172918,-0.001243286915119,0.0012432869163802,-0.0012432869156261,0.0012432869157699,-0.0012432869149556,0.0012432869164805,-7.0816770125695e-12,7.6971809740518e-12,-0.0013122402831184,0.0013122402837,-3.5878962745846e-14,6.1130503093327e-13,-0.0013760600258451,0.0013760600210072,-0.0013760600252735,0.0013760600211277,-0.0013760600205217,0.0013760600261655,-0.0013760600203246,0.0013760600260908,-0.0012432869079119,0.0012432869234852,-0.001243286922353,0.0012432869085816,0.0035244274163055,0.00341141139105,0.72624246494355,0.28998202462658,1368840,32768,0.0054525389530636,0.0054525389530308,0.0054525389531154,24.950324182459,24.959414805785,0.00011480259345967,0.00011480259345967,0.00011480259345967,546127.23228869,0.01649309062878
29614446,0.99986435098089,0.016073748867049,0.0053579162889831,0.0053579162890216,0.0053579162890441,-0.0013120675912526,0.0013120675908658,7.2222805407576e-12,-7.6095941203583e-12,-3.3986491147789e-14,-3.5993859235837e-13,-0.0013761202620581,0.0013761202666387,-0.0013761202669145,0.0013761202617768,-0.0013761202623011,0.0013761202666386,-0.0013761202671173,0.0013761202618054,-0.0012429076224124,0.0012429076363479,-0.0012429076368032,0.0012429076219082,3.6358986316749e-13,7.0059483260289e-13,1.1147440629811e-12,5.0133956677331e-13,-0.0013120675906135,0.0013120675915204,-0.0013761202637705,0.0013761202649673,-0.0013761202639704,0.0013761202648098,-0.001376120263645,0.001376120265144,-0.0013761202638445,0.001376120264884,-0.0012429076281896,0.0012429076306646,-0.0012429076287993,0.0012429076299735,-0.0012429076291563,0.001242907629747,-0.0012429076287897,0.0012429076301074,-7.147758405593e-12,7.6526189824489e-12,-0.0013120675908236,0.0013120675913204,-5.3525247193381e-14,5.5773152050842e-13,-0.0013761202669048,0.0013761202621141,-0.0013761202664577,0.001376120262118,-0.0013761202618216,0.0013761202671728,-0.0013761202614114,0.0013761202671305,-0.0012429076217575,0.001242907637003,-0.0012429076362857,0.0012429076225085,0.0035236602093755,0.0034113457478347,0.73038132020549,0.37385897688611,1368840,32768,0.0054518228459732,0.0054518228460053,0.0054518228460261,25.080693398221,25.089318353654,0.00011584554718576,0.00011584554718576,0.00011584554718576,559365.15330287,0.016490908148274
29700846,0.99986826788934,0.016073811725928,0.0053579372419428,0.0053579372419813,0.0053579372420038,-0.0013128595678009,0.0013128595673867,7.2061229755366e-12,-7.6271072324036e-12,-2.6240492488614e-14,-3.9863782188818e-13,-0.0013766214081379,0.0013766214127222,-0.001376621413,0.0013766214078563,-0.0013766214083984,0.001376621412699,-0.0013766214132258,0.0013766214078619,-0.0012439750574018,0.0012439750712628,-0.0012439750717738,0.0012439750568495,3.5392292319176e-13,7.3735441550522e-13,1.1548674254752e-12,4.7482958251748e-13,-0.0013128595671372,0.001312859568067,-0.0013766214098441,0.0013766214110696,-0.0013766214100703,0.0013766214108885,-0.0013766214096963,0.0013766214112636,-0.0013766214099197,0.0013766214109789,-0.0012439750631423,0.0012439750656805,-0.001243975063814,0.001243975064922,-0.0012439750640529,0.001243975064681,-0.0012439750637312,0.0012439750650491,-7.1353092564942e-12,7.6665905850378e-12,-0.0013128595673473,0.0013128595678681,-7.3580516871599e-14,6.0401619477869e-13,-0.0013766214130017,0.001376621408203,-0.0013766214125294,0.0013766214082309,-0.0013766214079139,0.0013766214132672,-0.0013766214074817,0.0013766214132511,-0.001243975056681,0.0012439750719463,-0.0012439750711778,0.0012439750574634,0.0035267859196531,0.0034112814257611,0.73475079529585,0.45773592914564,1368840,32768,0.0054551057728982,0.0054551057729324,0.0054551057729557,25.190386539024,25.197679747421,0.00011672309231219,0.00011672309231219,0.00011672309231219,541040.12232846,0.016500916594529
29787246,0.99987209608633,0.016073873553079,0.0053579578509931,0.0053579578510315,0.005357957851054,-0.001313615303557,0.0013136153032228,7.1764461762601e-12,-7.5368654598161e-12,6.5223301590554e-15,-3.2498454253354e-13,-0.001377106144366,0.0013771061488776,-0.0013771061490681,0.0013771061439773,-0.0013771061445313,0.0013771061486817,-0.0013771061492305,0.0013771061440478,-0.0012449874759182,0.001244987490069,-0.0012449874899645,0.0012449874753888,3.6564097697796e-13,7.0853353125756e-13,1.1169444957594e-12,5.1076286713324e-13,-0.0013136153029561,0.0013136153038471,-0.0013771061460418,0.0013771061472046,-0.001377106146237,0.0013771061470827,-0.0013771061458988,0.0013771061473088,-0.0013771061460896,0.0013771061472013,-0.0012449874816184,0.0012449874843087,-0.0012449874820569,0.0012449874835799,-0.0012449874828722,0.0012449874832766,-0.0012449874818738,0.0012449874834932,-7.0853429594009e-12,7.596847627402e-12,-0.0013136153031592,0.0013136153036606,-6.497860318357e-14,5.3879174616435e-13,-0.0013771061490769,0.0013771061444951,-0.0013771061487283,0.0013771061443326,-0.0013771061441124,0.0013771061493494,-0.0013771061437453,0.0013771061494602,-0.0012449874750423,0.001244987490461,-0.0012449874896492,0.0012449874761825,0.0035297678542767,0.0034112184031859,0.73927562185581,0.54161288140516,1368840,32768,0.0054582384501981,0.0054582384502466,0.005458238450281,25.29886712765,25.306041141189,0.00011759093702119,0.00011759093702119,0.00011759093702119,523916.04895854,0.0165104671164
29873646,0.99987583682125,0.016073934359219,0.0053579781197067,0.0053579781197451,0.0053579781197676,-0.0013143378679089,0.0013143378674886,7.1689108770466e-12,-7.6553145471601e-12,-5.0749802569544e-14,-4.1108667687832e-13,-0.0013775703414063,0.0013775703458496,-0.0013775703461022,0.0013775703410244,-0.0013775703416099,0.0013775703458973,-0.0013775703462835,0.001377570341079,-0.0012459535230932,0.0012459535368848,-0.0012459535376297,0.0012459535223901,3.8470304170379e-13,7.5587032044526e-13,1.120571914356e-12,4.9562385903132e-13,-0.0013143378672476,0.001314337868156,-0.0013775703431122,0.0013775703442092,-0.0013775703433991,0.0013775703440629,-0.0013775703428159,0.0013775703443235,-0.0013775703431533,0.001377570344169,-0.0012459535289522,0.0012459535311624,-0.0012459535296726,0.0012459535307882,-0.0012459535292962,0.00124595353045,-0.0012459535297617,0.0012459535307653,-7.1291290923528e-12,7.6639477245989e-12,-0.0013143378674647,0.0013143378679593,-7.1322879958505e-14,5.5085017190537e-13,-0.0013775703461378,0.0013775703413847,-0.0013775703457261,0.001377570341281,-0.0013775703410143,0.0013775703463913,-0.0013775703407436,0.0013775703463833,-0.0012459535223338,0.0012459535377947,-0.0012459535369196,0.0012459535229937,0.0035326175746108,0.0034111566506635,0.74391624818486,0.6254898336647,1368840,32768,0.0054612335957218,0.0054612335957345,0.0054612335957766,25.407238060961,25.414402534957,0.00011845790448769,0.00011845790448769,0.00011845790448769,507858.09838966,0.016519598447996
29960046,0.99987949136895,0.016073994850999,0.0053579982836333,0.0053579982836717,0.0053579982836942,-0.0013150294279677,0.0013150294275659,7.1653060459952e-12,-7.5981366468469e-12,-6.752828999827e-14,-3.606035720437e-13,-0.001378016467791,0.0013780164722818,-0.0013780164725804,0.0013780164674012,-0.0013780164680445,0.0013780164723022,-0.0013780164727932,0.001378016467543,-0.0012468754400222,0.0012468754538016,-0.0012468754544925,0.0012468754394518,3.8662360067909e-13,6.9059202053487e-13,1.172559179122e-12,4.6468274543757e-13,-0.0013150294273232,0.0013150294282276,-0.0013780164695029,0.0013780164707082,-0.0013780164696757,0.0013780164704966,-0.0013780164694199,0.0013780164708351,-0.0013780164695918,0.0013780164705362,-0.0012468754457218,0.0012468754482824,-0.0012468754464721,0.0012468754474571,-0.0012468754465636,0.0012468754473512,-0.0012468754464754,0.0012468754478006,-7.1182165433707e-12,7.6144451486333e-12,-0.0013150294275278,0.0013150294280325,-9.9791098509263e-14,6.0562102810507e-13,-0.0013780164726159,0.0013780164678377,-0.0013780164721406,0.0013780164678697,-0.001378016467549,0.0013780164728559,-0.0013780164670902,0.001378016472897,-0.001246875439453,0.0012468754546524,-0.0012468754538272,0.0012468754399847,0.0035353435330446,0.0034110962573345,0.75743831122607,0.86659537513001,1368840,32768,0.0054641001997654,0.005464100199801,0.0054641001998207,25.515601650813,25.522763928723,0.0001193248132065,0.0001193248132065,0.0001193248132065,492811.78768689,0.016528337978466
30046446,0.99988306100528,0.016074053902487,0.0053580179674624,0.0053580179675009,0.0053580179675233,-0.0013164534221658,0.001316453421762,7.227565026379e-12,-7.6500966477398e-12,-6.3415003891631e-14,-3.5761489863973e-13,-0.0013788291766457,0.0013788291812485,-0.0013788291815298,0.0013788291763595,-0.0013788291768827,0.0013788291812504,-0.0013788291817367,0.0013788291763923,-0.0012488690341621,0.0012488690480363,-0.0012488690485734,0.0012488690336337,3.8948986605783e-13,6.9461295652157e-13,1.1961189887977e-12,4.410640846185e-13,-0.001316453421508,0.0013164534224354,-0.0013788291783401,0.0013788291796085,-0.0013788291785877,0.0013788291794082,-0.0013788291782184,0.0013788291797781,-0.0013788291784574,0.0013788291794755,-0.001248869039929,0.0012488690425714,-0.0012488690406572,0.0012488690416505,-0.0012488690408731,0.0012488690415086,-0.0012488690405857,0.0012488690418377,-7.1501902724776e-12,7.6970100969191e-12,-0.0013164534217085,0.0013164534222463,-9.7248470302457e-14,6.551026635339e-13,-0.0013788291815467,0.0013788291767131,-0.001378829181053,0.0013788291767603,-0.0013788291764276,0.0013788291818059,-0.0013788291759755,0.001378829181803,-0.0012488690335289,0.0012488690488297,-0.0012488690480086,0.0012488690342886,0.003540995487145,0.0034110370139853,0.75681691344756,0.81481661424054,1368840,32768,0.0054700033012996,0.0054700033013318,0.0054700033013558,25.623960134692,25.63112532249,0.00012019168107753,0.00012019168107753,0.00012019168107753,456331.05106604,0.016546333690525
30132846,0.99988654700664,0.0160741102942,0.0053580367647001,0.0053580367647386,0.0053580367647611,-0.0013164475338244,0.0013164475334111,7.234328113889e-12,-7.6252001141942e-12,-5.5119433786192e-14,-4.4761644327197e-13,-0.0013789257731772,0.001378925777726,-0.0013789257778902,0.0013789257725985,-0.0013789257731431,0.0013789257775623,-0.001378925778365,0.0013789257726616,-0.001248760301571,0.0012487603160985,-0.0012487603157024,0.0012487603006636,4.5391686844537e-13,8.5539833875615e-13,1.3936155730597e-12,5.215049213238e-13,-0.0013164475330531,0.0013164475341946,-0.0013789257745455,0.0013789257756601,-0.001378925775004,0.001378925775727,-0.0013789257741479,0.001378925776119,-0.0013789257745823,0.0013789257758819,-0.0012487603071307,0.001248760309825,-0.0012487603083933,0.0012487603096428,-0.0012487603086534,0.0012487603082359,-0.0012487603081233,0.0012487603090819,-7.0672257481633e-12,7.7620496688283e-12,-0.0013164475333709,0.0013164475339297,-2.2251270238968e-13,6.4651389650307e-13,-0.0013789257779715,0.0013789257730948,-0.0013789257774555,0.0013789257729181,-0.0013789257724301,0.0013789257780101,-0.0013789257719408,0.0013789257783661,-0.0012487603003442,0.0012487603166077,-0.0012487603154143,0.001248760302235,0.0035409549535788,0.0034109786628718,0.73958667641934,0.54648538255866,1368840,32768,0.0054699782820685,0.0054699782820937,0.0054699782822034,25.732316175089,25.739486716258,0.00012105852940071,0.00012105852940071,0.00012105852940071,461592.94109805,0.016546259341852
30219246,0.99988995064976,0.016074165072281,0.0053580550240606,0.0053580550240991,0.0053580550241216,-0.0013152517239266,0.0013152517234994,7.2108142439863e-12,-7.654711506759e-12,-1.8104623386771e-14,-4.2686954766363e-13,-0.001378443804601,0.001378443809242,-0.0013784438094884,0.0013784438043302,-0.0013784438048776,0.001378443809215,-0.0013784438097297,0.0013784438043247,-0.0012469118707795,0.0012469118846018,-0.0012469118852076,0.0012469118702966,3.5594512612073e-13,7.7567153906104e-13,1.2875151084737e-12,4.0023815535203e-13,-0.001315251723233,0.0013152517242053,-0.0013784438062828,0.0013784438076002,-0.0013784438065653,0.0013784438073462,-0.0013784438061163,0.0013784438078021,-0.001378443806414,0.0013784438074416,-0.0012469118763687,0.001246911879142,-0.0012469118774139,0.0012469118783278,-0.0012469118775734,0.0012469118779424,-0.0012469118771289,0.0012469118784729,-7.1182440719415e-12,7.7163237421946e-12,-0.0013152517234337,0.0013152517240159,-1.5829778175849e-13,7.2565506702993e-13,-0.0013784438094846,0.0013784438046856,-0.0013784438089492,0.0013784438047667,-0.0013784438043553,0.0013784438097497,-0.0013784438038652,0.0013784438098209,-0.0012469118700346,0.001246911885339,-0.0012469118845284,0.0012469118709017,0.0035361164421564,0.003410921356814,0.7358449606702,0.50296834043378,1368840,32768,0.0054650205544102,0.0054650205544357,0.005465020554459,25.84067474347,25.847848110024,0.00012192539794775,0.00012192539794775,0.00012192539794775,503498.1841866,0.016531147196034
30305646,0.99989327320976,0.016074218234759,0.0053580727448867,0.0053580727449251,0.0053580727449476,-0.0013151971487685,0.0013151971483392,7.2343816416655e-12,-7.6763864328402e-12,-1.0587970662411e-14,-4.3600891552104e-13,-0.0013785256362395,0.0013785256408633,-0.0013785256410955,0.0013785256359751,-0.001378525636463,0.0013785256408182,-0.0013785256413899,0.0013785256359715,-0.0012467349275334,0.0012467349413517,-0.0012467349417488,0.0012467349268335,3.7466440720072e-13,8.1124556994587e-13,1.2833327068314e-12,4.0948707868612e-13,-0.0013151971480501,0.0013151971490622,-0.0013785256378722,0.0013785256392581,-0.0013785256381886,0.0013785256389753,-0.0013785256377267,0.0013785256395165,-0.0013785256380556,0.001378525639051,-0.0012467349330154,0.0012467349358244,-0.0012467349340672,0.0012467349347579,-0.0012467349340148,0.0012467349346906,-0.0012467349338506,0.0012467349350113,-7.1191688083973e-12,7.7604133364642e-12,-0.0013151971482594,0.0013151971488842,-1.1871110875123e-13,7.5180344468553e-13,-0.001378525641102,0.0013785256362926,-0.0013785256405592,0.0013785256364395,-0.0013785256359576,0.0013785256413883,-0.0013785256354909,0.0013785256414764,-0.0012467349264796,0.0012467349420256,-0.0012467349409465,0.0012467349275058,0.0035358459632446,0.0034108650632808,0.73199084400903,0.45945129830891,1368840,32768,0.0054647940377961,0.0054647940378057,0.0054647940378703,25.949033521659,25.956209503792,0.00012279226817327,0.00012279226817327,0.00012279226817327,511261.64255696,0.016530457413876
30392046,0.99989651920556,0.016074269887659,0.00535808996252,0.0053580899625585,0.005358089962581,-0.001315164157332,0.0013151641568644,7.2244290045353e-12,-7.7336062142269e-12,-1.0560265626428e-15,-4.6534860744888e-13,-0.0013786354441759,0.0013786354485857,-0.0013786354489299,0.001378635443677,-0.0013786354442313,0.0013786354484508,-0.0013786354490549,0.0013786354434591,-0.0012465740321223,0.0012465740454668,-0.0012465740463058,0.0012465740312413,2.8967153308644e-13,7.6564625709123e-13,1.1891001149842e-12,3.5918017435105e-13,-0.0013151641566591,0.0013151641575126,-0.0013786354457103,0.0013786354468664,-0.0013786354458687,0.0013786354467695,-0.0013786354453948,0.0013786354471176,-0.0013786354458345,0.0013786354468046,-0.0012465740376276,0.0012465740403176,-0.0012465740384213,0.0012465740390488,-0.0012465740383519,0.0012465740393177,-0.0012465740381591,0.0012465740397037,-7.1068382439111e-12,7.8199725169721e-12,-0.0013151641567557,0.001315164157439,-7.1981212788065e-14,7.5571614868452e-13,-0.001378635448665,0.0013786354442428,-0.0013786354482246,0.001378635444037,-0.0013786354437442,0.0013786354490962,-0.0013786354432391,0.0013786354492175,-0.0012465740313545,0.0012465740468199,-0.0012465740455962,0.0012465740321722,0.0035356665292653,0.0034108097857203,0.72804819165118,0.41593425618404,1368840,32768,0.0054646569627131,0.0054646569626616,0.0054646569627095,26.074499359379,26.082773326683,0.00012379599487503,0.00012379599487503,0.00012379599487503,519428.94416498,0.016530040379941
30478446,0.99989969765307,0.016074320703134,0.0053581069010116,0.0053581069010501,0.0053581069010726,-0.0013152026213578,0.0013152026211409,7.4006003873264e-12,-7.6209008337695e-12,1.0907807950425e-13,-3.9515016372786e-13,-0.0013788218088442,0.0013788218135587,-0.0013788218134914,0.001378821808835,-0.0013788218090485,0.0013788218139156,-0.0013788218135978,0.0013788218083353,-0.0012464800647591,0.0012464800788352,-0.0012464800789809,0.0012464800641079,2.4430730128553e-13,7.5910780977748e-13,1.2042265646462e-12,3.0482077616982e-13,-0.0013152026208272,0.0013152026216479,-0.0013788218103733,0.0013788218117279,-0.0013788218105928,0.0013788218114741,-0.0013788218100418,0.0013788218119095,-0.0013788218105103,0.0013788218118114,-0.0012464800705754,0.0012464800732269,-0.0012464800714898,0.0012464800721854,-0.0012464800715826,0.0012464800718545,-0.0012464800714594,0.0012464800725832,-7.1906005673826e-12,7.7963097398537e-12,-0.0013152026209257,0.0013152026215145,-1.5325758279193e-13,7.4151387667183e-13,-0.0013788218136109,0.0013788218091616,-0.0013788218132651,0.0013788218087076,-0.0013788218092032,0.0013788218140138,-0.001378821807897,0.0013788218139388,-0.0012464800641173,0.0012464800795253,-0.0012464800787584,0.0012464800655214,0.0035357857994543,0.0034107556375371,0.73158167624089,0.48663284192987,1368840,32768,0.0054648159943045,0.0054648159942553,0.0054648159941832,26.243141479821,26.254221734974,0.00012514513183857,0.00012514513183857,0.00012514513183857,527993.38674384,0.016530526333605
30564846,0.99990280940915,0.016074370600543,0.0053581235334811,0.0053581235335196,0.0053581235335421,-0.0013159747367235,0.0013159747363345,7.2889514451837e-12,-7.7086833873669e-12,7.9301753856443e-14,-4.4515875364682e-13,-0.0013793856372815,0.0013793856421591,-0.0013793856420363,0.0013793856370269,-0.0013793856376551,0.0013793856421246,-0.001379385642365,0.0013793856369519,-0.0012474499346888,0.0012474499486689,-0.001247449949156,0.0012474499341931,2.764741715509e-13,8.1260482253929e-13,1.2456957977896e-12,3.7454294032321e-13,-0.0013159747360562,0.0013159747370061,-0.0013793856388463,0.0013793856403135,-0.0013793856392254,0.0013793856402945,-0.0013793856385822,0.0013793856405559,-0.0013793856391025,0.0013793856401118,-0.0012474499408632,0.0012474499435037,-0.0012474499414988,0.0012474499422743,-0.0012474499416836,0.0012474499421799,-0.0012474499413745,0.0012474499424966,-7.1930167876864e-12,7.7734415561081e-12,-0.001315974736245,0.0013159747367973,-1.4589957227998e-13,7.208586547335e-13,-0.0013793856421524,0.0013793856374254,-0.0013793856419772,0.0013793856373882,-0.0013793856371465,0.0013793856424995,-0.0013793856366689,0.0013793856425444,-0.0012474499345913,0.0012474499501202,-0.0012474499492106,0.0012474499353102,0.0035388648632483,0.0034107025777849,0.73386643028921,0.53440316766526,1368840,32768,0.0054680163712259,0.005468016371235,0.0054680163711935,26.414327120778,26.425670143263,0.00012651461696622,0.00012651461696622,0.00012651461696622,514280.17592876,0.016540284049827
30651246,0.99990585490028,0.016074419549181,0.0053581398496937,0.0053581398497322,0.0053581398497547,-0.0013165920182466,0.0013165920177807,7.2418872359042e-12,-7.7592869591096e-12,7.523570160096e-14,-5.2954364633451e-13,-0.0013798571302385,0.0013798571348684,-0.0013798571350591,0.0013798571299456,-0.0013798571304603,0.0013798571346796,-0.001379857135369,0.00137985712987,-0.0012482044705509,0.0012482044846332,-0.0012482044852868,0.0012482044698382,2.4814133121737e-13,8.6405283907299e-13,1.2954658655835e-12,4.3988176779629e-13,-0.001316592017512,0.0013165920185265,-0.0013798571317626,0.0013798571332641,-0.001379857132131,0.0013798571329803,-0.001379857131568,0.0013798571335043,-0.0013798571318077,0.0013798571331295,-0.0012482044761734,0.0012482044792014,-0.0012482044770955,0.0012482044782055,-0.0012482044774583,0.0012482044777501,-0.0012482044771619,0.0012482044782628,-7.1795718454789e-12,7.7900464900152e-12,-0.0013165920177218,0.0013165920183147,-1.0227669904646e-13,7.4983341663324e-13,-0.0013798571351419,0.0013798571302846,-0.0013798571346228,0.0013798571303797,-0.0013798571300688,0.0013798571354481,-0.0013798571294316,0.0013798571353926,-0.0012482044698082,0.0012482044855488,-0.0012482044845953,0.0012482044707992,0.0035413227421185,0.0034106505763503,0.73544416568306,0.56847056870052,1368840,32768,0.0054705748365422,0.0054705748365651,0.0054705748365611,26.585744227076,26.597118551553,0.00012788595381661,0.00012788595381661,0.00012788595381661,505136.13611612,0.016548084971149
30737646,0.99990883453958,0.016074467588228,0.0053581558627094,0.0053581558627479,0.0053581558627704,-0.0013171226368765,0.0013171226363105,7.1680629029516e-12,-7.7593089584375e-12,2.7674742790899e-14,-6.1522991103088e-13,-0.0013802874691834,0.0013802874739043,-0.0013802874741478,0.0013802874688783,-0.0013802874696818,0.0013802874737928,-0.0013802874743331,0.0013802874688602,-0.0012488301909462,0.0012488302048144,-0.001248830205695,0.0012488301902489,2.8488620868658e-13,9.3958735507479e-13,1.2435491868965e-12,4.3108891876474e-13,-0.0013171226361092,0.0013171226371121,-0.0013802874710268,0.0013802874722427,-0.0013802874712515,0.001380287472125,-0.0013802874705402,0.0013802874725256,-0.001380287471101,0.0013802874721772,-0.0012488301967907,0.0012488301993278,-0.0012488301973915,0.0012488301985198,-0.0012488301978574,0.0012488301985462,-0.0012488301973909,0.0012488301990426,-7.1214390331612e-12,7.7752231487405e-12,-0.0013171226363087,0.001317122636928,-7.874056511802e-14,7.3059847483574e-13,-0.001380287474193,0.0013802874692817,-0.0013802874737137,0.0013802874694828,-0.0013802874689722,0.0013802874744829,-0.0013802874684755,0.0013802874743362,-0.0012488301903978,0.0012488302058842,-0.0012488302050845,0.0012488301912142,0.0035434350010116,0.0034105996130825,0.73764952734421,0.61110621723765,1368840,32768,0.0054727740221269,0.0054727740221981,0.0054727740222299,26.757184088127,26.768566959843,0.00012925747270501,0.00012925747270501,0.00012925747270501,498663.64741805,0.016554790716798
30824046,0.99991174876305,0.016074514926227,0.0053581716420426,0.0053581716420811,0.0053581716421036,-0.0013176967311716,0.0013176967305037,7.0551432937446e-12,-7.7104379220024e-12,-4.1897308301285e-14,-6.7959712112738e-13,-0.0013807394702495,0.0013807394749803,-0.0013807394753012,0.0013807394698729,-0.0013807394706396,0.0013807394744582,-0.0013807394750039,0.0013807394698567,-0.0012495191681423,0.0012495191821013,-0.0012495191825874,0.0012495191678058,2.3943942058418e-13,8.878544060691e-13,1.2670459102642e-12,3.9289396794721e-13,-0.0013176967303296,0.0013176967313731,-0.0013807394719709,0.0013807394732281,-0.0013807394722426,0.0013807394731258,-0.0013807394715299,0.0013807394736236,-0.0013807394718093,0.001380739473107,-0.0012495191735703,0.0012495191763737,-0.0012495191742991,0.0012495191757491,-0.0012495191748927,0.0012495191753839,-0.0012495191746311,0.0012495191761779,-7.0302881706986e-12,7.7042859040599e-12,-0.0013176967305196,0.0013176967311868,-9.5883659055327e-14,7.7367536474868e-13,-0.0013807394750291,0.0013807394702824,-0.0013807394743855,0.0013807394706305,-0.0013807394701005,0.0013807394754267,-0.0013807394694966,0.0013807394755949,-0.001249519167253,0.0012495191826518,-0.0012495191819855,0.0012495191685578,0.00354572388919,0.0034105496981136,0.74316784680457,0.70777384910434,1368840,32768,0.0054751534279623,0.0054751534280191,0.005475153428027,26.92862703351,26.940015368133,0.00013062901626807,0.00013062901626807,0.00013062901626807,490883.25952855,0.016562045931055
30910446,0.99991459803239,0.016074561464505,0.005358187154802,0.0053581871548405,0.005358187154863,-0.0013185457936242,0.0013185457931086,7.1350633816526e-12,-7.6874082726012e-12,4.3933951965572e-14,-5.8978574715615e-13,-0.0013813265680218,0.0013813265726879,-0.0013813265729183,0.0013813265678061,-0.0013813265683326,0.0013813265725163,-0.0013813265731936,0.0013813265677018,-0.0012506115941951,0.0012506116074438,-0.0012506116084079,0.0012506115932712,2.5809026257846e-13,9.030600591939e-13,1.2616488986686e-12,3.7702442333914e-13,-0.001318545792873,0.0013185457938755,-0.0013813265697229,0.0013813265710419,-0.0013813265699972,0.0013813265707884,-0.0013813265694647,0.0013813265712688,-0.001381326569718,0.0013813265709576,-0.0012506115995199,0.0012506116022631,-0.0012506116005144,0.0012506116014697,-0.0012506116007801,0.0012506116010373,-0.0012506116001704,0.001250611601715,-7.1284447014957e-12,7.6633561544357e-12,-0.0013185457930971,0.001318545793658,-1.5465665769821e-13,7.2681217873978e-13,-0.0013813265729126,0.0013813265681037,-0.001381326572365,0.0013813265682158,-0.0013813265678238,0.0013813265731378,-0.0013813265673165,0.0013813265732529,-0.0012506115933673,0.0012506116084847,-0.0012506116074405,0.0012506115939394,0.003549116323386,0.003410500791839,0.74720801126384,0.76592250716986,1368840,32768,0.0054786727350541,0.0054786727350865,0.0054786727351002,27.10007071624,27.111463776423,0.00013200056572991,0.00013200056572991,0.00013200056572991,474861.19727793,0.016572776171696
30996846,0.99991738283465,0.01607460709427,0.0053582023647234,0.0053582023647619,0.0053582023647844,-0.0013191785481893,0.0013191785477243,7.2197686174952e-12,-7.7397812020559e-12,7.5048766135239e-14,-6.1716514602843e-13,-0.0013818076955539,0.0013818077005194,-0.0013818077004612,0.0013818076954327,-0.0013818076959442,0.0013818077002378,-0.0013818077010404,0.0013818076952687,-0.0012513825439985,0.0012513825577056,-0.0012513825587204,0.0012513825430475,3.0130150132831e-13,1.0038283337335e-12,1.2835067309269e-12,5.2419051575133e-13,-0.0013191785474293,0.0013191785484656,-0.0013818076974162,0.0013818076984454,-0.0013818076977526,0.0013818076984957,-0.0013818076970894,0.0013818076989755,-0.0013818076974733,0.0013818076986437,-0.0012513825493868,0.0012513825521184,-0.001251382549979,0.0012513825514487,-0.0012513825501974,0.0012513825509498,-0.0012513825499467,0.0012513825517072,-7.139953232271e-12,7.7893845396491e-12,-0.0013191785476281,0.0013191785483199,-1.7994391460163e-14,7.3808101095528e-13,-0.0013818077006466,0.0013818076957657,-0.0013818077001462,0.0013818076957111,-0.0013818076953658,0.0013818077007506,-0.0013818076950428,0.0013818077009694,-0.0012513825433272,0.0012513825588619,-0.0012513825578028,0.0012513825438991,0.0035516489420826,0.0034104528534663,0.74941976722571,0.78348385450174,1368840,32768,0.0054812952536067,0.005481295253568,0.0054812952536781,27.27151390561,27.282912184713,0.00013337211124488,0.00013337211124488,0.00013337211124488,465251.65521987,0.016580772828992
31083246,0.99992010954604,0.016074652104205,0.0053582173680352,0.0053582173680736,0.0053582173680961,-0.0013196815796208,0.0013196815791625,7.1923359261333e-12,-7.623075943792e-12,1.350523448318e-14,-5.1997117406108e-13,-0.0013822562404832,0.0013822562450153,-0.0013822562451811,0.0013822562401048,-0.0013822562407174,0.0013822562446067,-0.0013822562456706,0.0013822562400349,-0.001251931028298,0.0012519310420538,-0.0012519310433118,0.0012519310285991,3.7053038643339e-13,9.1415248503379e-13,1.2954194846475e-12,6.0412739726388e-13,-0.001319681578849,0.0013196815799733,-0.0013822562421425,0.0013822562432921,-0.0013822562420036,0.0013822562430261,-0.0013822562418194,0.0013822562436257,-0.0013822562419744,0.0013822562434157,-0.0012519310336833,0.0012519310374291,-0.0012519310348157,0.0012519310362902,-0.0012519310354652,0.0012519310354113,-0.0012519310347728,0.001251931035702,-7.2216519129029e-12,7.5628671948927e-12,-0.0013196815792127,0.0013196815796039,-1.535871021371e-13,5.3566631223244e-13,-0.0013822562451233,0.0013822562402545,-0.0013822562447249,0.0013822562403288,-0.0013822562400923,0.0013822562453062,-0.0013822562396323,0.0013822562453257,-0.0012519310276954,0.0012519310423018,-0.0012519310425048,0.0012519310280549,0.0035536785479708,0.0034104059251193,0.75491200382605,0.84761868287821,1368840,32768,0.0054833798179347,0.0054833798180154,0.0054833798180036,27.480218788888,27.494015300625,0.0001350417503111,0.0001350417503111,0.0001350417503111,461487.53374659,0.016587130072553
31169646,0.99992278356118,0.016074696618017,0.0053582322059724,0.0053582322060109,0.0053582322060334,-0.0013204679688976,0.0013204679684904,7.1472947138761e-12,-7.4878443103197e-12,-2.7020998056469e-14,-4.7036080727079e-13,-0.0013828796248664,0.0013828796293369,-0.0013828796296429,0.0013828796246072,-0.0013828796250684,0.0013828796293598,-0.0013828796297634,0.0013828796246365,-0.0012528603718391,0.0012528603853703,-0.0012528603856614,0.0012528603714028,3.5016106752563e-13,8.0462271344606e-13,1.1416667699227e-12,4.453175135027e-13,-0.0013204679682191,0.0013204679691781,-0.0013828796265871,0.0013828796277067,-0.0013828796267686,0.0013828796275629,-0.0013828796263676,0.0013828796280405,-0.001382879626573,0.001382879627677,-0.00125286037668,0.001252860379071,-0.0012528603777636,0.0012528603792949,-0.0012528603786681,0.0012528603785304,-0.0012528603775146,0.0012528603786625,-7.0643359540916e-12,7.5404645263376e-12,-0.0013204679684509,0.0013204679689614,-1.1353035525499e-13,5.8016530575991e-13,-0.0013828796295428,0.0013828796249862,-0.001382879629242,0.001382879624871,-0.0013828796246091,0.0013828796299588,-0.0013828796242555,0.0013828796299803,-0.0012528603706786,0.0012528603855896,-0.0012528603849762,0.0012528603718566,0.0035568571045227,0.0034103600196927,0.76128776167397,0.91198732321307,1368840,32768,0.0054866389318355,0.0054866389318545,0.005486638931886,27.723548992065,27.739655922324,0.00013698839193652,0.00013698839193652,0.00013698839193652,451228.28847169,0.016597068413851
31256046,0.99992540487016,0.016074740336055,0.0053582467786517,0.0053582467786902,0.0053582467787127,-0.0013212485838422,0.0013212485834461,6.9911046618456e-12,-7.4091370088914e-12,1.6346853556021e-14,-4.6538225347984e-13,-0.0013835019247724,0.0013835019292779,-0.0013835019295415,0.0013835019245381,-0.0013835019249393,0.0013835019292445,-0.0013835019296782,0.0013835019244839,-0.0012537768772817,0.0012537768905823,-0.0012537768911224,0.0012537768774382,3.6837057006136e-13,8.6090217061787e-13,1.08904605392e-12,4.2546573760788e-13,-0.0013212485831696,0.0013212485841283,-0.001383501926327,0.0013835019276957,-0.0013835019266225,0.0013835019273361,-0.0013835019260435,0.0013835019278205,-0.0013835019264184,0.001383501927595,-0.0012537768831771,0.0012537768851236,-0.0012537768835307,0.0012537768844303,-0.0012537768840513,0.0012537768842758,-0.0012537768832473,0.0012537768849306,-6.9490998862391e-12,7.420885091172e-12,-0.0013212485834136,0.0013212485839142,-9.6993007518434e-14,5.6401138748632e-13,-0.0013835019295283,0.001383501924862,-0.0013835019291202,0.0013835019249015,-0.001383501924629,0.0013835019298745,-0.0013835019242189,0.0013835019298137,-0.0012537768767578,0.0012537768907791,-0.0012537768907643,0.0012537768774908,0.0035600204246571,0.0034103150635901,0.76258981840974,0.88037842305228,1368840,32768,0.0054898740362113,0.0054898740362311,0.0054898740362932,27.968964520621,27.985296544025,0.00013895171616497,0.00013895171616497,0.00013895171616497,441156.89118641,0.016606933865095
31342446,0.99992797319547,0.016074783048085,0.0053582610159953,0.0053582610160338,0.0053582610160562,-0.0013216076356634,0.0013216076351967,6.9729022179177e-12,-7.4777627359519e-12,4.2751635143363e-16,-4.5620159276625e-13,-0.0013839125254942,0.0013839125299323,-0.0013839125302759,0.0013839125252519,-0.0013839125257995,0.0013839125299657,-0.0013839125305572,0.0013839125252074,-0.0012540777268574,0.0012540777400621,-0.0012540777408496,0.0012540777263291,3.154925383901e-13,7.8299508003777e-13,1.1378313576801e-12,4.7759685092051e-13,-0.0013216076349781,0.0013216076359073,-0.0013839125272245,0.0013839125283947,-0.001383912527412,0.0013839125281926,-0.0013839125271051,0.0013839125286721,-0.0013839125271575,0.0013839125283549,-0.0012540777323884,0.0012540777346257,-0.0012540777331797,0.0012540777343006,-0.0012540777332128,0.0012540777338422,-0.0012540777330206,0.0012540777343261,-6.9801531140549e-12,7.4400895044904e-12,-0.0013216076352132,0.0013216076356726,-1.207401938229e-13,5.3709718028511e-13,-0.0013839125302635,0.0013839125256163,-0.0013839125297799,0.0013839125255774,-0.001383912525337,0.0013839125305798,-0.0013839125248876,0.0013839125305737,-0.0012540777262628,0.0012540777408116,-0.0012540777402949,0.0012540777268612,0.0035615049639721,0.0034102709898026,0.76027841661245,0.81480966369981,1368840,32768,0.0054913614345788,0.0054913614346311,0.005491361434632,28.214567919047,28.230937165726,0.00014091654335237,0.00014091654335237,0.00014091654335237,443371.3647629,0.016611471646797
31428846,0.99993048827771,0.016074824666292,0.0053582748887308,0.0053582748887693,0.0053582748887918,-0.0013217983499595,0.0013217983496398,7.0721074813827e-12,-7.3845005850466e-12,3.8016426859549e-14,-3.5915649860374e-13,-0.0013842418140788,0.0013842418186722,-0.0013842418187244,0.0013842418138702,-0.0013842418142004,0.0013842418186365,-0.0013842418191361,0.0013842418138118,-0.0012541354822941,0.0012541354962667,-0.001254135496377,0.0012541354816657,4.1256604344939e-13,8.2045252397387e-13,1.1670832875832e-12,5.0061676532498e-13,-0.0013217983493254,0.0013217983503034,-0.0013842418160635,0.0013842418169787,-0.001384241815944,0.0013842418167257,-0.0013842418156622,0.0013842418171685,-0.0013842418158649,0.0013842418169261,-0.0012541354882976,0.0012541354904847,-0.0012541354885787,0.0012541354896982,-0.0012541354889594,0.0012541354898537,-0.0012541354883811,0.0012541354900896,-6.9914697683389e-12,7.4347980779045e-12,-0.0013217983496094,0.0013217983500213,-1.294816326603e-13,5.3521685537481e-13,-0.0013842418189923,0.0013842418140577,-0.0013842418185079,0.001384241814174,-0.0013842418138489,0.0013842418192336,-0.0013842418136112,0.0013842418190695,-0.0012541354814822,0.0012541354966491,-0.0012541354959521,0.0012541354824148,0.0035623036144123,0.0034102277525887,0.75648859272632,0.74924090434734,1368840,32768,0.0054921510936116,0.0054921510936728,0.0054921510936768,28.460189884793,28.476577787427,0.00014288151907834,0.00014288151907834,0.00014288151907834,450907.29675317,0.016613881922867
31515246,0.99993294990084,0.016074865147402,0.0053582883824341,0.0053582883824725,0.005358288382495,-0.0013219645005202,0.0013219645000743,6.9640633702914e-12,-7.4122284438619e-12,-2.1357229904228e-14,-4.5522050509075e-13,-0.0013845679424746,0.0013845679469147,-0.0013845679471806,0.0013845679421727,-0.0013845679427285,0.0013845679469287,-0.0013845679474347,0.0013845679421458,-0.0012541541375459,0.0012541541509907,-0.0012541541512245,0.0012541541368607,3.5835675832937e-13,8.0321999159237e-13,1.1706483551434e-12,5.2393017076351e-13,-0.0013219644998254,0.0013219645007984,-0.0013845679441488,0.0013845679453923,-0.001384567944387,0.0013845679452156,-0.001384567943939,0.0013845679455893,-0.0013845679441666,0.0013845679453119,-0.0012541541429929,0.0012541541455508,-0.0012541541435974,0.0012541541448065,-0.0012541541438951,0.0012541541444698,-0.0012541541433268,0.0012541541450011,-6.8992715849301e-12,7.4463434016734e-12,-0.0013219645000494,0.0013219645005728,-5.2526101246015e-14,5.9168877725518e-13,-0.0013845679472228,0.0013845679425592,-0.0013845679467787,0.001384567942573,-0.0013845679422602,0.0013845679474085,-0.0013845679418346,0.0013845679474608,-0.0012541541364677,0.0012541541514572,-0.0012541541506145,0.0012541541375731,0.0035629920898216,0.0034101853173306,0.75185432774319,0.68367214499487,1368840,32768,0.0054928390516033,0.0054928390516639,0.0054928390516608,28.705814687395,28.722218409127,0.00014484651749916,0.00014484651749916,0.00014484651749916,459610.74600614,0.016615981750159
31601646,0.99993535789453,0.016074904473153,0.005358301491018,0.0053583014910564,0.0053583014910789,-0.0013221085718123,0.0013221085712326,6.9108142911319e-12,-7.5482790523151e-12,-1.0950030189976e-13,-4.9951809300632e-13,-0.0013848804476715,0.0013848804519448,-0.0013848804521923,0.0013848804470408,-0.0013848804474662,0.0013848804516922,-0.0013848804522648,0.0013848804467701,-0.0012541444223128,0.0012541444348951,-0.0012541444351043,0.0012541444206271,3.9187749899964e-13,7.9242032151488e-13,1.2503723313953e-12,5.8236426799489e-13,-0.001322108570989,0.0013221085720871,-0.001384880448406,0.0013848804504447,-0.001384880449166,0.0013848804502725,-0.0013848804484703,0.0013848804503059,-0.0013848804486307,0.0013848804501439,-0.001254144427029,0.0012541444294738,-0.0012541444266533,0.0012541444287074,-0.0012541444276338,0.0012541444284752,-0.0012541444281565,0.0012541444294506,-7.0386592090868e-12,7.389605899671e-12,-0.0013221085713274,0.001322108571727,-7.0333086666598e-14,5.9628790146098e-13,-0.0013848804519376,0.0013848804472092,-0.0013848804519827,0.0013848804470619,-0.0013848804469788,0.0013848804523259,-0.0013848804465929,0.0013848804523856,-0.0012541444206153,0.0012541444355995,-0.0012541444336808,0.0012541444216421,0.0035635845599255,0.0034101436558976,0.74672920212747,0.6181033856424,1368840,32768,0.0054934355457117,0.0054934355457762,0.0054934355457314,28.951440605483,28.967859030828,0.00014681152484386,0.00014681152484386,0.00014681152484386,469136.90131196,0.016617802469908
31688046,0.99993771213458,0.0160749426365,0.0053583142121335,0.005358314212172,0.0053583142121944,-0.0013222313662231,0.0013222313657151,6.9635333864821e-12,-7.4953062000111e-12,3.560203002948e-14,-4.8549328616042e-13,-0.0013851859143498,0.0013851859186274,-0.0013851859189088,0.0013851859138321,-0.0013851859144745,0.0013851859185246,-0.0013851859189833,0.0013851859137669,-0.0012541019780081,0.001254101991706,-0.0012541019920056,0.0012541019772143,4.8694550650197e-13,1.0186793506333e-12,1.2823778830595e-12,5.9145799018792e-13,-0.0013222313653936,0.0013222313666131,-0.0013851859154232,0.0013851859167232,-0.0013851859157185,0.0013851859168258,-0.0013851859151052,0.0013851859169358,-0.0013851859155275,0.0013851859171287,-0.0012541019844144,0.0012541019866401,-0.001254101983667,0.0012541019861809,-0.0012541019848908,0.0012541019859721,-0.0012541019838715,0.0012541019859166,-6.7902528565539e-12,7.6378250814513e-12,-0.0013222313655563,0.0013222313664117,1.0405440944451e-13,7.9211703666238e-13,-0.001385185918617,0.0013851859141758,-0.0013851859179095,0.0013851859138754,-0.001385185913147,0.0013851859190138,-0.0013851859131745,0.001385185918896,-0.0012541019780466,0.0012541019933131,-0.0012541019921858,0.0012541019789924,0.0035640876922437,0.0034101027432511,0.74127838425309,0.55253462628991,1368840,32768,0.0054939438857975,0.0054939438859391,0.005493943885859,29.197067222243,29.213499652529,0.00014877653777794,0.00014877653777794,0.00014877653777794,479489.88499586,0.016619354281449
31774446,0.99993998948994,0.016074979230647,0.0053583264101824,0.0053583264102209,0.0053583264102434,-0.0013219900968978,0.0013219900964885,7.0458112258917e-12,-7.4492773708662e-12,3.8583409538617e-14,-4.5455246667534e-13,-0.0013851440929775,0.0013851440974729,-0.0013851440977297,0.0013851440927004,-0.0013851440932203,0.0013851440973791,-0.0013851440980274,0.0013851440927504,-0.001253682187544,0.0012536822011765,-0.0012536822018594,0.0012536821869261,3.5004271819994e-13,8.5417849366864e-13,1.1990095475519e-12,5.1000686081695e-13,-0.0013219900961823,0.0013219900972068,-0.0013851440946009,0.0013851440958773,-0.0013851440948261,0.0013851440956044,-0.0013851440943086,0.0013851440959849,-0.0013851440946938,0.0013851440957748,-0.001253682193454,0.0012536821959341,-0.0012536821937626,0.001253682195135,-0.0012536821940458,0.0012536821949037,-0.0012536821935321,0.0012536821952999,-6.9746196948618e-12,7.4897655163341e-12,-0.0013219900964401,0.0013219900969771,-5.098623652312e-14,6.3546291057369e-13,-0.0013851440977586,0.0013851440930416,-0.0013851440972683,0.0013851440930679,-0.00138514409272,0.0013851440980263,-0.0013851440922861,0.0013851440979424,-0.0012536821869006,0.0012536822019979,-0.0012536822011883,0.0012536821876178,0.0035630777656735,0.0034100624279257,0.73485696669403,0.4760464796283,1368840,32768,0.005492943578732,0.0054929435787377,0.005492943578796,29.265478794006,29.270461579394,0.00014932383035204,0.00014932383035204,0.00014932383035204,490739.08536536,0.016616305046732
31860846,0.99994218460494,0.016075015216851,0.005358338405584,0.0053583384056225,0.0053583384056449,-0.0013215433715474,0.0013215433710753,7.0497031658191e-12,-7.5229184153005e-12,1.8402908392016e-14,-5.1000147862844e-13,-0.0013849441936579,0.0013849441981529,-0.00138494419843,0.0013849441933714,-0.0013849441939634,0.0013849441980747,-0.0013849441987017,0.00138494419332,-0.0012530143060267,0.0012530143195345,-0.0012530143201362,0.0012530143053733,3.0661233908586e-13,8.4598450869514e-13,1.1997350253891e-12,4.8547669843187e-13,-0.0013215433708252,0.0013215433718147,-0.0013849441953086,0.0013849441965643,-0.0013849441955549,0.0013849441963732,-0.0013849441951166,0.0013849441968041,-0.0013849441953502,0.0013849441965139,-0.001253014311546,0.0012530143141984,-0.0012530143122165,0.0012530143133586,-0.0012530143125299,0.0012530143130809,-0.0012530143120824,0.0012530143135617,-7.0019117434613e-12,7.5395174670343e-12,-0.0013215433710593,0.0013215433715911,-7.9108965628344e-14,6.326580844945e-13,-0.0013849441984407,0.0013849441937215,-0.0013849441979566,0.0013849441937553,-0.0013849441934388,0.001384944198697,-0.0013849441929962,0.0013849441986959,-0.0012530143052364,0.0012530143202648,-0.0012530143194835,0.0012530143060529,0.0035612196069542,0.0034100228418622,0.7499539217628,0.75717075358531,1368840,32768,0.0054910918023365,0.0054910918023719,0.0054910918023938,29.273638888288,29.274343833804,0.0001493891111063,0.0001493891111063,0.0001493891111063,504841.86800679,0.016610659206379
31947246,0.99994429994398,0.016075049987491,0.0053583499957971,0.0053583499958356,0.0053583499958581,-0.0013230570478498,0.0013230570473798,7.0502366201107e-12,-7.5223825493178e-12,2.5875738925702e-14,-5.0944502503948e-13,-0.0013857095142956,0.0013857095187721,-0.0013857095190638,0.0013857095140114,-0.0013857095146095,0.0013857095187029,-0.0013857095193478,0.0013857095139575,-0.00125522670855,0.0012552267221094,-0.0012552267227477,0.0012552267079891,3.1032125519278e-13,8.5651306940778e-13,1.2018588428609e-12,5.0216089462348e-13,-0.0013230570471225,0.0013230570481242,-0.0013857095159353,0.0013857095171876,-0.0013857095161811,0.0013857095170065,-0.0013857095157378,0.0013857095174218,-0.0013857095159656,0.0013857095171535,-0.0012552267141071,0.001255226716761,-0.0012552267147766,0.0012552267159915,-0.0012552267150664,0.001255226715647,-0.0012552267146067,0.0012552267161503,-7.0074661031912e-12,7.5345033555061e-12,-0.0013230570473654,0.0013230570478899,-8.0187462092782e-14,6.1703800285374e-13,-0.001385709519066,0.0013857095143557,-0.0013857095185823,0.0013857095143905,-0.0013857095140755,0.0013857095193265,-0.001385709513627,0.001385709519323,-0.0012552267077946,0.0012552267227881,-0.0012552267220958,0.0012552267085805,0.0035672312614717,0.003409983870733,0.75210594194887,0.77837659204923,1368840,32768,0.0054973668946934,0.0054973668947287,0.0054973668947467,29.277922198922,29.278226088215,0.00014942337759137,0.00014942337759137,0.00014942337759137,459471.0287756,0.016629789472302
32033646,0.99994633834519,0.016075083621232,0.0053583612070442,0.0053583612070826,0.0053583612071051,-0.0013231783014786,0.0013231783010067,7.0440511620134e-12,-7.5239220905212e-12,2.7166111270419e-14,-5.1518884956958e-13,-0.0013857636200612,0.0013857636245585,-0.0013857636248249,0.0013857636197739,-0.0013857636203574,0.001385763624484,-0.0013857636251045,0.0013857636197322,-0.0012554055702209,0.0012554055836697,-0.0012554055842991,0.0012554055695214,3.1162924464637e-13,8.6493098871671e-13,1.2033662968092e-12,5.149479745752e-13,-0.0013231783007436,0.0013231783017566,-0.0013857636216963,0.0013857636229656,-0.0013857636219432,0.0013857636227742,-0.0013857636214907,0.0013857636231982,-0.001385763621722,0.0013857636229238,-0.0012554055756919,0.0012554055783575,-0.0012554055763049,0.0012554055775878,-0.0012554055766599,0.0012554055772063,-0.0012554055761813,0.0012554055777294,-7.0025727820906e-12,7.5348021993178e-12,-0.0013231783009935,0.0013231783015185,-7.3391405001778e-14,6.1251055292893e-13,-0.0013857636248286,0.0013857636201151,-0.0013857636243403,0.001385763620149,-0.0013857636198399,0.001385763625104,-0.0013857636193936,0.0013857636250655,-0.0012554055693961,0.0012554055844093,-0.0012554055836103,0.001255405570174,0.0035676771943613,0.0034099455200825,0.75450743285331,0.79958243051317,1368840,32768,0.0054978694438188,0.0054978694438496,0.0054978694438742,29.281844199074,29.282108342627,0.00014945475359259,0.00014945475359259,0.00014945475359259,455293.77969839,0.016631321879445
32120046,0.999948302586,0.01607511616392,0.0053583720546068,0.0053583720546453,0.0053583720546678,-0.0013232979819107,0.0013232979814394,7.0462324483178e-12,-7.5229815310194e-12,2.9898674851301e-14,-5.1520079038127e-13,-0.0013858246416291,0.0013858246461219,-0.0013858246463902,0.0013858246413503,-0.0013858246419441,0.001385824646032,-0.001385824646681,0.001385824641289,-0.001255575278552,0.0012555752920344,-0.0012555752926685,0.0012555752778991,3.0949825092323e-13,8.6547738378942e-13,1.201140335399e-12,5.0962722535573e-13,-0.0013232979811807,0.001323297982188,-0.0013858246432809,0.0013858246445114,-0.0013858246435164,0.0013858246443351,-0.0013858246430749,0.0013858246447817,-0.0013858246433011,0.0013858246444821,-0.0012555752840151,0.0012555752867219,-0.0012555752846991,0.0012555752859434,-0.0012555752850462,0.0012555752856297,-0.0012555752845836,0.0012555752861196,-7.0110859337844e-12,7.5275984487992e-12,-0.001323297981432,0.0013232979819439,-8.3653150336032e-14,6.0537447681351e-13,-0.0013858246463987,0.0013858246416807,-0.0013858246459241,0.0013858246417073,-0.0013858246413924,0.0013858246466541,-0.0013858246409567,0.001385824646643,-0.0012555752777889,0.00125557529276,-0.0012555752920154,0.0012555752785453,0.0035681196492176,0.0034099077827379,0.75756420255972,0.826416568968,1368840,32768,0.0054983654705042,0.0054983654705427,0.0054983654705578,29.285730479725,29.285990597038,0.0001494858438378,0.0001494858438378,0.0001494858438378,451231.79661815,0.016632834462327
32206446,0.99995019534801,0.016075147667912,0.0053583825559375,0.005358382555976,0.0053583825559985,-0.0013234422029244,0.0013234422024408,7.0319186503004e-12,-7.5261214939192e-12,3.1091873694013e-14,-5.2598093164359e-13,-0.0013858969815457,0.001385896986031,-0.0013858969863118,0.001385896981256,-0.0013858969818662,0.0013858969859446,-0.0013858969865995,0.0013858969811997,-0.0012557804277728,0.0012557804412284,-0.0012557804418716,0.0012557804270752,3.0459190080886e-13,8.7262157730392e-13,1.2004464448322e-12,5.1401067967951e-13,-0.0013234422021855,0.0013234422031963,-0.0013858969831924,0.0013858969844368,-0.0013858969834214,0.0013858969842544,-0.0013858969829788,0.0013858969846925,-0.0013858969832081,0.0013858969844069,-0.0012557804332326,0.0012557804359073,-0.0012557804339,0.0012557804351512,-0.0012557804342621,0.0012557804348096,-0.0012557804337608,0.0012557804353391,-6.9991341812551e-12,7.5283964244216e-12,-0.0013234422024367,0.0013234422029557,-7.7740801542464e-14,6.062173040069e-13,-0.0013858969863124,0.0013858969816029,-0.0013858969858388,0.0013858969816309,-0.0013858969813177,0.001385896986574,-0.0013858969808818,0.0013858969865606,-0.0012557804269774,0.001255780441986,-0.0012557804412022,0.0012557804277589,0.0035686628282817,0.0034098706559147,0.76105057673274,0.85428823042808,1368840,32768,0.0054989632155413,0.0054989632155755,0.0054989632155974,29.289613185554,29.289872851448,0.00014951690548443,0.00014951690548443,0.00014951690548443,446383.23239803,0.016634657196644
32292846,0.99995201921676,0.016075178178781,0.0053583927262272,0.0053583927262657,0.0053583927262881,-0.0013235891767816,0.0013235891762931,7.0275161377353e-12,-7.5274419241692e-12,3.5462563701845e-14,-5.3537023304217e-13,-0.0013859710804921,0.0013859710849762,-0.0013859710852573,0.0013859710802024,-0.0013859710808171,0.0013859710848857,-0.0013859710855484,0.001385971080142,-0.0012559881648896,0.0012559881783379,-0.0012559881789989,0.0012559881641879,3.0068357902894e-13,8.8247109993718e-13,1.1951253720932e-12,5.2395449354988e-13,-0.0013235891760377,0.0013235891770536,-0.0013859710821404,0.0013859710833812,-0.0013859710823644,0.0013859710832041,-0.0013859710819229,0.0013859710836408,-0.0013859710821467,0.0013859710833602,-0.0012559881703495,0.0012559881730168,-0.0012559881710018,0.0012559881722753,-0.0012559881713737,0.0012559881719166,-0.0012559881708649,0.0012559881724578,-7.0021532654948e-12,7.5223443151918e-12,-0.0013235891762946,0.0013235891768072,-7.298191751134e-14,5.9577965228176e-13,-0.0013859710852591,0.0013859710805502,-0.0013859710847899,0.0013859710805736,-0.001385971080265,0.0013859710855203,-0.0013859710798346,0.0013859710855012,-0.0012559881640924,0.0012559881790867,-0.0012559881783187,0.0012559881648538,0.0035692199299701,0.003409834135652,0.76486274342059,0.88215989188816,1368840,32768,0.0054995723556461,0.0054995723556804,0.0054995723557022,29.293495538936,29.293755105859,0.00014954796431149,0.00014954796431149,0.00014954796431149,441405.9670272,0.016636514735335
32379246,0.99995377668492,0.016075207737013,0.0053584025789711,0.0053584025790096,0.0053584025790321,-0.0013237337575196,0.0013237337570297,7.0263425853512e-12,-7.5268304134387e-12,3.6971694069536e-14,-5.3819632317764e-13,-0.0013860437310428,0.001386043735527,-0.0013860437358077,0.0013860437307527,-0.0013860437313694,0.0013860437354348,-0.0013860437361013,0.0013860437306899,-0.0012561917984549,0.0012561918118891,-0.0012561918125508,0.0012561917977488,2.984466179548e-13,8.8456133019972e-13,1.19421939977e-12,5.2710130918153e-13,-0.0013237337567742,0.0013237337577916,-0.0013860437326908,0.0013860437339309,-0.0013860437329132,0.0013860437337545,-0.0013860437324714,0.0013860437341921,-0.0013860437326944,0.0013860437339133,-0.0012561918038992,0.0012561918065772,-0.0012561918045538,0.001256191805838,-0.0012561918049363,0.0012561918054756,-0.0012561918044284,0.0012561918060209,-7.0005500791769e-12,7.5222043194685e-12,-0.0013237337570319,0.0013237337575444,-7.1200442522414e-14,5.9351739786267e-13,-0.0013860437358098,0.0013860437311009,-0.0013860437353419,0.0013860437311223,-0.0013860437308153,0.0013860437360711,-0.001386043730385,0.0013860437360511,-0.0012561917976575,0.0012561918126408,-0.0012561918118741,0.0012561917984203,0.0035697698469276,0.0034097982169776,0.76893799719211,0.91003155334824,1368840,32768,0.00550017156087,0.0055001715609042,0.0055001715609261,29.297377863575,29.29763736027,0.0001495790229086,0.0001495790229086,0.0001495790229086,436453.41064603,0.016638342035794
32465646,0.99995547015549,0.016075236131716,0.0053584120438723,0.0053584120439108,0.0053584120439333,-0.0013238755179329,0.0013238755174401,7.0230334511489e-12,-7.528925525905e-12,4.2031480672999e-14,-5.4339904659095e-13,-0.0013861153637468,0.0013861153682208,-0.0013861153685025,0.0013861153634481,-0.0013861153640696,0.0013861153681423,-0.0013861153687965,0.0013861153634017,-0.0012563904523094,0.0012563904657463,-0.0012563904664165,0.0012563904515989,2.9392455021851e-13,8.9033021278785e-13,1.1958875546914e-12,5.251312223075e-13,-0.0013238755171859,0.0013238755182044,-0.0013861153654006,0.00138611536663,-0.0013861153656141,0.0013861153664452,-0.0013861153651705,0.0013861153668862,-0.0013861153653981,0.0013861153666196,-0.0012563904577752,0.0012563904604261,-0.0012563904584083,0.0012563904597117,-0.0012563904587872,0.0012563904592807,-0.0012563904582369,0.0012563904598847,-6.9999435094719e-12,7.5216681005555e-12,-0.0013238755174448,0.0013238755179564,-7.4306641747806e-14,5.9404952866526e-13,-0.0013861153685081,0.0013861153637949,-0.0013861153680378,0.0013861153638185,-0.0013861153635237,0.0013861153687688,-0.0013861153630818,0.0013861153687483,-0.0012563904515142,0.001256390466516,-0.0012563904657481,0.0012563904522923,0.0035703103194513,0.0034097628488925,0.76650087815031,0.83985370518096,1368840,32768,0.005500759066515,0.0055007590665508,0.0055007590665734,29.301260048077,29.301519614681,0.00014961008038461,0.00014961008038461,0.00014961008038461,431559.68580073,0.016640133701099
32552046,0.99995709989215,0.016075263225413,0.0053584210751045,0.005358421075143,0.0053584210751655,-0.0013235452324854,0.0013235452320402,7.0531700010862e-12,-7.5011017288441e-12,4.9466371189256e-14,-4.8850860580918e-13,-0.0013859298026133,0.0013859298070835,-0.0013859298073631,0.0013859298022968,-0.0013859298029494,0.001385929806928,-0.0013859298075903,0.0013859298022951,-0.0012559219575352,0.0012559219711595,-0.0012559219716897,0.0012559219570024,3.12477954013e-13,8.6136403886105e-13,1.1904843079922e-12,5.3256473051305e-13,-0.0013235452317641,0.0013235452327723,-0.0013859298042422,0.0013859298054512,-0.0013859298045417,0.0013859298053773,-0.0013859298040756,0.0013859298056908,-0.0013859298043172,0.0013859298054038,-0.0012559219631101,0.0012559219657723,-0.0012559219636246,0.0012559219650403,-0.0012559219641524,0.0012559219647018,-0.0012559219635833,0.001255921965311,-7.0070726446229e-12,7.5168241897102e-12,-0.0013235452320231,0.001323545232517,-7.7193200624238e-14,5.7838027205617e-13,-0.0013859298073638,0.0013859298025876,-0.0013859298068979,0.0013859298026782,-0.0013859298023723,0.0013859298076026,-0.0013859298018809,0.0013859298075886,-0.0012559219568381,0.0012559219718943,-0.0012559219711545,0.0012559219576811,0.003568952749861,0.0034097279849367,0.75988224021311,0.73559588069865,1368840,32768,0.0054993897722412,0.0054993897722634,0.005499389772271,29.283003590283,29.281833014901,0.00014946402872226,0.00014946402872226,0.00014946402872226,439395.22941105,0.016635959495018
32638446,0.99995866775163,0.016075289021956,0.0053584296739523,0.0053584296739908,0.0053584296740133,-0.0013230105811877,0.0013230105807054,7.0393445999133e-12,-7.514134565994e-12,1.7688636094897e-14,-5.1687503335194e-13,-0.0013856417425694,0.0013856417470377,-0.0013856417472808,0.0013856417423154,-0.0013856417429331,0.0013856417470119,-0.0013856417475666,0.0013856417422163,-0.001255161218181,0.0012551612317892,-0.0012551612323666,0.0012551612176258,3.1522125256005e-13,8.6066523667957e-13,1.1844220814243e-12,5.0693916041545e-13,-0.0013230105804588,0.0013230105814572,-0.001385641744281,0.0013856417454868,-0.0013856417445137,0.00138564174528,-0.0013856417440537,0.0013856417457414,-0.0013856417443632,0.0013856417454107,-0.0012551612239612,0.0012551612262744,-0.0012551612243732,0.0012551612253502,-0.0012551612246419,0.0012551612253199,-0.0012551612245232,0.0012551612256686,-6.9953014159905e-12,7.5275992134818e-12,-0.0013230105806989,0.0013230105812186,-7.6597689404932e-14,5.983754553347e-13,-0.0013856417473753,0.0013856417426245,-0.0013856417468473,0.0013856417426637,-0.0013856417423294,0.0013856417475933,-0.0013856417419754,0.0013856417475584,-0.0012551612173793,0.0012551612323545,-0.0012551612315763,0.0012551612181303,0.0035667574694317,0.0034096936093507,0.75208936432785,0.63133805621638,1368840,32768,0.0054971734559292,0.0054971734559765,0.0054971734559796,29.257986090436,29.256330511816,0.00014926388872349,0.00014926388872349,0.00014926388872349,453407.45386894,0.016629202407742
32724846,0.99996017612631,0.016075313557703,0.0053584378525345,0.005358437852573,0.0053584378525955,-0.0013224258792289,0.001322425878753,7.0329749709717e-12,-7.5209558281973e-12,2.5833740208734e-14,-5.104555235812e-13,-0.0013853377935995,0.0013853377980836,-0.0013853377983644,0.0013853377933095,-0.0013853377939126,0.0013853377980056,-0.0013853377986433,0.00138533779326,-0.0012543224490614,0.0012543224625317,-0.0012543224631607,0.0012543224483884,3.0769862942985e-13,8.5496858717889e-13,1.1733312437712e-12,5.2725724559425e-13,-0.0013224258784999,0.0013224258794986,-0.0013853377952544,0.001385337796482,-0.0013853377954692,0.0013853377963139,-0.0013853377950486,0.0013853377967287,-0.0013853377952652,0.0013853377964583,-0.0012543224545514,0.0012543224571695,-0.0012543224551944,0.0012543224564695,-0.0012543224555712,0.0012543224561071,-0.0012543224550675,0.0012543224566141,-7.0010945331324e-12,7.522028766008e-12,-0.0013224258787507,0.0013224258792584,-6.5108628623147e-14,5.7865308725127e-13,-0.0013853377983643,0.0013853377936593,-0.001385337797904,0.001385337793674,-0.0013853377933712,0.0013853377986288,-0.0013853377929489,0.0013853377986018,-0.0012543224482909,0.0012543224632625,-0.001254322462513,0.0012543224490457,0.0035643502529432,0.0034096597153766,0.74364023682955,0.52708023173409,1368840,32768,0.0054947497699826,0.005494749770017,0.005494749770039,29.232529210519,29.230828008731,0.00014906023368415,0.00014906023368415,0.00014906023368415,469343.16141374,0.016621812781034
32811246,0.99996162734872,0.016075336884884,0.0053584456282615,0.0053584456283,0.0053584456283224,-0.0013217890054442,0.0013217890049688,7.0230793909219e-12,-7.5114276486884e-12,2.1969152386887e-14,-5.0877028094656e-13,-0.0013850065531121,0.0013850065575914,-0.0013850065578707,0.0013850065528236,-0.0013850065534236,0.0013850065575131,-0.0013850065581502,0.0013850065527756,-0.0012534096205066,0.0012534096339489,-0.0012534096345978,0.0012534096198283,3.0914058537908e-13,8.5089012353786e-13,1.1766643772404e-12,5.2228539748079e-13,-0.001321789004717,0.0013217890057126,-0.0013850065547659,0.0013850065559928,-0.0013850065549835,0.0013850065558212,-0.0013850065545603,0.0013850065562392,-0.0013850065547781,0.0013850065559645,-0.0012534096259898,0.0012534096286147,-0.0012534096266212,0.0012534096278757,-0.0012534096269799,0.0012534096275481,-0.0012534096265097,0.0012534096280556,-6.9946541416467e-12,7.5088594918497e-12,-0.0013217890049658,0.0013217890054745,-6.4973191584185e-14,5.8705741874001e-13,-0.0013850065578722,0.0013850065531722,-0.0013850065574109,0.0013850065531895,-0.0013850065528847,0.0013850065581349,-0.0013850065524615,0.0013850065581104,-0.0012534096197348,0.0012534096346876,-0.0012534096339266,0.0012534096204719,0.0035617255035446,0.0034096263001776,0.73497291194163,0.42519165966334,1368840,32768,0.0054921098684805,0.005492109868515,0.0054921098685371,29.207031153698,29.205325505647,0.00014885624922958,0.00014885624922958,0.00014885624922958,487092.02712731,0.016613763753177
32897646,0.99996302366015,0.016075359500438,0.0053584531667796,0.005358453166818,0.0053584531668405,-0.0013211094607361,0.0013211094602644,7.017612969682e-12,-7.5030946679612e-12,2.5593100501289e-14,-5.002040132284e-13,-0.0013846560945396,0.0013846560990103,-0.0013846560992961,0.0013846560942455,-0.0013846560948437,0.0013846560989368,-0.0013846560995655,0.001384656094205,-0.0012524334392014,0.0012524334526396,-0.0012524334532662,0.0012524334385407,3.0171934150475e-13,8.3856420596853e-13,1.1570767403351e-12,5.4461598000271e-13,-0.001321109460014,0.0013211094610032,-0.001384656096193,0.0013846560974058,-0.0013846560963943,0.0013846560972507,-0.001384656095995,0.0013846560976455,-0.001384656096199,0.0013846560973883,-0.0012524334447309,0.0012524334473244,-0.0012524334453245,0.0012524334466533,-0.0012524334457328,0.0012524334462514,-0.00125243344522,0.0012524334467454,-6.9908265526946e-12,7.4986620680799e-12,-0.0013211094602657,0.0013211094607624,-4.9626101603719e-14,5.6063846111514e-13,-0.0013846560992928,0.0013846560945937,-0.0013846560988482,0.0013846560945972,-0.0013846560943091,0.0013846560995613,-0.0013846560939021,0.0013846560995181,-0.0012524334384943,0.0012524334533981,-0.0012524334526755,0.0012524334392172,0.0035589233468379,0.0034095934422438,0.74081132705386,0.5403757262621,1368840,32768,0.0054892931245947,0.0054892931246292,0.0054892931246519,29.181529054424,29.179823002562,0.00014865223243539,0.00014865223243539,0.00014865223243539,506402.73273293,0.016605175436993
32984046,0.99996436721143,0.016075381342325,0.0053584604474086,0.005358460447447,0.0053584604474695,-0.00132172690924,0.0013217269087667,7.0201477745984e-12,-7.5056074735496e-12,2.2524194254268e-14,-5.0458376178303e-13,-0.0013849384111733,0.0013849384156485,-0.0013849384159289,0.0013849384108839,-0.0013849384114846,0.0013849384155728,-0.0013849384162074,0.0013849384108375,-0.0012533640605155,0.0012533640739528,-0.0012533640745822,0.0012533640598346,3.1141845696814e-13,8.4953334145721e-13,1.1486668207818e-12,5.505707098545e-13,-0.0013217269085143,0.0013217269095091,-0.0013849384128333,0.001384938414042,-0.001384938413034,0.0013849384138887,-0.00138493841263,0.0013849384142872,-0.0013849384128304,0.0013849384140311,-0.0012533640660202,0.0012533640685889,-0.0012533640666012,0.0012533640679202,-0.0012533640669782,0.0012533640675614,-0.0012533640665054,0.0012533640680619,-6.9967952527078e-12,7.497974794958e-12,-0.0013217269087715,0.0013217269092625,-4.7794275211817e-14,5.4818690032531e-13,-0.0013849384159301,0.0013849384112324,-0.0013849384154857,0.0013849384112319,-0.0013849384109458,0.0013849384161926,-0.0013849384105399,0.001384938416151,-0.0012533640597615,0.0012533640746756,-0.0012533640739455,0.001253364060479,0.0035613480962555,0.0034095611193511,0.74379417785519,0.60387955691498,1368840,32768,0.0054918529144562,0.0054918529144906,0.0054918529145127,29.156026464961,29.154320499477,0.00014844821171969,0.00014844821171969,0.00014844821171969,485789.07097153,0.016612978876863
33070446,0.99996566006641,0.016075402669514,0.0053584675564715,0.0053584675565099,0.0053584675565324,-0.0013220212150168,0.0013220212145494,6.9978765726154e-12,-7.4824892974411e-12,1.2629731817421e-14,-5.0297351685726e-13,-0.0013850612014544,0.0013850612059454,-0.001385061206193,0.0013850612011732,-0.001385061201752,0.001385061205862,-0.0013850612064975,0.0013850612011283,-0.0012538201804044,0.0012538201937157,-0.0012538201943492,0.0012538201797285,3.316884259698e-13,8.5820237074196e-13,1.1637317723226e-12,5.6149669960243e-13,-0.0013220212142921,0.0013220212152925,-0.0013850612031254,0.0013850612043254,-0.0013850612033163,0.001385061204168,-0.0013850612029277,0.0013850612045621,-0.0013850612031187,0.0013850612043128,-0.0012538201858833,0.0012538201884548,-0.001253820186478,0.0012538201877982,-0.0012538201866881,0.0012538201874258,-0.0012538201863018,0.0012538201880136,-6.9809077968822e-12,7.4686275150267e-12,-0.0013220212145538,0.0013220212150414,-4.4886099348711e-14,5.5534397579921e-13,-0.0013850612062261,0.0013850612015203,-0.0013850612057638,0.0013850612015154,-0.0013850612012119,0.0013850612064593,-0.0013850612008275,0.0013850612064306,-0.0012538201797639,0.0012538201945621,-0.0012538201938087,0.0012538201804664,0.0035624770835399,0.0034095293676676,0.75461062598584,0.79461241315617,1368840,32768,0.0054930730985085,0.0054930730985463,0.0054930730985684,29.130523301187,29.128817996392,0.0001482441864095,0.0001482441864095,0.0001482441864095,475086.40631068,0.016616698375764
33156846,0.9999669042056,0.016075423271884,0.0053584744239281,0.0053584744239666,0.0053584744239891,-0.0013229205199577,0.0013229205194884,7.0009194796567e-12,-7.482837345632e-12,1.7145240930541e-14,-4.9637930654115e-13,-0.0013854817850597,0.0013854817895219,-0.0013854817898021,0.0013854817847702,-0.0013854817853658,0.0013854817894498,-0.0013854817900742,0.0013854817847278,-0.0012551639870574,0.0012551640004678,-0.0012551640010898,0.0012551639863883,3.1780387954492e-13,8.4229456259693e-13,1.1561041524e-12,5.4051042895389e-13,-0.0013229205192341,0.0013229205202285,-0.0013854817867064,0.0013854817879277,-0.0013854817869134,0.0013854817877679,-0.0013854817865073,0.0013854817881682,-0.0013854817867149,0.0013854817879052,-0.0012551639925409,0.0012551639951007,-0.001255163993129,0.0012551639944232,-0.0012551639935001,0.0012551639940828,-0.0012551639930301,0.0012551639945774,-6.9739790085519e-12,7.4792003096821e-12,-0.0013229205194884,0.0013229205199848,-5.351995323746e-14,5.5987763141679e-13,-0.0013854817898038,0.0013854817851179,-0.0013854817893523,0.0013854817851245,-0.0013854817848321,0.0013854817900647,-0.0013854817844192,0.0013854817900299,-0.0012551639862871,0.0012551640011758,-0.0012551640004359,0.001255163987015,0.00356603170772,0.003409498142815,0.75740718679916,0.81612950431668,1368840,32768,0.0054968013257686,0.0054968013258029,0.0054968013258247,29.105020407814,29.103315493307,0.00014804016326251,0.00014804016326251,0.00014804016326251,446366.07137481,0.016628063998523
33243246,0.99996810152964,0.016075443185294,0.0053584810617315,0.00535848106177,0.0053584810617925,-0.0013229846351584,0.001322984634688,7.008397662968e-12,-7.4925488724809e-12,2.0348554836206e-14,-4.9764915010124e-13,-0.0013854852986915,0.001385485303157,-0.0013854853034388,0.0013854852984005,-0.0013854852989991,0.0013854853030856,-0.0013854853037127,0.0013854852983578,-0.0012552794087215,0.0012552794221401,-0.0012552794227737,0.001255279408055,3.1877117352417e-13,8.4773774925249e-13,1.1557838680668e-12,5.4494173475701e-13,-0.0013229846344328,0.0013229846354301,-0.0013854853003408,0.001385485301559,-0.0013854853005447,0.0013854853014024,-0.001385485300142,0.0013854853018016,-0.0013854853003458,0.0013854853015412,-0.0012552794142165,0.0012552794167954,-0.001255279414808,0.001255279416114,-0.0012552794151787,0.0012552794157758,-0.0012552794146988,0.0012552794162557,-6.9847720317737e-12,7.4856371130422e-12,-0.0013229846346901,0.0013229846351833,-5.2615186759808e-14,5.5605921865492e-13,-0.001385485303439,0.0013854852987475,-0.0013854853029906,0.0013854852987511,-0.0013854852984619,0.0013854853037003,-0.0013854852980519,0.0013854853036624,-0.0012552794079784,0.0012552794228668,-0.0012552794221392,0.0012552794086906,0.0035662568398032,0.0034094674416007,0.76041059058046,0.83764659547719,1368840,32768,0.0054970670732379,0.0054970670732722,0.0054970670732941,29.079517493042,29.077812990223,0.00014783613994434,0.00014783613994434,0.00014783613994434,442189.41106202,0.016628874347605
33329646,0.99996926184828,0.016075462565556,0.005358487521819,0.0053584875218575,0.0053584875218799,-0.0013232805735424,0.0013232805730527,6.9989741861429e-12,-7.4940255332523e-12,5.0394578127289e-14,-5.3927670193752e-13,-0.0013857186933244,0.0013857186977803,-0.0013857186980649,0.0013857186930322,-0.0013857186936565,0.0013857186976823,-0.0013857186983614,0.001385718692961,-0.0012556266831037,0.0012556266965086,-0.0012556266971361,0.0012556266823947,2.8255213293217e-13,8.8316431405408e-13,1.1671276391694e-12,5.4330796113826e-13,-0.0013232805727985,0.0013232805738133,-0.0013857186949642,0.0013857186961879,-0.0013857186951676,0.0013857186960292,-0.0013857186947389,0.0013857186964601,-0.0013857186949453,0.0013857186961974,-0.0012556266885525,0.0012556266911756,-0.0012556266891935,0.0012556266905127,-0.0012556266896095,0.0012556266901102,-0.0012556266890426,0.0012556266905933,-6.9756111939839e-12,7.4868916923627e-12,-0.001323280573062,0.0013232805735602,-5.691834941879e-14,5.6470680741819e-13,-0.0013857186980634,0.0013857186933831,-0.0013857186976059,0.0013857186933799,-0.0013857186930976,0.0013857186983275,-0.0013857186926774,0.0013857186982831,-0.0012556266823362,0.0012556266972597,-0.0012556266965328,0.0012556266831109,0.0035674471970149,0.0034094372999555,0.7636203834151,0.8591636866377,1368840,32768,0.0054982934619454,0.0054982934619799,0.0054982934620014,29.175277462634,29.181401543769,0.00014860221970107,0.00014860221970107,0.00014860221970107,437989.39821657,0.016632614490576
33416046,0.99997038818598,0.016075481462757,0.0053584938208858,0.0053584938209243,0.0053584938209467,-0.0013236381220206,0.0013236381215531,7.0806986306937e-12,-7.4565200907825e-12,-7.7672921263219e-15,-5.3326512088131e-13,-0.0013860188864593,0.0013860188913608,-0.0013860188911979,0.0013860188865369,-0.0013860188869251,0.0013860188906455,-0.0013860188916446,0.0013860188861015,-0.0012560307726411,0.0012560307867263,-0.0012560307864831,0.001256030772729,3.0289895252727e-13,8.3952200023799e-13,1.1282100633688e-12,5.0168590913396e-13,-0.0013236381212822,0.0013236381222657,-0.0013860188882174,0.0013860188894949,-0.0013860188883437,0.0013860188894008,-0.001386018887698,0.0013860188899301,-0.0013860188880992,0.0013860188893705,-0.0012560307783504,0.0012560307813146,-0.0012560307797272,0.0012560307805021,-0.0012560307796005,0.0012560307800749,-0.0012560307791037,0.0012560307800638,-6.8541059058871e-12,7.651965120071e-12,-0.0013236381213759,0.0013236381221563,9.0033043669964e-14,7.1358775920731e-13,-0.001386018891386,0.0013860188867721,-0.0013860188909323,0.0013860188868267,-0.0013860188865219,0.0013860188917535,-0.0013860188858211,0.0013860188918826,-0.0012560307718558,0.0012560307867258,-0.0012560307861597,0.0012560307733351,0.0035688979843544,0.0034094077200071,0.76701565776073,0.88068077779822,1368840,32768,0.0054997751332422,0.0054997751331888,0.0054997751331561,29.304095766726,29.312617756818,0.00014963276613381,0.00014963276613381,0.00014963276613381,433905.89438385,0.016637133326575
33502446,0.99997148136031,0.01607549988935,0.0053584999630834,0.0053584999631218,0.0053584999631443,-0.0013239975964459,0.0013239975958161,6.9446856093275e-12,-7.6083974510334e-12,-1.5912537412317e-13,-5.9450313245503e-13,-0.0013863215245459,0.0013863215286878,-0.0013863215293895,0.0013863215242398,-0.0013863215247607,0.0013863215289061,-0.0013863215294711,0.001386321524276,-0.0012564359846357,0.0012564359974892,-0.0012564359981604,0.0012564359832438,4.3809141072577e-13,8.8611910614015e-13,1.1897028906874e-12,5.5087323002449e-13,-0.0013239975955554,0.0013239975967014,-0.0013863215264075,0.0013863215275244,-0.0013863215270072,0.0013863215276999,-0.0013863215262154,0.0013863215277414,-0.0013863215259316,0.0013863215276178,-0.0012564359893091,0.0012564359922805,-0.0012564359910164,0.0012564359912703,-0.001256435989852,0.0012564359914435,-0.0012564359901589,0.0012564359919046,-6.9193129726794e-12,7.6040491721056e-12,-0.0013239975957753,0.0013239975963916,-1.4364267063854e-15,6.3522450609208e-13,-0.0013863215294535,0.0013863215244802,-0.0013863215289707,0.0013863215249063,-0.0013863215240047,0.0013863215295027,-0.0013863215239846,0.0013863215294122,-0.0012564359831549,0.001256435998259,-0.0012564359971376,0.0012564359843697,0.0035703588627915,0.0034093786918176,0.77056932935371,0.90219786895872,1368840,32768,0.0055012647686158,0.005501264768605,0.0055012647684189,29.435085014377,29.443833969866,0.00015068068011501,0.00015068068011501,0.00015068068011501,429870.44325723,0.016641676514818
33588846,0.9999725420493,0.016075517854652,0.0053585059515175,0.005358505951556,0.0053585059515785,-0.0013243550860019,0.0013243550854674,6.9974350566916e-12,-7.5422427661313e-12,-9.3356206855492e-14,-5.54201893042e-13,-0.0013866246157681,0.0013866246200461,-0.0013866246205551,0.0013866246154059,-0.0013866246160643,0.0013866246201387,-0.001386624620859,0.0013866246155787,-0.0012568367926966,0.0012568368057281,-0.0012568368060807,0.001256836792405,3.4410184086614e-13,8.1737744144494e-13,1.1725253860367e-12,4.972483682272e-13,-0.0013243550852414,0.0013243550862501,-0.0013866246175046,0.0013866246187896,-0.0013866246179755,0.0013866246185766,-0.001386624617361,0.0013866246189166,-0.0013866246177986,0.0013866246187502,-0.0012568367979129,0.001256836800193,-0.0012568367989178,0.0012568367995563,-0.0012568367983961,0.0012568367990566,-0.0012568367988637,0.0012568367998656,-7.0375553604557e-12,7.4716573048216e-12,-0.0013243550855521,0.0013243550859869,-9.6420701472579e-14,5.7679682042953e-13,-0.0013866246204814,0.0013866246159435,-0.0013866246201548,0.0013866246158716,-0.0013866246156915,0.001386624620681,-0.0013866246152506,0.0013866246207823,-0.0012568367918177,0.0012568368059847,-0.0012568368051526,0.0012568367925122,0.0035718128075254,0.0034093502046875,0.77425462121099,0.92371496011922,1368840,32768,0.0055027461737127,0.0055027461737589,0.0055027461738572,29.566277446349,29.575050182916,0.00015173021957079,0.00015173021957079,0.00015173021957079,425906.92457368,0.016646194641791
33675246,0.99997357091559,0.016075535333724,0.0053585117778747,0.0053585117779132,0.0053585117779357,-0.0013247101840918,0.0013247101836314,7.0065446607524e-12,-7.5197487474257e-12,-5.1955471619535e-15,-4.653296080293e-13,-0.0013869239738044,0.0013869239782888,-0.0013869239786207,0.0013869239736019,-0.0013869239741673,0.0013869239782628,-0.0013869239788899,0.0013869239735578,-0.001257235941285,0.0012572359544031,-0.0012572359551355,0.0012572359408898,3.0612197171331e-13,7.7711443615799e-13,1.1941896653843e-12,5.0260443989701e-13,-0.0013247101833783,0.0013247101843367,-0.0013869239755701,0.0013869239767928,-0.0013869239758162,0.0013869239766631,-0.0013869239753307,0.0013869239769194,-0.0013869239755998,0.0013869239766119,-0.0012572359466544,0.0012572359491463,-0.0012572359474845,0.0012572359483757,-0.0012572359476375,0.0012572359480191,-0.0012572359471311,0.0012572359484342,-6.9959846304129e-12,7.5000496727484e-12,-0.0013247101836073,0.0013247101841292,-6.2580499973389e-14,6.2652721296488e-13,-0.0013869239786051,0.0013869239739061,-0.0013869239781655,0.0013869239739805,-0.0013869239736254,0.0013869239788676,-0.0013869239732509,0.0013869239788671,-0.0012572359405168,0.0012572359550558,-0.0012572359542634,0.0012572359411984,0.0035732576069967,0.0034093222420366,0.77655584981301,0.9214247853644,1368840,32768,0.0055042176592741,0.0055042176592571,0.0055042176593018,29.697488908427,29.706266395966,0.00015277991126741,0.00015277991126741,0.00015277991126741,421974.08362029,0.016650682537948
33761646,0.99997456861756,0.016075552356144,0.0053585174520149,0.0053585174520533,0.0053585174520758,-0.0013249648174249,0.0013249648170091,7.0636874444914e-12,-7.4707888313529e-12,-6.0161691513386e-15,-4.3736040364577e-13,-0.0013871741971193,0.0013871742013762,-0.0013871742018463,0.0013871741968302,-0.0013871741972944,0.0013871742015546,-0.0013871742021343,0.0013871741967233,-0.0012574874995323,0.0012574875133866,-0.0012574875138783,0.0012574874991663,3.5867157224143e-13,8.0080530065364e-13,1.1865071353744e-12,4.9491291016208e-13,-0.001324964816713,0.001324964817692,-0.0013871741976162,0.0013871741987123,-0.0013871741979125,0.0013871741984993,-0.0013871741974096,0.0013871741989685,-0.0013871741975982,0.0013871741987098,-0.0012574875055545,0.0012574875083566,-0.0012574875064147,0.0012574875075261,-0.0012574875069357,0.0012574875076662,-0.0012574875066496,0.0012574875079359,-6.9803750484514e-12,7.5238256522909e-12,-0.0013249648169353,0.001324964817478,-5.2378017534577e-14,6.3704027415102e-13,-0.0013871742005281,0.001387174195855,-0.0013871742001401,0.0013871741960131,-0.0013871741956625,0.0013871742008206,-0.0013871741951254,0.0013871742008797,-0.0012574874998197,0.0012574875148454,-0.0012574875142322,0.001257487500679,0.0035743011071302,0.0034092947966428,0.77985723592546,0.93956178836621,1368840,32768,0.0055052726624517,0.0055052726623899,0.0055052726624072,29.828703191265,29.837482609015,0.00015382962553012,0.00015382962553012,0.00015382962553012,420988.05232303,0.016653900736686
33848046,0.99997553580949,0.016075568734597,0.0053585229114991,0.0053585229115376,0.0053585229115601,-0.0013253004483627,0.0013253004479083,7.0394601846175e-12,-7.4940471208281e-12,-2.0192324314823e-14,-4.4145657262826e-13,-0.001387466866933,0.0013874668714199,-0.0013874668717184,0.0013874668666415,-0.0013874668671891,0.0013874668714178,-0.0013874668719723,0.0013874668666321,-0.0012578561395928,0.0012578561530395,-0.001257856153533,0.0012578561388121,3.5978950867748e-13,7.9172046054221e-13,1.1982938635332e-12,4.903439026833e-13,-0.0013253004476546,0.0013253004486369,-0.001387466868466,0.0013874668697706,-0.001387466868739,0.0013874668695846,-0.0013874668682986,0.0013874668699712,-0.0013874668685494,0.0013874668696868,-0.0012578561449319,0.0012578561475468,-0.001257856145584,0.0012578561468439,-0.0012578561460331,0.0012578561465553,-0.0012578561457858,0.0012578561469465,-6.9709239842338e-12,7.5322407775675e-12,-0.0013253004478837,0.0013253004484209,-6.869416614626e-14,6.3677316466398e-13,-0.001387466871626,0.0013874668668951,-0.0013874668711377,0.0013874668669236,-0.0013874668666595,0.0013874668718989,-0.001387466866174,0.0013874668718933,-0.0012578561386024,0.0012578561536954,-0.0012578561528258,0.0012578561395317,0.0035756661593239,0.0034092678219814,0.77396538246163,0.82632619707317,1368840,32768,0.0055066634763325,0.0055066634763747,0.0055066634764019,29.959911023328,29.968698822064,0.00015487928818663,0.00015487928818663,0.00015487928818663,417708.71218143,0.016658142622883
33934446,0.99997647314235,0.016075584542541,0.0053585281808139,0.0053585281808524,0.0053585281808749,-0.0013250755346942,0.0013250755342392,7.0584657216585e-12,-7.5373826204877e-12,2.6588599501242e-15,-4.4396696652569e-13,-0.0013874783421493,0.0013874783465677,-0.001387478346845,0.0013874783417516,-0.0013874783423365,0.0013874783464168,-0.0013874783471861,0.0013874783417437,-0.0012574104820305,0.0012574104956416,-0.0012574104963574,0.0012574104812512,3.662166946843e-13,8.2356554652022e-13,1.2055439949879e-12,4.9944877159463e-13,-0.0013250755339659,0.0013250755349702,-0.0013874783438134,0.0013874783449397,-0.0013874783439975,0.0013874783447922,-0.0013874783435172,0.0013874783452081,-0.0013874783439179,0.0013874783447744,-0.0012574104876347,0.0012574104904514,-0.0012574104881752,0.0012574104895119,-0.0012574104885394,0.0012574104891387,-0.0012574104879642,0.0012574104898364,-7.0393770695096e-12,7.5260360259419e-12,-0.0013250755342373,0.0013250755347326,-8.9290360476073e-14,6.1415735556142e-13,-0.0013874783468899,0.0013874783420331,-0.0013874783464215,0.001387478342238,-0.001387478341921,0.0013874783471519,-0.0013874783413849,0.001387478347095,-0.0012574104814539,0.0012574104965488,-0.0012574104957839,0.0012574104821403,0.0035747820005765,0.0034092413176854,0.77074639154297,0.77995388491368,1368840,32768,0.0055057305792092,0.0055057305792146,0.0055057305792848,30.091121129987,30.099915035113,0.00015592896903989,0.00015592896903989,0.00015592896903989,431028.6644383,0.016655300047997
34020846,0.99997738126289,0.016075599811815,0.005358533270572,0.0053585332706105,0.005358533270633,-0.0013251120051927,0.0013251120048584,7.1207594656862e-12,-7.4940911783057e-12,6.8823662190245e-14,-3.9220713598828e-13,-0.0013876295484977,0.0013876295531062,-0.001387629553323,0.0013876295483045,-0.001387629548504,0.0013876295529656,-0.0013876295534756,0.0013876295482519,-0.0012573417174953,0.0012573417312909,-0.0012573417314608,0.0012573417166897,2.7345676373063e-13,7.4555040041762e-13,1.1125761586209e-12,4.2519712816666e-13,-0.0013251120046063,0.0013251120054355,-0.0013876295502809,0.0013876295513397,-0.0013876295503575,0.0013876295511148,-0.0013876295500205,0.0013876295515401,-0.0013876295502361,0.0013876295512118,-0.001257341723388,0.0012573417252545,-0.0012573417237137,0.0012573417243021,-0.0012573417239986,0.0012573417245808,-0.0012573417237419,0.0012573417248089,-6.9999985077917e-12,7.5842531003915e-12,-0.0013251120047485,0.0013251120052971,-5.8257455568839e-14,6.2672158937976e-13,-0.0013876295532265,0.0013876295484507,-0.0013876295527279,0.0013876295485647,-0.0013876295482927,0.0013876295534673,-0.0013876295478532,0.0013876295534773,-0.0012573417163345,0.0012573417318461,-0.0012573417306197,0.0012573417174437,0.0035749317414877,0.003409215276776,0.76856573479324,0.75659696130905,1368840,32768,0.005505881392969,0.0055058813929498,0.0055058813929574,30.222332311475,30.231131248162,0.0001569786584918,0.0001569786584918,0.0001569786584918,437081.21169301,0.01665576095492
34107246,0.99997826662399,0.016075614651714,0.0053585382172049,0.0053585382172434,0.0053585382172659,-0.0013254731338231,0.0013254731334627,7.105370112291e-12,-7.5040307570113e-12,5.7874173160207e-14,-3.808883053002e-13,-0.001388052387579,0.0013880523924472,-0.0013880523924776,0.0013880523876521,-0.0013880523874467,0.0013880523920998,-0.0013880523922432,0.0013880523874957,-0.0012576468486559,0.0012576468620252,-0.0012576468617854,0.0012576468477348,4.1876347176927e-13,8.6771525660041e-13,1.261693014968e-12,6.1411079816019e-13,-0.0013254731330233,0.001325473134261,-0.001388052389231,0.0013880523904742,-0.001388052388972,0.0013880523905729,-0.0013880523893723,0.0013880523908555,-0.0013880523892784,0.0013880523902888,-0.0012576468538815,0.0012576468570985,-0.001257646853262,0.0012576468564639,-0.0012576468543932,0.0012576468560577,-0.0012576468547632,0.0012576468560678,-6.9240687097479e-12,7.6552858127438e-12,-0.0013254731333024,0.001325473133932,1.2044220292632e-14,6.571406012763e-13,-0.0013880523921937,0.0013880523875181,-0.0013880523915009,0.0013880523879959,-0.0013880523873706,0.001388052392235,-0.001388052386404,0.0013880523924949,-0.0012576468481343,0.0012576468631113,-0.0012576468622216,0.0012576468489044,0.0035764140223375,0.0034091897217066,0.76621033637204,0.73324003770441,1368840,32768,0.0055073777302337,0.0055073777302304,0.0055073777301269,30.470490091531,30.486877605341,0.00015896392073225,0.00015896392073225,0.00015896392073225,440217.42812735,0.016660324987926
34193646,0.99997913065248,0.016075629062909,0.0053585430209366,0.0053585430209751,0.0053585430209976,-0.0013258872709909,0.0013258872705401,7.0554346966072e-12,-7.5246175986857e-12,2.7038938684866e-14,-4.8321935562744e-13,-0.0013885323953308,0.001388532399822,-0.0013885324001649,0.0013885323950956,-0.0013885323955056,0.0013885323996228,-0.0013885324004146,0.0013885323948222,-0.001258002528277,0.0012580025418246,-0.0012580025423707,0.0012580025280161,3.1566879771138e-13,8.3578482028862e-13,1.180610139053e-12,5.6750757479785e-13,-0.0013258872702274,0.0013258872713132,-0.001388532396866,0.0013885323984749,-0.0013885323971263,0.0013885323980768,-0.0013885323967039,0.0013885323986387,-0.0013885323969078,0.0013885323982563,-0.00125800253438,0.001258002536294,-0.0012580025339484,0.001258002535706,-0.0012580025343683,0.0012580025352263,-0.0012580025342668,0.0012580025356376,-7.0302698771398e-12,7.5189624773281e-12,-0.0013258872705445,0.0013258872710064,-7.6950119814895e-14,5.3422179753785e-13,-0.0013885323999604,0.0013885323953285,-0.0013885323995789,0.0013885323953671,-0.0013885323950492,0.0013885324002449,-0.0013885323945172,0.0013885324002976,-0.0012580025277226,0.0012580025422618,-0.0012580025418557,0.0012580025284283,0.0035781194113926,0.0034091646435289,0.76246472579011,0.69146941796643,1368840,32768,0.0055090937144837,0.0055090937145035,0.0055090937145247,30.746913040915,30.765406237305,0.00016117530432732,0.00016117530432732,0.00016117530432732,443500.85257369,0.016665559011991
34280046,0.99997997338152,0.016075642979233,0.0053585476597113,0.0053585476597497,0.0053585476597722,-0.0013262132512102,0.00132621325075,7.0701294241639e-12,-7.5588381415069e-12,3.4709174952648e-14,-5.1534596241695e-13,-0.0013889696810832,0.0013889696855271,-0.0013889696861546,0.0013889696807812,-0.0013889696818214,0.0013889696858988,-0.0013889696863004,0.0013889696814472,-0.0012582294209004,0.0012582294344977,-0.0012582294339149,0.0012582294201459,1.7380892555075e-13,7.3386016931086e-13,1.0571974974598e-12,6.2389514631389e-13,-0.0013262132505198,0.0013262132514455,-0.0013889696833875,0.0013889696843457,-0.0013889696835881,0.0013889696839907,-0.0013889696828831,0.0013889696845125,-0.0013889696829337,0.0013889696844431,-0.0012582294262251,0.0012582294283724,-0.0012582294260109,0.0012582294282048,-0.0012582294268103,0.001258229427046,-0.0012582294266885,0.0012582294281343,-7.027517078883e-12,7.5710272397265e-12,-0.0013262132507053,0.0013262132511384,3.2184781482901e-14,4.6372403943126e-13,-0.0013889696865477,0.0013889696813636,-0.0013889696857877,0.001388969681285,-0.0013889696813072,0.0013889696864227,-0.0013889696806279,0.0013889696866368,-0.0012582294188964,0.0012582294340798,-0.0012582294332744,0.0012582294204654,0.0035794717712878,0.0034091400177311,0.75488871950663,0.59769581902884,1368840,32768,0.0055104442421912,0.0055104442422019,0.0055104442419503,31.02522378721,31.043934869269,0.00016340179029768,0.00016340179029768,0.00016340179029768,449569.21169438,0.016669678861022
34366446,0.99998079477738,0.016075656579401,0.0053585521931004,0.0053585521931389,0.0053585521931613,-0.001326261097655,0.0013262610972161,7.0417829960102e-12,-7.4994796019283e-12,5.0619983006031e-14,-4.7724006770235e-13,-0.001389265550219,0.0013892655546725,-0.0013892655547973,0.0013892655498051,-0.0013892655504597,0.0013892655546992,-0.0013892655553164,0.0013892655499606,-0.0012580535584501,0.0012580535711337,-0.0012580535721086,0.0012580535568881,2.4507674836768e-13,7.8285679014479e-13,1.022204742935e-12,7.2778223734045e-13,-0.0013262610969694,0.0013262610979872,-0.0013892655522431,0.0013892655531649,-0.0013892655519714,0.0013892655531278,-0.0013892655513427,0.0013892655534196,-0.0013892655515422,0.001389265552825,-0.0012580535637679,0.0012580535657059,-0.0012580535633502,0.001258053565611,-0.0012580535647159,0.001258053564892,-0.0012580535643488,0.001258053565119,-7.1080249135415e-12,7.402660030288e-12,-0.0013262610973367,0.0013262610975747,1.1137159767414e-14,3.0541293455038e-13,-0.0013892655550827,0.001389265549987,-0.0013892655548674,0.0013892655500676,-0.0013892655503714,0.0013892655553737,-0.0013892655501108,0.0013892655549702,-0.001258053557247,0.001258053571927,-0.001258053571053,0.0012580535576423,0.0035797031138956,0.0034091158642103,0.75698737642494,0.65349932867102,1368840,32768,0.0055106418165672,0.0055106418167444,0.0055106418166506,31.303716398564,31.322463501234,0.00016562973118851,0.00016562973118851,0.00016562973118851,464075.62227274,0.016670283417589
34452846,0.99998159482093,0.016075669868104,0.0053585566226683,0.0053585566227068,0.0053585566227292,-0.0013270739329465,0.0013270739325788,7.0553138767687e-12,-7.4081686267101e-12,6.9281530555622e-14,-4.7210269523378e-13,-0.0013899562828993,0.0013899562873224,-0.0013899562874789,0.0013899562828772,-0.0013899562826324,0.001389956286884,-0.0013899562879149,0.0013899562819087,-0.0012589854573016,0.0012589854699511,-0.0012589854712728,0.0012589854563867,3.532777370194e-13,9.0556427680942e-13,1.0058505660733e-12,7.0568329480092e-13,-0.001327073932264,0.0013270739333514,-0.001389956284329,0.0013899562855231,-0.0013899562841869,0.0013899562858858,-0.0013899562840779,0.0013899562858251,-0.0013899562841531,0.0013899562858752,-0.0012589854624894,0.0012589854651781,-0.0012589854621888,0.0012589854641761,-0.001258985462816,0.0012589854637357,-0.0012589854633264,0.0012589854637172,-6.615081090284e-12,7.8173617143774e-12,-0.0013270739322927,0.0013270739334027,4.239049617591e-13,7.2220605474783e-13,-0.0013899562871526,0.0013899562832358,-0.0013899562868987,0.0013899562830251,-0.0013899562824548,0.0013899562878798,-0.0013899562822851,0.0013899562881365,-0.0012589854557824,0.001258985471578,-0.0012589854704428,0.0012589854571469,0.0035830105504618,0.003409092172047,0.75957014082506,0.70930283831315,1368840,32768,0.0055140105967277,0.0055140105969144,0.0055140105970803,31.582227841092,31.600992133198,0.00016785782272874,0.00016785782272874,0.00016785782272874,455795.08580277,0.016680556592885
34539246,0.99998237351511,0.016075682858293,0.0053585609527312,0.0053585609527696,0.0053585609527921,-0.0013278818768502,0.0013278818763745,6.9711292132583e-12,-7.4596047612538e-12,3.1178812214571e-14,-5.1608993968895e-13,-0.0013906249117581,0.0013906249162136,-0.0013906249165077,0.0013906249114776,-0.0013906249120716,0.0013906249161238,-0.0013906249167932,0.0013906249114024,-0.0012599245727041,0.0012599245859567,-0.0012599245866459,0.001259924572021,3.1844494819601e-13,8.7675268639549e-13,1.049923866723e-12,6.6240623453246e-13,-0.0013278818761177,0.0013278818771262,-0.0013906249134505,0.0013906249145954,-0.0013906249135915,0.0013906249145033,-0.0013906249132435,0.0013906249148407,-0.001390624913364,0.0013906249146688,-0.0012599245781341,0.0012599245806229,-0.0012599245785688,0.0012599245800802,-0.0012599245790697,0.0012599245796762,-0.0012599245784747,0.0012599245802552,-6.9815944817868e-12,7.4183702268229e-12,-0.001327881876416,0.0013278818768369,1.6059391749547e-14,4.023200035177e-13,-0.0013906249165007,0.0013906249118254,-0.0013906249161404,0.0013906249117693,-0.0013906249115424,0.0013906249167658,-0.0013906249112181,0.0013906249166459,-0.00125992457201,0.0012599245865737,-0.0012599245860173,0.0012599245725341,0.0035863018648412,0.0034090689333061,0.76279771609152,0.7651063479553,1368840,32768,0.0055173590221436,0.0055173590221833,0.0055173590222021,31.860742730269,31.879520765163,0.00017008594184215,0.00017008594184215,0.00017008594184215,447354.09314921,0.016690767900646
34625646,0.99998313088558,0.016075695562054,0.0053585651873182,0.0053585651873567,0.0053585651873792,-0.0013286842406236,0.0013286842401621,6.9310088506725e-12,-7.390258644436e-12,1.8976126174724e-14,-4.910217055063e-13,-0.0013912942225504,0.0013912942270056,-0.0013912942272254,0.001391294222263,-0.0013912942228565,0.0013912942268852,-0.0013912942274486,0.0013912942222107,-0.0012608511306633,0.001260851143871,-0.0012608511444752,0.0012608511300766,2.909881693347e-13,8.1196701849435e-13,1.0560127395357e-12,5.8111942367109e-13,-0.0013286842399114,0.0013286842408788,-0.0013912942242088,0.0013912942253841,-0.0013912942242933,0.0013912942252455,-0.0013912942239779,0.001391294225596,-0.0013912942241304,0.0013912942253782,-0.0012608511360934,0.0012608511383383,-0.0012608511366067,0.0012608511380668,-0.0012608511368792,0.0012608511376583,-0.0012608511365061,0.0012608511380442,-6.9336174768631e-12,7.3570467472719e-12,-0.0013286842401847,0.0013286842406216,-4.4977537731802e-14,4.2814850859225e-13,-0.0013912942272518,0.001391294222611,-0.0013912942267631,0.0013912942225695,-0.0013912942223137,0.0013912942275335,-0.0013912942219498,0.0013912942274382,-0.0012608511299044,0.0012608511444138,-0.0012608511438569,0.0012608511306097,0.0035895767400093,0.0034090461399016,0.76691552588073,0.82090985759746,1368840,32768,0.0055206842643353,0.0055206842643445,0.0055206842643779,32.139260115236,32.158049397127,0.00017231408092189,0.00017231408092189,0.00017231408092189,439053.16864731,0.016700908795682
34712046,0.99998387020134,0.016075708045618,0.005358569348506,0.0053585693485445,0.005358569348567,-0.0013296336501986,0.0013296336502112,7.256009686826e-12,-7.3179836759161e-12,2.0955995102852e-13,-3.2683625067101e-13,-0.0013921119108644,0.00139211191563,-0.0013921119157852,0.0013921119110066,-0.0013921119111542,0.0013921119158622,-0.0013921119160337,0.0013921119115246,-0.0012619201771804,0.0012619201896097,-0.0012619201892785,0.0012619201776864,3.3831595879733e-13,8.8615610500986e-13,1.0181302203501e-12,5.1765995054973e-13,-0.0013296336497962,0.0013296336506397,-0.001392111913293,0.0013921119136966,-0.0013921119130139,0.0013921119132965,-0.0013921119125536,0.0013921119137146,-0.0013921119135814,0.0013921119137057,-0.0012619201839536,0.0012619201862424,-0.0012619201831357,0.0012619201850924,-0.0012619201831327,0.0012619201848865,-0.0012619201820009,0.0012619201859647,-7.0852907257024e-12,7.458346505575e-12,-0.001329633649978,0.0013296336503227,-9.512388814816e-14,4.0284369340169e-13,-0.0013921119157441,0.001392111910586,-0.0013921119153708,0.0013921119110198,-0.001392111910614,0.0013921119157327,-0.0013921119106055,0.0013921119155685,-0.0012619201773349,0.0012619201907134,-0.0012619201909711,0.0012619201790268,0.0035934705680844,0.0034090238016678,0.77195982461158,0.87671336723959,1368840,32768,0.0055246187592802,0.0055246187593346,0.0055246187590542,32.496756697424,32.520707343312,0.00017517405357939,0.00017517405357939,0.00017517405357939,430754.15478286,0.016712908261652
34798446,0.9999845945349,0.016075720369061,0.0053585734563204,0.0053585734563589,0.0053585734563814,-0.0013307387440611,0.0013307387435263,6.9890737238893e-12,-7.5472719066121e-12,2.5601394365564e-14,-6.514362167178e-13,-0.0013930818517017,0.0013930818560259,-0.0013930818564283,0.0013930818512836,-0.001393081851969,0.0013930818560294,-0.0013930818566484,0.0013930818513777,-0.0012631443224158,0.001263144335873,-0.0012631443371182,0.0012631443222652,2.4713962652464e-13,9.3461450699188e-13,1.0414187736066e-12,6.7334637090704e-13,-0.0013307387433081,0.0013307387443007,-0.0013930818534104,0.0013930818544429,-0.0013930818534508,0.001393081854295,-0.0013930818532548,0.001393081854664,-0.0013930818533486,0.0013930818544511,-0.001263144328226,0.0012631443307578,-0.0012631443286717,0.0012631443298829,-0.0012631443288017,0.0012631443293765,-0.0012631443283908,0.0012631443304511,-7.0511897086416e-12,7.454974432119e-12,-0.0013307387436056,0.0013307387440154,6.039930190161e-14,4.2748167602235e-13,-0.001393081856317,0.0013930818516086,-0.0013930818560958,0.0013930818515768,-0.001393081851359,0.0013930818566035,-0.0013930818510078,0.0013930818563981,-0.001263144322137,0.0012631443364052,-0.0012631443364521,0.0012631443222082,0.0035980201440706,0.0034090019270367,0.77775115109942,0.93251687688179,1368840,32768,0.0055291982737377,0.0055291982737821,0.0055291982738072,32.93807921654,32.967693086751,0.00017870463373232,0.00017870463373232,0.00017870463373232,422422.68892399,0.0167268754837
34884846,0.99998530351687,0.016075732354837,0.0053585774515792,0.0053585774516176,0.0053585774516401,-0.001331846078151,0.0013318460776543,6.9645835896932e-12,-7.4684401383979e-12,5.1499838479991e-14,-5.1913237615637e-13,-0.0013940625552047,0.0013940625595878,-0.0013940625597971,0.0013940625549009,-0.0013940625554017,0.0013940625593579,-0.0013940625601764,0.0013940625548075,-0.0012643616657528,0.0012643616792044,-0.0012643616802131,0.0012643616653522,2.9664155545116e-13,8.7779630157259e-13,1.1301777091409e-12,6.8922906217231e-13,-0.0013318460773674,0.0013318460784347,-0.0013940625566804,0.0013940625578769,-0.0013940625568355,0.0013940625577871,-0.0013940625565114,0.001394062558212,-0.0013940625566247,0.0013940625579355,-0.0012643616714129,0.0012643616739439,-0.0012643616713578,0.0012643616730784,-0.0012643616724506,0.0012643616726619,-0.0012643616718504,0.0012643616734583,-6.9891214283143e-12,7.4139051867562e-12,-0.001331846077671,0.0013318460781291,7.3729306443827e-14,5.1334093543385e-13,-0.0013940625598981,0.0013940625550505,-0.0013940625594163,0.0013940625551042,-0.0013940625550433,0.001394062560072,-0.0013940625544457,0.0013940625599648,-0.0012643616651052,0.0012643616795095,-0.0012643616793713,0.0012643616653914,0.0036025869344139,0.0034089804727516,0.77268785388391,0.82407243808786,1368840,32768,0.0055337869955707,0.005533786995564,0.00553378699556,33.384481073479,33.414678830189,0.00018227584858783,0.00018227584858783,0.00018227584858783,414309.45071212,0.016740871210814
34971246,0.99998599661123,0.016075744002275,0.0053585813340587,0.0053585813340971,0.0053585813341196,-0.0013322603173797,0.0013322603170085,6.9999055694545e-12,-7.3773540386628e-12,1.1543576763418e-13,-3.5473710420144e-13,-0.0013946954402288,0.001394695444418,-0.0013946954450136,0.0013946954397815,-0.0013946954404518,0.0013946954442421,-0.001394695444802,0.0013946954395651,-0.0012645706094067,0.0012645706215554,-0.0012645706233934,0.0012645706087804,3.2374728621322e-13,8.0538863122427e-13,9.7230241447571e-13,5.4678509020847e-13,-0.0013322603167352,0.0013322603176473,-0.0013946954415696,0.0013946954426144,-0.0013946954419648,0.0013946954426865,-0.001394695441544,0.001394695442962,-0.0013946954415485,0.0013946954429145,-0.0012645706145676,0.0012645706168729,-0.0012645706154426,0.0012645706165637,-0.0012645706155777,0.0012645706161058,-0.0012645706137267,0.0012645706165063,-7.0422538051567e-12,7.3041388341606e-12,-0.0013322603170406,0.0013322603174142,2.6016852261846e-16,4.2406180990868e-13,-0.0013946954444455,0.0013946954401901,-0.001394695444392,0.0013946954401336,-0.0013946954397305,0.0013946954451622,-0.0013946954396776,0.0013946954446669,-0.0012645706091344,0.0012645706227478,-0.0012645706223334,0.00126457060843,0.0036043748317768,0.003408959425254,0.76797218918765,0.75387986797073,1368840,32768,0.0055355025570186,0.0055355025570066,0.0055355025571569,33.831360819343,33.861664573627,0.00018585088655474,0.00018585088655474,0.00018585088655474,426638.58340461,0.016746106834464
35057646,0.99998667329886,0.016075755322174,0.0053585851073583,0.0053585851073968,0.0053585851074193,-0.0013328027272372,0.0013328027267908,6.9943766795347e-12,-7.5038935847313e-12,-4.6202823829564e-14,-3.7611333352525e-13,-0.0013954038618421,0.0013954038662857,-0.0013954038666634,0.0013954038615247,-0.0013954038620232,0.0013954038658592,-0.0013954038667767,0.0013954038612935,-0.001264961779784,0.0012649617924579,-0.0012649617938907,0.0012649617792122,3.1891558087733e-13,6.6103327647539e-13,8.8790878676075e-13,4.9682952808131e-13,-0.001332802726643,0.0013328027274047,-0.0013954038636858,0.0013954038645706,-0.0013954038636941,0.0013954038642563,-0.0013954038633474,0.0013954038646614,-0.0013954038633422,0.0013954038644207,-0.0012649617853306,0.0012649617876044,-0.0012649617861007,0.0012649617867041,-0.0012649617851508,0.0012649617867009,-0.0012649617858136,0.0012649617878679,-7.0566064255175e-12,7.4107034316265e-12,-0.0013328027268133,0.0013328027272018,-7.6022383450722e-15,3.8271724942721e-13,-0.0013954038666163,0.0013954038618598,-0.0013954038661428,0.0013954038615827,-0.0013954038615924,0.0013954038668914,-0.0013954038611757,0.0013954038667781,-0.0012649617798671,0.0012649617937638,-0.0012649617933885,0.0012649617795615,0.0036066593164762,0.0034089387738764,0.76459031747566,0.71545874343097,1368840,32768,0.0055377496088172,0.005537749608858,0.0055377496087906,34.278292937054,34.308650317066,0.00018942634349643,0.00018942634349643,0.00018942634349643,435773.96430532,0.016752962434212
35144046,0.99998733309583,0.016075766305558,0.0053585887684861,0.0053585887685246,0.005358588768547,-0.0013334764115554,0.0013334764110559,7.0305841616563e-12,-7.513232064153e-12,-2.6545659636555e-14,-4.0469763676499e-13,-0.0013961785314279,0.0013961785357799,-0.00139617853638,0.0013961785309498,-0.0013961785314468,0.0013961785354865,-0.0013961785364276,0.001396178530824,-0.0012655455590437,0.0012655455725348,-0.0012655455736941,0.0012655455588316,2.7979104081105e-13,6.7009229384627e-13,8.9662563811399e-13,4.5362290683746e-13,-0.0013334764109263,0.0013334764116778,-0.0013961785331758,0.0013961785340777,-0.0013961785333528,0.0013961785336424,-0.0013961785329152,0.0013961785339863,-0.0013961785327294,0.0013961785341351,-0.0012655455648946,0.0012655455674148,-0.0012655455664015,0.0012655455672322,-0.0012655455657431,0.0012655455660999,-0.0012655455660866,0.0012655455668632,-6.8757084224156e-12,7.6375915591734e-12,-0.0013334764109641,0.0013334764116846,1.5052219576789e-13,5.9177542166708e-13,-0.0013961785358926,0.0013961785313781,-0.0013961785358959,0.0013961785312026,-0.0013961785308343,0.001396178536711,-0.0013961785302947,0.0013961785367899,-0.0012655455588851,0.0012655455737159,-0.0012655455729442,0.0012655455594688,0.0036094650739396,0.0034089185056075,0.76093437178284,0.67703761889121,1368840,32768,0.0055405408864096,0.0055405408863947,0.0055405408864871,34.725230973135,34.755636060504,0.00019300184778508,0.00019300184778508,0.00019300184778508,441174.48573097,0.01676147726501
35230446,0.99998797555713,0.016075776945878,0.0053585923152596,0.005358592315298,0.0053585923153205,-0.0013341436146097,0.0013341436142912,7.0381304017121e-12,-7.3494214213969e-12,1.6484319944753e-14,-3.471062784944e-13,-0.001396949228644,0.001396949233011,-0.0013969492329726,0.0013969492279757,-0.0013969492284134,0.0013969492327854,-0.0013969492332028,0.0013969492279272,-0.0012661214076486,0.0012661214212903,-0.0012661214222766,0.0012661214071541,4.1880155884103e-13,7.9401374342517e-13,1.0686544415757e-12,7.4937466594187e-13,-0.0013341436139108,0.0013341436149813,-0.0013969492299798,0.0013969492312204,-0.0013969492301758,0.0013969492311183,-0.0013969492297974,0.0013969492314905,-0.0013969492300939,0.0013969492311671,-0.001266121413513,0.0012661214147145,-0.0012661214136861,0.0012661214158747,-0.0012661214131145,0.0012661214146513,-0.0012661214133063,0.0012661214151101,-7.0475113504247e-12,7.3096506363671e-12,-0.0013341436143637,0.0013341436146128,-7.4310171051753e-14,2.4379040531164e-13,-0.0013969492334875,0.0013969492283407,-0.0013969492329424,0.0013969492281209,-0.0013969492281124,0.0013969492334775,-0.0013969492281696,0.0013969492334304,-0.0012661214068784,0.0012661214211223,-0.0012661214209051,0.0012661214066617,0.0036122433296597,0.0034088986082906,0.75709948914877,0.63861649435144,1368840,32768,0.005543305305227,0.0055433053052087,0.0055433053053837,35.172170326337,35.202621803943,0.0001965773626107,0.0001965773626107,0.0001965773626107,446824.88767802,0.016769910208359
35316846,0.99998859945582,0.016075787224188,0.0053585957413629,0.0053585957414014,0.0053585957414239,-0.0013347571090991,0.0013347571089154,7.2123476677295e-12,-7.4338743120073e-12,-5.6551566506109e-14,-1.6492354993405e-13,-0.0013976710419079,0.0013976710469057,-0.0013976710465794,0.0013976710416144,-0.001397671041795,0.0013976710462031,-0.0013976710468454,0.0013976710418634,-0.0012666401437874,0.0012666401577364,-0.0012666401587631,0.0012666401446746,3.3885488351002e-13,4.5801206686928e-13,8.593451299491e-13,6.4980029610582e-13,-0.0013347571086451,0.0013347571093434,-0.0013976710439163,0.0013976710444347,-0.001397671044014,0.0013976710442832,-0.0013976710434625,0.0013976710444524,-0.0013976710434497,0.0013976710442929,-0.0012666401497441,0.0012666401517139,-0.0012666401499033,0.0012666401524056,-0.001266640149979,0.0012666401515128,-0.0012666401501335,0.00126664015207,-7.1039919779214e-12,7.5116888171805e-12,-0.0013347571087453,0.0013347571092288,1.9826467844429e-13,4.0881374631479e-13,-0.0013976710467732,0.0013976710418436,-0.0013976710458518,0.0013976710414766,-0.001397671041624,0.0013976710470559,-0.0013976710411789,0.0013976710470442,-0.0012666401442069,0.0012666401579385,-0.0012666401587521,0.0012666401441009,0.0036147984666796,0.0034088790658288,0.75314282009079,0.60019536981169,1368840,32768,0.0055458471665839,0.00554584716653,0.0055458471665002,35.59456497111,35.62344328494,0.00019995651976888,0.00019995651976888,0.00019995651976888,452745.2030999,0.016777664357846
35403246,0.99998920011392,0.016075797066105,0.0053585990220018,0.0053585990220402,0.0053585990220627,-0.0013350999516846,0.0013350999513087,7.1051635303666e-12,-7.5328653467226e-12,-1.5951112704456e-13,-2.9818124370886e-13,-0.0013981277677783,0.0013981277719461,-0.0013981277725331,0.0013981277674411,-0.0013981277678739,0.0013981277719808,-0.0013981277725833,0.001398127767383,-0.00126688438509,0.001266884397517,-0.0012668843990054,0.001266884384444,4.5001092894561e-13,5.9934098466197e-13,7.9571686786648e-13,6.892654728247e-13,-0.0013350999511023,0.0013350999518667,-0.0013981277690728,0.0013981277703753,-0.001398127769464,0.0013981277703646,-0.0013981277692414,0.0013981277704942,-0.0013981277690765,0.0013981277699402,-0.0012668843914102,0.0012668843922555,-0.0012668843911089,0.0012668843918179,-0.0012668843907659,0.0012668843931014,-0.0012668843902934,0.001266884393354,-7.2056766362308e-12,7.4013892455802e-12,-0.001335099951337,0.0013350999515867,1.0035852235132e-13,2.06900738148e-13,-0.0013981277723893,0.0013981277673123,-0.0013981277718876,0.0013981277674994,-0.0013981277670864,0.0013981277725188,-0.0013981277668441,0.0013981277724514,-0.001266884385534,0.0012668843992323,-0.0012668843985188,0.0012668843848932,0.0036162280960842,0.0034088598440234,0.74910655146977,0.56177424527193,1368840,32768,0.0055472675241968,0.0055472675241466,0.0055472675240526,35.880119826279,35.899950813339,0.00020224095861023,0.00020224095861023,0.00020224095861023,458962.00297218,0.016781997669142
35489646,0.99998977763075,0.016075806621509,0.0053586022071364,0.0053586022071749,0.0053586022071973,-0.0013354203793912,0.0013354203791314,7.2017271098273e-12,-7.4243438972726e-12,-9.589407050197e-14,-1.9841276215572e-13,-0.0013985638841514,0.0013985638886871,-0.0013985638888394,0.0013985638837792,-0.0013985638843194,0.0013985638887239,-0.0013985638890648,0.001398563883996,-0.001267104459301,0.0012671044732715,-0.001267104473326,0.0012671044592705,4.2259561940567e-13,5.3594345082487e-13,9.7100821871838e-13,6.1412962111457e-13,-0.0013354203788595,0.0013354203796792,-0.0013985638858958,0.0013985638869974,-0.0013985638859635,0.001398563886833,-0.0013985638857913,0.0013985638870701,-0.0013985638859337,0.0013985638869282,-0.0012671044650284,0.0012671044670846,-0.0012671044656509,0.0012671044668658,-0.0012671044655341,0.0012671044667384,-0.0012671044655294,0.0012671044668717,-7.0659719629362e-12,7.5290947854401e-12,-0.001335420379052,0.0013354203795006,2.6807004593822e-14,3.8223714644697e-13,-0.0013985638889515,0.0013985638842324,-0.001398563888536,0.0013985638841025,-0.0013985638838018,0.0013985638893015,-0.0013985638835466,0.0013985638890404,-0.0012671044585396,0.0012671044732415,-0.0012671044729298,0.0012671044593745,0.0036175623218662,0.0034088409605484,0.75656976859597,0.70144649711152,1368840,32768,0.005548595016623,0.0055485950166563,0.0055485950166851,36.157464945424,36.176458341737,0.00020445971956339,0.00020445971956339,0.00020445971956339,465369.63921896,0.016786047650736
35576046,0.99999033239171,0.016075815561984,0.0053586051872948,0.0053586051873332,0.0053586051873557,-0.0013366581660108,0.0013366581656989,7.2468048503803e-12,-7.515965039486e-12,-8.1059523687193e-14,-3.2255020513617e-13,-0.0013994481218825,0.0013994481266427,-0.0013994481268614,0.0013994481217542,-0.0013994481221253,0.0013994481265722,-0.00139944812704,0.0013994481217935,-0.0012686733989477,0.0012686734125836,-0.0012686734130232,0.0012686733985999,3.5819517503034e-13,6.101603011981e-13,8.7598818033886e-13,7.0600652022072e-13,-0.0013366581654197,0.0013366581662954,-0.001399448123815,0.0013994481248875,-0.0013994481239315,0.0013994481248358,-0.001399448123755,0.0013994481250201,-0.001399448123677,0.0013994481248891,-0.0012686734043916,0.001268673406398,-0.0012686734050087,0.0012686734064211,-0.0012686734055855,0.0012686734057295,-0.0012686734057529,0.0012686734062024,-7.2710394629707e-12,7.461013541746e-12,-0.0013366581657368,0.0013366581659873,4.7512636756855e-14,2.1733247828903e-13,-0.0013994481268351,0.0013994481219621,-0.0013994481265439,0.0013994481218504,-0.0013994481217178,0.0013994481270421,-0.0013994481214855,0.001399448126937,-0.0012686733982133,0.0012686734125343,-0.0012686734122636,0.0012686733986763,0.0036225874945312,0.0034088223481097,0.73685752340982,0.42717327706106,1368840,32768,0.0055537251552433,0.0055537251552544,0.0055537251552734,36.434037699836,36.452965870136,0.00020667230159868,0.00020667230159868,0.00020667230159868,444024.92912087,0.016801692818474
35662446,0.9999908648231,0.016075824179147,0.0053586080596825,0.005358608059721,0.0053586080597435,-0.0013357017714881,0.0013357017711145,7.1954246553041e-12,-7.5771172301521e-12,-6.3079955303606e-14,-3.2488242800601e-13,-0.0013992548456114,0.0013992548501787,-0.0013992548504466,0.0013992548453318,-0.0013992548458317,0.0013992548501905,-0.0013992548506355,0.0013992548453732,-0.0012670238695391,0.0012670238833853,-0.0012670238838597,0.0012670238690885,3.9250242108517e-13,6.6535085045882e-13,8.8205267154341e-13,7.1088163599516e-13,-0.0013357017708623,0.0013357017717568,-0.0013992548473923,0.0013992548484478,-0.0013992548474515,0.0013992548484356,-0.0013992548472731,0.0013992548486048,-0.0013992548473357,0.0013992548484878,-0.0012670238755699,0.0012670238774948,-0.0012670238757085,0.0012670238772329,-0.0012670238760516,0.001267023876928,-0.0012670238758683,0.0012670238771904,-7.2043552060114e-12,7.5370138082253e-12,-0.0013357017711465,0.0013357017714824,9.0027661481445e-14,2.6105249561369e-13,-0.0013992548504549,0.0013992548456631,-0.0013992548501517,0.0013992548455254,-0.0013992548453913,0.0013992548507037,-0.0013992548451209,0.0013992548505258,-0.0012670238690374,0.0012670238838392,-0.0012670238834457,0.0012670238694283,0.0036187801136702,0.0034088040524673,0.73980177392188,0.49805003455557,1368840,32768,0.005549759982422,0.0055497599824562,0.0055497599824765,36.710536245256,36.729473398535,0.00020888428996205,0.00020888428996205,0.00020888428996205,489277.24742253,0.016789604067064
35748846,0.99999137536902,0.016075832484087,0.0053586108279958,0.0053586108280343,0.0053586108280568,-0.0013366373747583,0.0013366373743851,7.1523556180925e-12,-7.5677517515552e-12,1.6071273739501e-15,-3.660524644073e-13,-0.001399992300212,0.0013999923048197,-0.0013999923051269,0.0013999922999088,-0.0013999923002856,0.0013999923049094,-0.0013999923052458,0.0013999922998288,-0.0012681486075215,0.0012681486208973,-0.0012681486219454,0.0012681486070476,3.8373260076186e-13,7.6294028093341e-13,9.073885446087e-13,7.0776431946234e-13,-0.0013366373741056,0.0013366373750735,-0.0013999923019804,0.0013999923030713,-0.0013999923019365,0.0013999923031157,-0.0013999923017731,0.0013999923033354,-0.0013999923019059,0.0013999923031266,-0.0012681486138464,0.0012681486153799,-0.0012681486135741,0.0012681486151728,-0.0012681486141694,0.0012681486152368,-0.0012681486140106,0.0012681486148262,-7.2104787836461e-12,7.4786278565819e-12,-0.0013366373744418,0.001336637374745,4.0969424882781e-14,2.4033324621959e-13,-0.0013999923050549,0.0013999923002126,-0.00139999230485,0.0013999923001039,-0.0013999923000128,0.0013999923053246,-0.0013999922997378,0.0013999923050263,-0.0012681486069255,0.0012681486213885,-0.0012681486209295,0.0012681486070078,0.0036225933981057,0.0034087860669923,0.74407478411958,0.58373927014866,1368840,32768,0.0055536374872444,0.0055536374873184,0.0055536374873344,36.98702816789,37.005980926933,0.00021109622534312,0.00021109622534312,0.00021109622534312,476877.37226983,0.016801429780681
35835246,0.9999918644883,0.016075840491352,0.0053586134970842,0.0053586134971226,0.0053586134971451,-0.0013376360764203,0.0013376360759668,7.0953950640807e-12,-7.5565233886916e-12,-2.1505578313462e-14,-4.9457247938554e-13,-0.0014007546984807,0.0014007547032031,-0.0014007547034023,0.0014007546983049,-0.0014007546989501,0.0014007547028954,-0.0014007547037811,0.0014007546985239,-0.0012693699017039,0.0012693699146877,-0.0012693699156985,0.0012693699012803,3.6158424796707e-13,8.4481360328903e-13,1.0888642065342e-12,8.2540013753355e-13,-0.0013376360755957,0.0013376360767849,-0.0014007547000689,0.0014007547013572,-0.0014007547003548,0.0014007547015013,-0.0014007546998537,0.001400754701769,-0.0014007546999775,0.0014007547012478,-0.0012693699078345,0.0012693699102894,-0.0012693699081473,0.0012693699101014,-0.0012693699085304,0.001269369909554,-0.0012693699084952,0.0012693699096778,-7.1120853777324e-12,7.5093593295212e-12,-0.0013376360760197,0.0013376360763834,2.8701505541648e-14,2.9019836993312e-13,-0.0014007547036434,0.0014007546986141,-0.0014007547029843,0.0014007546983718,-0.0014007546982776,0.0014007547038238,-0.0014007546980058,0.0014007547034987,-0.0012693699018482,0.0012693699163103,-0.0012693699156004,0.0012693699021692,0.0036266638097599,0.0034087683882143,0.74873909551111,0.66942850574171,1368840,32768,0.005557776494879,0.0055577764948653,0.0055577764949119,37.263520775136,37.282488455334,0.00021330816620109,0.00021330816620109,0.00021330816620109,462500.02393302,0.016814053113803
35921646,0.99999233265303,0.016075848212567,0.0053586160708226,0.0053586160708611,0.0053586160708836,-0.0013386088682258,0.0013386088677113,7.0639096141748e-12,-7.6537165371547e-12,-1.5297238562215e-14,-4.6490844442497e-13,-0.0014015039171784,0.0014015039220247,-0.0014015039220763,0.0014015039165633,-0.001401503917359,0.0014015039216327,-0.0014015039225794,0.0014015039165634,-0.0012705521077009,0.0012705521208953,-0.0012705521223659,0.0012705521067045,3.5692853725466e-13,8.17771841161e-13,9.0961327076249e-13,7.1575131075935e-13,-0.0013386088674667,0.0013386088684622,-0.0014015039184895,0.0014015039199528,-0.0014015039190192,0.0014015039201345,-0.0014015039184008,0.0014015039202843,-0.0014015039187052,0.0014015039199668,-0.0012705521139448,0.0012705521162257,-0.0012705521144238,0.0012705521155227,-0.001270552113852,0.0012705521154623,-0.0012705521141435,0.0012705521155435,-7.2080615045512e-12,7.4789642874807e-12,-0.0013386088678166,0.0013386088681453,8.341583405647e-14,2.7674736908725e-13,-0.0014015039216827,0.0014015039170317,-0.0014015039219163,0.0014015039169651,-0.0014015039166434,0.0014015039220023,-0.0014015039166423,0.001401503922129,-0.0012705521071672,0.0012705521221413,-0.0012705521211376,0.0012705521069567,0.00363063243765,0.0034087510116467,0.75419518315745,0.75511774133481,1368840,32768,0.0055618080634497,0.0055618080634326,0.0055618080635013,37.540016000468,37.558995983731,0.00021552012800374,0.00021552012800374,0.00021552012800374,448937.69035867,0.016826349044683
36008046,0.9999927803475,0.016075855672236,0.0053586185573789,0.0053586185574174,0.0053586185574399,-0.0013395588992452,0.0013395588987984,7.1827409839581e-12,-7.6832171653425e-12,-4.1982364526405e-14,-3.1661150420647e-13,-0.0014022410547221,0.001402241059286,-0.0014022410592951,0.0014022410543688,-0.0014022410547657,0.0014022410591407,-0.0014022410596605,0.0014022410542837,-0.0012716981870966,0.0012716982013094,-0.0012716982010917,0.0012716981856304,3.5824726167442e-13,6.4371574669051e-13,8.5175309717461e-13,7.9347420108429e-13,-0.0013395588985865,0.001339558899456,-0.0014022410563715,0.0014022410574595,-0.0014022410565645,0.0014022410574637,-0.001402241056181,0.0014022410575792,-0.001402241056406,0.0014022410576886,-0.0012716981936562,0.0012716981949808,-0.0012716981934017,0.0012716981958456,-0.0012716981952287,0.001271698194108,-0.0012716981933194,0.0012716981942244,-7.4334199729458e-12,7.4016632960317e-12,-0.0013395588990313,0.0013395588990531,4.3774780357567e-14,1.0255580816693e-13,-0.0014022410594459,0.0014022410544727,-0.0014022410592263,0.0014022410542765,-0.0014022410543665,0.0014022410593883,-0.0014022410541732,0.0014022410594247,-0.0012716981870856,0.0012716982027635,-0.0012716982018341,0.001271698187825,0.0036345144281007,0.0034087339358315,0.76186753756364,0.84935966224716,1368840,32768,0.0055657452237522,0.00556574522375,0.0055657452238366,37.816517216905,37.83550351213,0.00021773213773524,0.00021773213773524,0.00021773213773524,435993.63155899,0.016838357378296
36094446,0.99999320651169,0.016075862744907,0.0053586209149358,0.0053586209149743,0.0053586209149968,-0.001340393875664,0.0013403938753108,7.2709074081814e-12,-7.6124802086609e-12,-6.6430676470786e-14,-2.7495936488602e-13,-0.0014028504592588,0.001402850463838,-0.0014028504641263,0.0014028504589678,-0.0014028504594594,0.0014028504638682,-0.0014028504643042,0.0014028504590043,-0.0012727338397681,0.0012727338538715,-0.0012727338541059,0.0012727338391936,4.1879088269659e-13,6.3826791311808e-13,8.1370734768143e-13,8.1984301318224e-13,-0.0013403938750397,0.0013403938759528,-0.0014028504610379,0.0014028504620669,-0.0014028504610482,0.0014028504621206,-0.0014028504609488,0.0014028504622402,-0.0014028504609608,0.001402850462154,-0.0012727338458883,0.0012727338476525,-0.0012727338458008,0.0012727338477027,-0.0012727338462838,0.0012727338472078,-0.0012727338460719,0.0012727338474192,-7.259971624615e-12,7.5929515993642e-12,-0.0013403938753512,0.0013403938756528,1.5860797816455e-13,1.5275530401855e-13,-0.0014028504641116,0.0014028504592951,-0.0014028504638776,0.0014028504591212,-0.00140285045902,0.0014028504643757,-0.0014028504588166,0.0014028504641596,-0.001272733839029,0.0012727338541204,-0.0012727338536864,0.0012727338395521,0.003637925203142,0.0034087171279031,0.7586621749721,0.77210405392739,1368840,32768,0.0055692055585053,0.005569205558542,0.005569205558566,38.023572921386,38.037971607534,0.00021938858337108,0.00021938858337108,0.00021938858337108,422237.27091107,0.016848911532853
36180846,0.99999360491561,0.016075869340334,0.0053586231134115,0.00535862311345,0.0053586231134724,-0.0013398275091547,0.0013398275087766,7.1990292510686e-12,-7.6045179224915e-12,-7.4583309766377e-14,-3.3477377289104e-13,-0.0014024520083675,0.001402452012808,-0.0014024520130064,0.0014024520080167,-0.0014024520084304,0.0014024520128989,-0.0014024520134393,0.0014024520080671,-0.0012720104812034,0.001272010495615,-0.0012720104960163,0.0012720104809169,3.9428057264621e-13,6.6534473299865e-13,8.4917417595888e-13,8.0127437455905e-13,-0.0013398275085052,0.0013398275094269,-0.0014024520101281,0.0014024520110537,-0.0014024520100533,0.0014024520110812,-0.0014024520099676,0.0014024520112542,-0.0014024520098656,0.001402452011228,-0.0012720104873536,0.0012720104894157,-0.0012720104876786,0.0012720104893926,-0.0012720104878871,0.0012720104887523,-0.001272010487924,0.0012720104890601,-7.195937816098e-12,7.5770512321683e-12,-0.0013398275087828,0.0013398275091488,1.7719352803582e-13,2.2532732228733e-13,-0.001402452013071,0.001402452008265,-0.0014024520128749,0.0014024520081938,-0.0014024520079524,0.0014024520134375,-0.0014024520078711,0.0014024520130357,-0.0012720104808525,0.0012720104960525,-0.0012720104957953,0.0012720104813235,0.003635618248998,0.0034087005480649,0.75659056045151,0.73500470064112,1368840,32768,0.0055668580521976,0.005566858052199,0.005566858052198,37.8993925472,37.891665115024,0.0002183951403776,0.0002183951403776,0.0002183951403776,431316.99603302,0.016841752785057
36267246,0.99999397712242,0.01607587549,0.0053586251633002,0.0053586251633387,0.0053586251633612,-0.0013393824872055,0.001339382486794,7.1654445123534e-12,-7.6041029351691e-12,-5.1903355564586e-14,-3.6082297710573e-13,-0.0014020934887543,0.0014020934933151,-0.0014020934935904,0.0014020934884562,-0.0014020934890042,0.0014020934933073,-0.0014020934938093,0.001402093488509,-0.0012714858279294,0.0012714858417207,-0.0012714858422605,0.0012714858273852,3.9142636572262e-13,7.1138191482964e-13,8.5908310854191e-13,7.8752455931235e-13,-0.0013393824865395,0.0013393824874736,-0.001402093490558,0.001402093491577,-0.0014020934905883,0.0014020934915892,-0.0014020934904174,0.0014020934917614,-0.0014020934904372,0.0014020934916718,-0.0012714858339104,0.0012714858358235,-0.0012714858339762,0.0012714858357224,-0.001271485834433,0.0012714858353511,-0.0012714858341426,0.0012714858356434,-7.2093829347706e-12,7.5294937144296e-12,-0.0013393824868559,0.0013393824871696,1.2757963194158e-13,1.9921717875782e-13,-0.001402093493594,0.0014020934888077,-0.0014020934933325,0.0014020934886247,-0.0014020934885281,0.001402093493838,-0.0014020934882777,0.0014020934936227,-0.0012714858274371,0.0012714858422275,-0.0012714858418508,0.0012714858277659,0.003633773820631,0.0034086841974062,0.75519046845255,0.71605120519326,1368840,32768,0.0055650137727959,0.0055650137728242,0.0055650137728499,37.755173946777,37.745358622514,0.00021724139157422,0.00021724139157422,0.00021724139157422,435845.57588186,0.016836127756068
36353646,0.99999432498003,0.016075881224771,0.0053586270748906,0.0053586270749291,0.0053586270749516,-0.0013390116432745,0.0013390116428774,7.1707237628406e-12,-7.5787837674758e-12,-5.0839270424598e-14,-3.5660898819314e-13,-0.0014017680702214,0.0014017680747656,-0.0014017680750436,0.0014017680699345,-0.0014017680704463,0.001401768074771,-0.0014017680752541,0.0014017680699577,-0.0012710737013431,0.0012710737151797,-0.0012710737155591,0.0012710737008488,3.9591599327347e-13,7.1269910988435e-13,8.7274566174852e-13,7.4860827758981e-13,-0.0013390116426206,0.0013390116435483,-0.0014017680719979,0.0014017680730605,-0.0014017680720513,0.0014017680730562,-0.0014017680718704,0.0014017680732303,-0.0014017680719127,0.0014017680731262,-0.0012710737073804,0.0012710737092424,-0.0012710737075381,0.0012710737091249,-0.001271073707768,0.0012710737087092,-0.0012710737075652,0.0012710737090343,-7.1849943268847e-12,7.5338645809026e-12,-0.0013390116429238,0.001339011643255,1.0316452486517e-13,2.2696077238655e-13,-0.0014017680750625,0.0014017680702817,-0.001401768074775,0.0014017680701313,-0.0014017680699959,0.001401768075317,-0.0014017680697446,0.0014017680751279,-0.0012710737007736,0.0012710737155895,-0.0012710737152071,0.0012710737012866,0.0036322221402449,0.003408668078503,0.75357139730037,0.69709770974541,1368840,32768,0.00556347702138,0.0055634770214152,0.0055634770214359,37.609074846047,37.599052130004,0.00021607259876838,0.00021607259876838,0.00021607259876838,438114.44924006,0.016831440317472
36440046,0.99999465022847,0.016075886574068,0.0053586288579897,0.0053586288580281,0.0053586288580506,-0.0013386376888827,0.0013386376884914,7.1751409220171e-12,-7.5708775384175e-12,-6.0303981284178e-14,-3.4825436106832e-13,-0.0014014412656656,0.0014014412702175,-0.0014014412704909,0.0014014412653861,-0.0014014412658986,0.0014014412702111,-0.0014014412706952,0.001401441265414,-0.0012706575886643,0.001270657602533,-0.0012706576029753,0.0012706575882273,3.8836731211579e-13,6.8728647445821e-13,8.7652301694115e-13,7.5503481655757e-13,-0.0013386376882363,0.001338637689154,-0.0014014412674511,0.0014014412684932,-0.0014014412674899,0.0014014412685057,-0.0014014412673133,0.0014014412686678,-0.0014014412673595,0.001401441268569,-0.0012706575946543,0.0012706575966154,-0.0012706575947652,0.0012706575964087,-0.0012706575951421,0.0012706575960942,-0.0012706575949831,0.0012706575963712,-7.1834345510054e-12,7.5318447602538e-12,-0.0013386376885334,0.0013386376888667,1.0708619917836e-13,2.2846996157597e-13,-0.0014014412704873,0.0014014412657328,-0.0014014412702075,0.0014014412655637,-0.0014014412654444,0.001401441270753,-0.0014014412651972,0.0014014412705573,-0.0012706575881386,0.0012706576029152,-0.0012706576025909,0.001270657588562,0.0036306565090805,0.0034086521935738,0.75179300915296,0.67814421429755,1368840,32768,0.005561927391312,0.0055619273913454,0.0055619273913658,37.462786104451,37.452745637494,0.00021490228883561,0.00021490228883561,0.00021490228883561,440512.32829597,0.016826713570292
36526446,0.99999495447683,0.016075891533404,0.0053586305111014,0.0053586305111399,0.0053586305111624,-0.0013382613709918,0.0013382613705408,7.1569697124292e-12,-7.5978780076893e-12,-4.8503224142149e-14,-3.9445889072813e-13,-0.0014011123033705,0.0014011123078445,-0.0014011123081595,0.001401112303027,-0.0014011123035036,0.0014011123076647,-0.0014011123082264,0.001401112303016,-0.0012702393106026,0.0012702393244654,-0.0012702393249821,0.0012702393100034,3.1952315055179e-13,6.7649980398359e-13,7.692038837023e-13,7.2571768276412e-13,-0.0013382613703883,0.0013382613711973,-0.001401112305018,0.0014011123061578,-0.0014011123050126,0.0014011123060282,-0.0014011123049423,0.0014011123062757,-0.0014011123049495,0.0014011123061732,-0.0012702393166619,0.0012702393187493,-0.0012702393167676,0.0012702393184603,-0.0012702393174193,0.0012702393180553,-0.0012702393166103,0.0012702393182938,-7.1464272697877e-12,7.5775342762352e-12,-0.0013382613705829,0.0013382613710132,2.1790175501566e-13,2.6207090567843e-13,-0.0014011123080122,0.0014011123033719,-0.0014011123078389,0.0014011123031956,-0.0014011123031008,0.0014011123084074,-0.0014011123029561,0.0014011123082278,-0.0012702393098854,0.0012702393249103,-0.001270239324542,0.0012702393105088,0.0036290804433207,0.0034086365384954,0.74506612179124,0.58809781018961,1368840,32768,0.005560367971189,0.0055603679712987,0.0055603679713206,37.316478744956,37.306439144983,0.00021373182995964,0.00021373182995964,0.00021373182995964,443000.25771438,0.016821956950109
36612846,0.99999523921099,0.016075896132739,0.0053586320442133,0.0053586320442518,0.0053586320442743,-0.001337520506229,0.0013375205057553,7.1787543410414e-12,-7.6848698795591e-12,-2.8820766604187e-14,-4.1800852424416e-13,-0.0014006033275814,0.0014006033319578,-0.0014006033324287,0.0014006033273199,-0.0014006033280206,0.0014006033321109,-0.0014006033325862,0.0014006033274006,-0.0012692885372353,0.0012692885510118,-0.0012692885515065,0.0012692885365553,4.0246911660946e-13,8.0286476715012e-13,8.9252182230627e-13,8.2104009425929e-13,-0.0013375205055189,0.0013375205064794,-0.0014006033296169,0.0014006033303523,-0.001400603329708,0.0014006033304101,-0.0014006033293981,0.001400603330664,-0.0014006033293752,0.0014006033303628,-0.0012692885430936,0.0012692885452447,-0.0012692885431765,0.0012692885447815,-0.0012692885435927,0.0012692885446942,-0.0012692885431054,0.0012692885452156,-7.2952021365823e-12,7.537895251886e-12,-0.0013375205059007,0.0013375205060967,6.9328529119848e-14,1.4082140388513e-13,-0.0014006033325142,0.0014006033274831,-0.0014006033320697,0.0014006033273134,-0.0014006033273219,0.00140060333248,-0.0014006033271749,0.0014006033323417,-0.0012692885364321,0.0012692885514742,-0.0012692885513159,0.0012692885368031,0.0036260353900379,0.003408621115146,0.73831273040267,0.50601688534058,1368840,32768,0.005557297455803,0.0055572974558319,0.0055572974558301,37.170168761633,37.160132652474,0.00021256135009306,0.00021256135009306,0.00021256135009306,456570.64469464,0.016812592492231
36699246,0.99999550580352,0.016075900442296,0.0053586334807322,0.0053586334807707,0.0053586334807932,-0.0013367841624268,0.0013367841619635,7.1773582660435e-12,-7.6328135286684e-12,-4.9152792533575e-14,-4.2700407296574e-13,-0.0014000974807192,0.001400097485264,-0.001400097485534,0.0014000974802758,-0.001400097481015,0.0014000974852746,-0.0014000974856511,0.001400097480306,-0.0012683447823362,0.0012683447974925,-0.001268344797223,0.0012683447818114,4.3531984833627e-13,8.2362960338686e-13,9.1924035901449e-13,8.2271813123171e-13,-0.0013367841616719,0.001336784162717,-0.001400097482546,0.0014000974834217,-0.0014000974827306,0.0014000974834594,-0.0014000974820195,0.0014000974838211,-0.0014000974823265,0.0014000974836228,-0.0012683447888389,0.001268344791442,-0.0012683447889778,0.0012683447908781,-0.0012683447891711,0.0012683447904137,-0.0012683447897128,0.0012683447908005,-7.1623517833047e-12,7.6180138925518e-12,-0.0013367841620345,0.0013367841623908,6.6739755263936e-14,1.6147739050597e-13,-0.0014000974855138,0.001400097480621,-0.001400097485133,0.0014000974805249,-0.0014000974805914,0.0014000974860165,-0.0014000974803286,0.0014000974857867,-0.0012683447819861,0.0012683447979737,-0.0012683447972981,0.001268344783034,0.0036230022856704,0.0034086059325699,0.73903217557091,0.53871329317154,1368840,32768,0.0055542457292375,0.0055542457292345,0.0055542457293102,37.023858086186,37.013826159965,0.00021139086468948,0.00021139086468948,0.00021139086468948,470216.18078683,0.016803285195469
36785646,0.99999575552275,0.016075904424606,0.0053586348081688,0.0053586348082072,0.0053586348082297,-0.0013366710211444,0.0013366710206797,7.1367471537439e-12,-7.6325450074598e-12,-1.192140051528e-14,-4.6974094385425e-13,-0.0013999090704734,0.0013999090750308,-0.0013999090753077,0.0013999090701796,-0.0013999090707472,0.0013999090749757,-0.0013999090755569,0.0013999090701513,-0.0012683063482303,0.0012683063618957,-0.0012683063624247,0.0012683063474756,3.2626291524484e-13,7.9524617636342e-13,8.3627689349142e-13,8.1891904140894e-13,-0.0013366710204422,0.0013366710213997,-0.001399909072258,0.0013999090732767,-0.001399909072289,0.001399909073307,-0.0013999090720884,0.0013999090734935,-0.0013999090720803,0.0013999090734138,-0.0012683063542195,0.0012683063561489,-0.0012683063542766,0.0012683063560639,-0.0012683063546312,0.0012683063556019,-0.0012683063542562,0.0012683063560566,-7.2089751825213e-12,7.5293161610302e-12,-0.0013366710207804,0.0013366710210712,1.293576364483e-13,1.4685180789572e-13,-0.0013999090752962,0.001399909070506,-0.0013999090750349,0.0013999090703222,-0.0013999090702301,0.0013999090755455,-0.0013999090700223,0.0013999090753298,-0.0012683063477006,0.0012683063625239,-0.0012683063620729,0.0012683063480838,0.0036224809066703,0.0034085909803483,0.72912313921708,0.41075086333591,1368840,32768,0.0055537772901451,0.0055537772901817,0.0055537772902021,36.877547423351,36.867519667453,0.00021022037938681,0.00021022037938681,0.00021022037938681,465005.69132793,0.016801855189761
36872046,0.999995990205,0.016075908189052,0.005358636062984,0.0053586360630225,0.005358636063045,-0.0013357450952835,0.0013357450948322,7.1417014729811e-12,-7.6090361962261e-12,1.1229421654759e-14,-4.6321820194307e-13,-0.0013993664209732,0.0013993664255249,-0.0013993664258007,0.0013993664206795,-0.0013993664212564,0.0013993664254611,-0.001399366426063,0.0013993664206483,-0.001267034048581,0.0012670340622164,-0.0012670340628575,0.001267034047951,3.2541085303946e-13,8.1098251915837e-13,8.174465275697e-13,8.5412984809591e-13,-0.0013357450945805,0.0013357450955516,-0.0013993664227727,0.0013993664237679,-0.0013993664227661,0.0013993664238235,-0.0013993664225921,0.0013993664239959,-0.0013993664225772,0.0013993664239515,-0.0012670340545172,0.0012670340564189,-0.0012670340545051,0.0012670340563746,-0.0012670340550422,0.0012670340558903,-0.0012670340546105,0.0012670340563155,-7.2252476265858e-12,7.4941731463899e-12,-0.0013357450949423,0.0013357450951997,1.4773183983488e-13,1.1165203028359e-13,-0.00139936642581,0.0013993664210151,-0.0013993664255749,0.0013993664208047,-0.001399366420748,0.0013993664260565,-0.0013993664205498,0.0013993664257996,-0.001267034048121,0.0012670340627365,-0.0012670340624643,0.0012670340483507,0.0036186950096322,0.0034085762762859,0.73339485122495,0.49896341733273,1368840,32768,0.0055499395806712,0.0055499395807051,0.0055499395807256,36.784561726844,36.778062767663,0.00020947649381475,0.00020947649381475,0.00020947649381475,487818.38340504,0.016790151648769
36958446,0.99999621342106,0.016075911790584,0.0053586372634947,0.0053586372635332,0.0053586372635557,-0.0013364963577658,0.0013364963572766,7.132810685765e-12,-7.6464117014889e-12,1.5569936113845e-14,-5.1306562031513e-13,-0.0013998594431899,0.0013998594478372,-0.0013998594480542,0.0013998594428799,-0.0013998594433859,0.0013998594477048,-0.0013998594483239,0.001399859442736,-0.0012680267968301,0.0012680268100915,-0.0012680268109784,0.0012680267963231,3.2417994946625e-13,8.626300001868e-13,8.53702655264e-13,9.2802641413595e-13,-0.0013364963569972,0.0013364963580625,-0.001399859444812,0.0013998594460846,-0.0013998594448802,0.0013998594461419,-0.0013998594447349,0.0013998594463297,-0.0013998594446895,0.0013998594462356,-0.0012680268024839,0.0012680268045962,-0.0012680268027962,0.001268026804912,-0.0012680268031899,0.0012680268041188,-0.0012680268027679,0.0012680268045022,-7.2438490583248e-12,7.5034605097261e-12,-0.0013364963574049,0.0013364963576686,1.7655437109104e-13,1.0295756059955e-13,-0.0013998594481491,0.0013998594432648,-0.0013998594478522,0.0013998594429243,-0.0013998594429022,0.0013998594484458,-0.0013998594427912,0.0013998594480438,-0.001268026796536,0.0012680268108867,-0.0012680268106249,0.0012680267965684,0.0036217281359846,0.0034085618322623,0.73800206242906,0.58717597132952,1368840,32768,0.0055530534169634,0.0055530534169992,0.0055530534170279,36.912474015858,36.920706366398,0.00021049979212686,0.00021049979212686,0.00021049979212686,472056.50803992,0.016799647333196
37044846,0.99999642579532,0.016075915240842,0.0053586384135808,0.0053586384136193,0.0053586384136418,-0.0013372434187593,0.0013372434181063,7.0691071612757e-12,-7.7326587725824e-12,-7.1828335105432e-14,-6.1424499994277e-13,-0.0014003645514221,0.0014003645557555,-0.0014003645562514,0.0014003645509248,-0.0014003645515965,0.0014003645558434,-0.0014003645565808,0.0014003645508469,-0.0012690000921017,0.0012690001054438,-0.0012690001062765,0.0012690000911896,3.3848004202e-13,8.9141359145608e-13,8.4035429834126e-13,8.8816545539029e-13,-0.0013372434179268,0.0013372434189641,-0.0014003645531443,0.0014003645541556,-0.0014003645530931,0.0014003645541412,-0.0014003645528688,0.0014003645542762,-0.0014003645527555,0.0014003645543147,-0.001269000098158,0.0012690000997106,-0.0012690000976319,0.0012690000997111,-0.0012690000981553,0.0012690000990813,-0.0012690000980046,0.0012690001001114,-7.2988377313998e-12,7.4721307903569e-12,-0.0013372434183657,0.001337243418501,9.4964216555429e-14,4.828340732799e-14,-0.0014003645562282,0.0014003645512695,-0.001400364555971,0.0014003645511225,-0.0014003645511377,0.0014003645563792,-0.0014003645509065,0.0014003645559444,-0.0012690000914553,0.0012690001060784,-0.0012690001056819,0.0012690000915517,0.0036247541419916,0.0034085476460251,0.74297741754345,0.67538852532638,1368840,32768,0.0055561497362983,0.0055561497363506,0.0055561497363006,37.053725464843,37.06334996513,0.00021162980371874,0.00021162980371874,0.00021162980371874,457330.466281,0.016809089991776
37131246,0.99999662777621,0.016075918548678,0.005358639516193,0.0053586395162314,0.0053586395162539,-0.0013379645999577,0.0013379645995228,7.1789757460423e-12,-7.603296312752e-12,-9.4248297249802e-15,-4.8216597604276e-13,-0.0014008592944491,0.0014008592990353,-0.0014008592992709,0.0014008592941932,-0.0014008592946531,0.0014008592989875,-0.0014008592995718,0.001400859294183,-0.0012699320872257,0.0012699321008433,-0.0012699321015664,0.0012699320865955,3.5518126710315e-13,8.3854826527904e-13,8.3131804498083e-13,8.7197068542351e-13,-0.0013379645992326,0.0013379646002641,-0.0014008592962018,0.0014008592972541,-0.0014008592962002,0.0014008592973205,-0.0014008592959704,0.0014008592974872,-0.0014008592960192,0.0014008592974462,-0.0012699320931671,0.0012699320950657,-0.0012699320930519,0.0012699320949252,-0.0012699320934143,0.0012699320946597,-0.0012699320933056,0.0012699320950738,-7.2169662325179e-12,7.5346105581135e-12,-0.0013379645996104,0.0013379645998998,1.7244849652269e-13,1.3223531324313e-13,-0.0014008592992517,0.0014008592945433,-0.0014008592991154,0.0014008592942956,-0.0014008592942743,0.0014008592995085,-0.0014008592940227,0.0014008592993559,-0.0012699320867474,0.0012699321013344,-0.0012699321010712,0.0012699320869542,0.0036276786403091,0.0034085337142847,0.7488524811099,0.76360107932317,1368840,32768,0.0055591387484802,0.0055591387485137,0.0055591387485416,37.196226924113,37.205993563862,0.0002127698153929,0.0002127698153929,0.0002127698153929,443526.6693732,0.016818205594865
37217646,0.99999681978527,0.01607592172582,0.0053586405752402,0.0053586405752786,0.0053586405753011,-0.001338662100046,0.0013386620995588,7.1030679473264e-12,-7.5897742552534e-12,2.1735630109067e-14,-5.1493603376352e-13,-0.0014013390207878,0.0014013390253333,-0.0014013390256878,0.001401339020642,-0.0014013390212058,0.001401339025426,-0.0014013390257795,0.0014013390206358,-0.0012708279634845,0.0012708279763609,-0.0012708279770723,0.0012708279622639,2.8086403744351e-13,8.2805876219674e-13,8.6215895575336e-13,8.3075188580602e-13,-0.0013386620993322,0.0013386621003011,-0.0014013390228652,0.0014013390236031,-0.0014013390227307,0.0014013390237242,-0.0014013390223645,0.0014013390237385,-0.0014013390223646,0.0014013390240194,-0.0012708279690538,0.0012708279707377,-0.0012708279687974,0.0012708279711299,-0.0012708279694063,0.0012708279701648,-0.0012708279690622,0.0012708279708846,-7.1245082335168e-12,7.5376233778386e-12,-0.0013386620996335,0.0013386621000213,1.4591974813421e-13,1.7721605675935e-13,-0.0014013390258437,0.0014013390209914,-0.0014013390254731,0.001401339020849,-0.0014013390206754,0.0014013390258587,-0.0014013390203579,0.0014013390259344,-0.0012708279624033,0.0012708279771868,-0.0012708279761664,0.001270827962718,0.003630513005305,0.0034085200345564,0.75652205513183,0.85181363332,1368840,32768,0.0055620295340447,0.0055620295341037,0.0055620295341485,37.338856620786,37.348637162595,0.00021391085296629,0.00021391085296629,0.00021391085296629,430323.17749587,0.016827021905841
37304046,0.99999700223025,0.016075924743428,0.0053586415811094,0.0053586415811479,0.0053586415811704,-0.0013393407983116,0.0013393407978895,7.1097566841666e-12,-7.5361555403271e-12,-1.0679085525973e-14,-4.1007759005817e-13,-0.0014018056015714,0.0014018056060832,-0.0014018056063656,0.0014018056012792,-0.001401805601848,0.0014018056060433,-0.0014018056066159,0.0014018056012858,-0.0012716921296855,0.0012716921433374,-0.0012716921437828,0.0012716921289901,3.5361887365673e-13,7.6391666287032e-13,8.5640989608907e-13,8.2460392656313e-13,-0.0013393407976265,0.0013393407985893,-0.0014018056033346,0.0014018056043624,-0.001401805603353,0.0014018056043877,-0.0014018056031709,0.0014018056045787,-0.0014018056032025,0.0014018056045041,-0.001271692135541,0.0012716921375475,-0.0012716921355555,0.0012716921374325,-0.00127169213611,0.0012716921369665,-0.0012716921357435,0.0012716921373198,-7.1271407413308e-12,7.4882786499921e-12,-0.0013393407979519,0.0013393407982743,1.5002138753782e-13,1.8192303061159e-13,-0.0014018056063577,0.0014018056016214,-0.0014018056060923,0.0014018056014492,-0.0014018056013401,0.0014018056066201,-0.0014018056011162,0.0014018056064051,-0.0012716921291012,0.0012716921438947,-0.0012716921434252,0.0012716921295718,0.0036332826531069,0.0034085065968214,0.7560421040778,0.80467831232664,1368840,32768,0.0055648422661923,0.0055648422662228,0.0055648422662445,37.481493419246,37.491280761328,0.00021505194735396,0.00021505194735396,0.00021505194735396,417382.61372579,0.0168356006201
37390446,0.99999717550661,0.016075927578803,0.0053586425262344,0.0053586425262729,0.0053586425262954,-0.0013394311157123,0.0013394311152506,7.082207172844e-12,-7.5825800044446e-12,1.5702402655319e-14,-4.5416577260622e-13,-0.0014019835531045,0.0014019835576293,-0.0014019835579122,0.0014019835528037,-0.0014019835533931,0.0014019835575565,-0.001401983558172,0.0014019835527624,-0.0012716941167803,0.0012716941303004,-0.0012716941310365,0.0012716941161852,3.1967605764528e-13,8.0047836946469e-13,8.5749889223275e-13,8.6163673641268e-13,-0.0013394311149953,0.001339431115986,-0.0014019835548634,0.0014019835559079,-0.0014019835548877,0.0014019835559429,-0.00140198355468,0.0014019835561326,-0.0014019835546965,0.00140198355607,-0.0012716941226201,0.0012716941245805,-0.0012716941226936,0.001271694124535,-0.001271694123327,0.0012716941239568,-0.0012716941227411,0.0012716941244547,-7.154729898501e-12,7.4795123589727e-12,-0.0013394311153423,0.0013394311156461,1.5591476632268e-13,1.5202523808627e-13,-0.0014019835579029,0.0014019835531491,-0.001401983557639,0.0014019835529645,-0.0014019835528648,0.0014019835581689,-0.0014019835526531,0.0014019835579284,-0.0012716941163141,0.0012716941308332,-0.0012716941305407,0.0012716941165132,0.0036336947943117,0.0034084933916071,0.74776648192832,0.67095824530591,1368840,32768,0.0055652159884633,0.0055652159885013,0.0055652159885162,37.624128456493,37.633924360061,0.00021619302765195,0.00021619302765195,0.00021619302765195,421937.42776377,0.016836742277929
37476846,0.99999733999786,0.016075930249795,0.0053586434165652,0.0053586434166037,0.0053586434166261,-0.0013390958840188,0.0013390958835193,7.0398531137903e-12,-7.5977493057387e-12,1.836455662246e-14,-5.369184210402e-13,-0.0014019517350659,0.0014019517397008,-0.0014019517400261,0.0014019517351307,-0.0014019517353763,0.001401951739657,-0.0014019517402551,0.0014019517348116,-0.0012710799415721,0.0012710799543042,-0.0012710799553312,0.0012710799407351,3.7000072614356e-13,9.3528683939377e-13,8.9217274473506e-13,9.2465831114683e-13,-0.0013390958832135,0.0013390958843175,-0.0014019517368827,0.0014019517381835,-0.0014019517369021,0.0014019517380965,-0.0014019517365225,0.0014019517382521,-0.0014019517366797,0.0014019517382682,-0.0012710799469363,0.001271079948737,-0.0012710799465091,0.0012710799487831,-0.0012710799477407,0.0012710799488156,-0.0012710799469737,0.0012710799492258,-7.1913761907467e-12,7.4161779114437e-12,-0.0013390958836869,0.0013390958839026,1.7848951785598e-13,1.469569223316e-13,-0.0014019517400468,0.0014019517352539,-0.0014019517397538,0.0014019517349432,-0.0014019517349991,0.0014019517399811,-0.0014019517347227,0.0014019517401232,-0.0012710799412715,0.0012710799551827,-0.0012710799549308,0.0012710799411296,0.0036323795669268,0.003408480416995,0.74204010416267,0.59544100858198,1368840,32768,0.005563825881725,0.00556382588171,0.0055638258818312,37.766766282757,37.776567958794,0.00021733413026205,0.00021733413026205,0.00021733413026205,439707.76655483,0.016832504901783
37563246,0.99999749607557,0.016075932770106,0.0053586442566688,0.0053586442567073,0.0053586442567298,-0.0013389889168008,0.0013389889163153,7.1147152385685e-12,-7.5969292131449e-12,6.8159564830904e-14,-5.2785822723467e-13,-0.0014020428492092,0.0014020428537874,-0.0014020428540422,0.0014020428490161,-0.0014020428494326,0.0014020428538005,-0.0014020428544635,0.0014020428490154,-0.0012707940041007,0.0012707940174312,-0.0012707940179116,0.0012707940033563,2.7685533637716e-13,8.8461874021059e-13,8.4940155136566e-13,8.941038033896e-13,-0.0013389889160524,0.0013389889170702,-0.0014020428512584,0.0014020428520936,-0.0014020428509889,0.0014020428520827,-0.0014020428508274,0.0014020428525274,-0.0014020428506816,0.0014020428523806,-0.0012707940098977,0.0012707940115623,-0.0012707940092659,0.0012707940119318,-0.0012707940105005,0.0012707940112752,-0.0012707940100099,0.001270794011663,-7.1866958631392e-12,7.4941913517161e-12,-0.0013389889164173,0.001338988916704,1.9168817346964e-13,1.4752843428407e-13,-0.0014020428540672,0.0014020428491685,-0.0014020428540512,0.0014020428490105,-0.0014020428489932,0.0014020428544328,-0.0014020428487117,0.0014020428543042,-0.0012707940035409,0.0012707940179985,-0.0012707940177085,0.0012707940040344,0.0036319701594015,0.0034084676706007,0.73808377228505,0.5527003664903,1368840,32768,0.0055633820981245,0.0055633820981376,0.0055633820981351,37.909404877411,37.919211557527,0.00021847523901929,0.00021847523901929,0.00021847523901929,451073.70924494,0.016831152783108
37649646,0.99999764370457,0.016075935140531,0.0053586450468105,0.005358645046849,0.0053586450468715,-0.00133893318085,0.0013389331802947,7.0887122682355e-12,-7.6275556304701e-12,3.0567125018842e-14,-6.0558055875315e-13,-0.0014021110417479,0.0014021110463044,-0.0014021110466483,0.001402111041453,-0.0014021110421566,0.0014021110461598,-0.0014021110469089,0.0014021110413658,-0.0012706283051669,0.0012706283186037,-0.0012706283189664,0.0012706283042321,2.5841157629196e-13,9.0604973256731e-13,8.5439801637414e-13,8.721620913409e-13,-0.0013389331800658,0.0013389331810883,-0.0014021110435674,0.0014021110444943,-0.0014021110434455,0.0014021110446374,-0.0014021110432735,0.0014021110447825,-0.001402111043249,0.0014021110447575,-0.0012706283105153,0.001270628312547,-0.001270628310766,0.0012706283127775,-0.0012706283113155,0.0012706283121719,-0.0012706283106222,0.0012706283127097,-7.1754818527784e-12,7.5099673991804e-12,-0.0013389331804289,0.001338933180726,1.5712649401111e-13,1.3952603169315e-13,-0.0014021110466161,0.0014021110417853,-0.0014021110463072,0.0014021110415833,-0.0014021110414787,0.0014021110468674,-0.0014021110412637,0.0014021110466134,-0.00127062830424,0.0012706283189295,-0.0012706283184931,0.0012706283048056,0.0036317503250119,0.0034084551470061,0.73400486214803,0.50995972439862,1368840,32768,0.0055631508594549,0.0055631508594744,0.0055631508594761,38.001106293776,38.007535757481,0.0002192088503502,0.0002192088503502,0.0002192088503502,458041.74813831,0.016830448240249
37736046,0.99999778194815,0.016075937347577,0.0053586457824926,0.0053586457825311,0.0053586457825535,-0.0013385105096696,0.0013385105091724,7.1117847986796e-12,-7.6398702542668e-12,8.6848052733957e-14,-6.1464487007995e-13,-0.0014018193997711,0.0014018194043277,-0.001401819404646,0.0014018193994921,-0.0014018193999524,0.0014018194041247,-0.0014018194048462,0.001401819399386,-0.0012700904809053,0.0012700904948799,-0.0012700904951466,0.0012700904802477,2.5614876306641e-13,9.6788125542144e-13,8.807418292358e-13,8.8027349060205e-13,-0.0013385105089046,0.0013385105099463,-0.0014018194015592,0.0014018194025608,-0.0014018194013583,0.0014018194025553,-0.001401819401264,0.0014018194028747,-0.0014018194012167,0.0014018194027695,-0.0012700904866695,0.0012700904889231,-0.0012700904868176,0.0012700904888699,-0.0012700904873843,0.0012700904881188,-0.0012700904866765,0.0012700904887618,-7.2372772590888e-12,7.4832804497425e-12,-0.0013385105093159,0.001338510509535,1.0775929626276e-13,1.0855094854892e-13,-0.0014018194046451,0.0014018193997242,-0.0014018194043249,0.0014018193996231,-0.001401819399462,0.0014018194047837,-0.0014018193993083,0.0014018194046113,-0.001270090480145,0.0012700904949753,-0.0012700904948734,0.001270090480834,0.0036300036639329,0.0034084428361614,0.72983780516944,0.46721908230694,1368840,32768,0.0055613991805753,0.0055613991805936,0.0055613991805937,37.907429243903,37.901440960276,0.00021845943395122,0.00021845943395122,0.00021845943395122,465400.3103277,0.016825105720879
37822446,0.99999791136532,0.016075939401585,0.0053586464671618,0.0053586464672003,0.0053586464672228,-0.0013380569084492,0.0013380569079543,7.1530133627047e-12,-7.679119231708e-12,1.2306082881145e-13,-6.2936765560308e-13,-0.0014014972467927,0.0014014972514066,-0.0014014972515918,0.0014014972464663,-0.0014014972471574,0.0014014972512137,-0.0014014972519153,0.0014014972465852,-0.0012695208038694,0.0012695208173155,-0.0012695208184501,0.0012695208028441,2.1441477330527e-13,9.7785277432779e-13,8.7156684481939e-13,8.3500034425382e-13,-0.0013380569076832,0.0013380569087232,-0.0014014972484415,0.0014014972495556,-0.001401497248715,0.0014014972496615,-0.0014014972484196,0.0014014972498021,-0.0014014972483716,0.0014014972497701,-0.0012695208097497,0.0012695208116717,-0.0012695208096383,0.0012695208113684,-0.0012695208100672,0.0012695208109723,-0.0012695208096833,0.0012695208116607,-7.2958533519823e-12,7.5051253118087e-12,-0.0013380569080991,0.0013380569083227,1.1720430184197e-13,1.5486709244604e-13,-0.0014014972516352,0.0014014972468452,-0.0014014972513898,0.0014014972466052,-0.0014014972465786,0.0014014972518392,-0.0014014972463105,0.0014014972515481,-0.0012695208030187,0.0012695208177847,-0.0012695208173841,0.0012695208030707,0.0036281247509569,0.0034084307359542,0.72560038124894,0.42447844021525,1368840,32768,0.0055595193560344,0.0055595193560404,0.0055595193560723,37.802507068597,37.795346163071,0.00021762005654877,0.00021762005654877,0.00021762005654877,472995.34298272,0.016819372211492
37908846,0.99999803255372,0.016075941336922,0.0053586471122741,0.0053586471123126,0.0053586471123351,-0.0013375913988729,0.001337591398335,7.1564507282838e-12,-7.7094721279773e-12,8.1465628928015e-14,-6.2371571061906e-13,-0.0014011701748754,0.0014011701794593,-0.0014011701797473,0.0014011701745779,-0.0014011701752408,0.0014011701793209,-0.0014011701800806,0.001401170174472,-0.0012689334816423,0.0012689334952746,-0.0012689334960304,0.00126893348083,2.5122341353246e-13,9.6747203262879e-13,9.1613268924579e-13,8.3974811097752e-13,-0.0013375913980846,0.0013375913991396,-0.0014011701766694,0.0014011701777081,-0.0014011701766986,0.001401170177729,-0.0014011701764049,0.0014011701780111,-0.001401170176436,0.0014011701779303,-0.001268933487441,0.0012689334896068,-0.0012689334875081,0.0012689334894409,-0.0012689334881849,0.0012689334888262,-0.0012689334875083,0.0012689334894866,-7.2584901992833e-12,7.5761568183155e-12,-0.0013375913984651,0.0013375913987694,1.1812342082234e-13,1.9470805180267e-13,-0.001401170179748,0.0014011701749171,-0.0014011701794737,0.0014011701747454,-0.0014011701746485,0.0014011701799936,-0.0014011701744139,0.0014011701797794,-0.0012689334809929,0.0012689334958726,-0.0012689334954964,0.0012689334813499,0.0036261966129351,0.0034084188488559,0.73023059614575,0.51671105362264,1368840,32768,0.0055575901832372,0.0055575901832707,0.0055575901832923,37.696528781349,37.689251365866,0.00021677223025079,0.00021677223025079,0.00021677223025079,480966.97115184,0.016813488205034
37995246,0.99999814607438,0.016075943153289,0.0053586477177299,0.0053586477177684,0.0053586477177908,-0.0013379038458922,0.0013379038453604,7.1715893246336e-12,-7.7127144406916e-12,9.5716075939582e-14,-6.1036111859268e-13,-0.0014012250931642,0.0014012250976993,-0.0014012250980288,0.0014012250928176,-0.0014012250935777,0.0014012250976138,-0.0014012250983408,0.0014012250927523,-0.0012694877334222,0.0012694877470109,-0.0012694877478638,0.0012694877327487,2.4194222647812e-13,9.5904346658629e-13,9.2167737280069e-13,8.552159619747e-13,-0.0013379038451064,0.0013379038461634,-0.0014012250949777,0.0014012250959459,-0.0014012250950434,0.0014012250960037,-0.0014012250946392,0.0014012250962684,-0.0014012250947421,0.0014012250961765,-0.0012694877393003,0.0012694877413601,-0.0012694877393337,0.0012694877412633,-0.0012694877399903,0.0012694877406091,-0.0012694877393013,0.0012694877412764,-7.2755793831028e-12,7.5778417080198e-12,-0.0013379038454992,0.0013379038457948,1.2831155075844e-13,1.953731197206e-13,-0.0014012250979772,0.0014012250931747,-0.0014012250977411,0.0014012250930091,-0.0014012250929901,0.0014012250982726,-0.0014012250926648,0.0014012250980267,-0.0012694877328536,0.001269487747597,-0.0012694877473334,0.0012694877331228,0.0036274078201315,0.0034084071711612,0.73173507853377,0.55321775789613,1368840,32768,0.0055588857181894,0.0055588857182249,0.0055588857182751,37.590443794931,37.583156568661,0.00021592355035945,0.00021592355035945,0.00021592355035945,464944.32805328,0.01681743758699
38081646,0.99999825244824,0.016075944857296,0.0053586482857323,0.0053586482857708,0.0053586482857933,-0.001337893761261,0.0013378937607209,7.186190466814e-12,-7.7279561515384e-12,8.1810677210556e-14,-6.3061397047019e-13,-0.0014011109461151,0.0014011109507123,-0.0014011109510146,0.0014011109458206,-0.0014011109464793,0.0014011109505649,-0.0014011109513353,0.0014011109456941,-0.0012695756226503,0.0012695756364062,-0.001269575637099,0.0012695756219727,2.5186824677442e-13,9.7534596855605e-13,9.2227191346141e-13,8.5287418057334e-13,-0.0013378937604694,0.001337893761533,-0.0014011109479106,0.0014011109489643,-0.0014011109479516,0.0014011109489757,-0.0014011109476406,0.0014011109492636,-0.0014011109476789,0.0014011109491669,-0.0012695756285663,0.0012695756307183,-0.0012695756285739,0.0012695756306244,-0.0012695756292146,0.0012695756299326,-0.0012695756286013,0.0012695756306269,-7.2901644081285e-12,7.5931366525344e-12,-0.0013378937608527,0.0013378937611587,1.2313609121811e-13,1.9256655840029e-13,-0.0014011109509984,0.0014011109461652,-0.0014011109507222,0.0014011109459806,-0.0014011109458935,0.0014011109512583,-0.0014011109456498,0.0014011109510526,-0.001269575622046,0.0012695756369291,-0.0012695756366785,0.0012695756224772,0.0036273217250286,0.0034083957004765,0.73243661264444,0.57403413523659,1368840,32768,0.0055588442706654,0.0055588442707079,0.0055588442707266,37.484347848924,37.477061771456,0.00021507478279139,0.00021507478279139,0.00021507478279139,458655.59717319,0.016817310116506
38168046,0.99999835215873,0.016075946455394,0.0053586488184315,0.00535864881847,0.0053586488184924,-0.001337798407463,0.0013377984069176,7.1689531110505e-12,-7.7351514023166e-12,8.1200107627744e-14,-6.3624609253037e-13,-0.0014009594679094,0.0014009594725069,-0.0014009594727868,0.0014009594676164,-0.0014009594682765,0.0014009594723637,-0.0014009594731272,0.0014009594674955,-0.0012695343622213,0.0012695343758783,-0.0012695343766716,0.0012695343613852,2.5031085317526e-13,9.7878080480063e-13,9.3778061615178e-13,8.2885238501094e-13,-0.0013377984066674,0.0013377984077299,-0.0014009594697017,0.0014009594707558,-0.0014009594697493,0.001400959470763,-0.0014009594694317,0.0014009594710636,-0.0014009594694782,0.0014009594709701,-0.0012695343680334,0.001269534370234,-0.0012695343680855,0.0012695343700724,-0.001269534368725,0.0012695343694107,-0.0012695343681311,0.0012695343700742,-7.2736762059494e-12,7.5995310160146e-12,-0.001337798407044,0.0013377984073634,1.0832951413712e-13,2.1716510104935e-13,-0.0014009594727931,0.0014009594679514,-0.0014009594725081,0.0014009594677981,-0.0014009594676767,0.0014009594730412,-0.0014009594674288,0.0014009594728462,-0.0012695343615814,0.0012695343765444,-0.0012695343761241,0.0012695343619426,0.0036268943913292,0.0034083844342454,0.73276089993551,0.58714898968834,1368840,32768,0.0055584493603377,0.0055584493603721,0.0055584493603932,37.378250776417,37.370966974252,0.00021422600621133,0.00021422600621133,0.00021422600621133,455014.65863701,0.016816104883697
38254446,0.99999844565447,0.016075947954747,0.0053586493182159,0.0053586493182544,0.0053586493182769,-0.0013376623912628,0.0013376623907274,7.1760532470874e-12,-7.7205839649889e-12,8.1146403386019e-14,-6.2955747333369e-13,-0.0014007878999979,0.0014007879045966,-0.0014007879048802,0.0014007878997046,-0.0014007879003722,0.0014007879044638,-0.001400787905217,0.0014007878996069,-0.0012694330858011,0.0012694330995096,-0.0012694331002163,0.0012694330850246,2.5860307044194e-13,9.804662827222e-13,9.3557086012889e-13,8.3248850922396e-13,-0.0013376623904722,0.0013376623915341,-0.0014007879018012,0.0014007879028409,-0.0014007879018418,0.0014007879028588,-0.0014007879015345,0.0014007879031496,-0.0014007879015756,0.0014007879030608,-0.0012694330916113,0.0012694330938185,-0.0012694330916945,0.0012694330936387,-0.0012694330923877,0.0012694330930059,-0.0012694330917018,0.0012694330937004,-7.2701361376255e-12,7.5955901069949e-12,-0.0013376623908499,0.0013376623911672,1.136515574347e-13,2.1678467149474e-13,-0.0014007879048838,0.0014007879000436,-0.0014007879046023,0.0014007878998818,-0.0014007878997719,0.0014007879051329,-0.001400787899531,0.0014007879049261,-0.0012694330851578,0.0012694331001028,-0.0012694330997404,0.0012694330855808,0.0036263043925113,0.0034083733700744,0.73315216298115,0.60026384414011,1368840,32768,0.0055578858895279,0.0055578858895612,0.0055578858895835,37.272153567821,37.264872177046,0.00021337722854257,0.00021337722854257,0.00021337722854257,452598.55444232,0.016814385684603
38340846,0.99999853350363,0.016075949364457,0.005358649788119,0.0053586497881575,0.00535864978818,-0.0013375891033976,0.0013375891028563,7.1766129946933e-12,-7.7266576617946e-12,8.3595328573035e-14,-6.4259519268737e-13,-0.0014006782756791,0.0014006782802759,-0.0014006782805589,0.0014006782753827,-0.0014006782760469,0.0014006782801336,-0.001400678280897,0.0014006782752739,-0.0012693946405958,0.0012693946542693,-0.0012693946550149,0.0012693946398058,2.474038537468e-13,9.8463027316221e-13,9.3758797497801e-13,8.2544648905872e-13,-0.0013375891026033,0.0013375891036669,-0.0014006782774771,0.0014006782785251,-0.0014006782775162,0.0014006782785374,-0.0014006782771998,0.0014006782788347,-0.0014006782772458,0.001400678278739,-0.0012693946463992,0.0012693946485781,-0.001269394646486,0.0012693946484009,-0.0012693946471418,0.0012693946477539,-0.0012693946464776,0.0012693946484828,-7.2701156676626e-12,7.6022506094034e-12,-0.00133758910298,0.0013375891033008,1.0878161797271e-13,2.2084854734612e-13,-0.0014006782805609,0.0014006782757283,-0.0014006782802794,0.0014006782755681,-0.0014006782754548,0.0014006782808139,-0.0014006782752069,0.0014006782806133,-0.0012693946399168,0.0012693946548467,-0.0012693946544712,0.0012693946403184,0.0036259759066628,0.0034083625062989,0.73361016252824,0.61337869859187,1368840,32768,0.0055575823377744,0.0055575823378081,0.0055575823378301,37.198724906188,37.1936084,0.0002127897992495,0.0002127897992495,0.0002127897992495,450164.9067322,0.016813459346085
38427246,0.99999861636732,0.016075950714548,0.0053586502381496,0.0053586502381881,0.0053586502382106,-0.0013376482979191,0.0013376482974001,7.1796998415688e-12,-7.7055528359443e-12,6.5055836118274e-14,-6.0110169557934e-13,-0.001400700610167,0.0014007006147622,-0.0014007006150509,0.0014007006098665,-0.001400700610468,0.0014007006146127,-0.0014007006153895,0.001400700609799,-0.0012694885728062,0.0012694885860578,-0.0012694885870543,0.001269488572068,2.7005101483275e-13,9.4674995979154e-13,9.2065460992775e-13,8.3632795075518e-13,-0.0013376482971361,0.0013376482981907,-0.0014007006120053,0.0014007006130034,-0.0014007006119435,0.001400700613035,-0.0014007006116326,0.0014007006133015,-0.0014007006117313,0.0014007006132082,-0.0012694885785369,0.0012694885806322,-0.0012694885785674,0.0012694885806801,-0.0012694885793109,0.0012694885798885,-0.00126948857872,0.0012694885805733,-7.2965823885342e-12,7.558009931514e-12,-0.0013376482975208,0.0013376482978264,1.227534852594e-13,2.0693041371202e-13,-0.0014007006150852,0.0014007006101677,-0.0014007006147238,0.0014007006100315,-0.0014007006099534,0.0014007006153591,-0.0014007006096801,0.0014007006151038,-0.0012694885722711,0.0012694885868114,-0.0012694885864291,0.0012694885724631,0.0036261997316416,0.0034083518452835,0.74493892475064,0.79944244,1368840,32768,0.005557827737645,0.0055578277376609,0.005557827737703,37.194095094411,37.1936084,0.00021275276075528,0.00021275276075528,0.00021275276075528,447716.05320933,0.016814207540267
38513646,0.99999869454702,0.016075951992369,0.0053586506640897,0.0053586506641282,0.0053586506641507,-0.001338522062105,0.0013385220615865,7.1778234871254e-12,-7.7074233670361e-12,6.6176625408343e-14,-5.9650324782347e-13,-0.0014011296116667,0.0014011296162627,-0.001401129616543,0.001401129611377,-0.0014011296120193,0.0014011296161383,-0.0014011296168653,0.0014011296112851,-0.0012707693511217,0.001270769364808,-0.0012707693655398,0.0012707693503696,2.6896498918656e-13,9.4260914511412e-13,9.2640534601141e-13,8.2226779204808e-13,-0.0013385220613312,0.0013385220623765,-0.0014011296134652,0.001401129614513,-0.0014011296135018,0.0014011296145249,-0.0014011296132128,0.0014011296148047,-0.0014011296132508,0.001401129614712,-0.0012707693569616,0.0012707693591312,-0.001270769357047,0.001270769358947,-0.0012707693576706,0.0012707693583459,-0.0012707693570795,0.001270769358977,-7.2621587930926e-12,7.5925040836237e-12,-0.001338522061697,0.001338522062021,1.1464743877591e-13,2.1868746630684e-13,-0.0014011296165429,0.00140112961172,-0.001401129616262,0.0014011296115567,-0.0014011296114372,0.0014011296168033,-0.0014011296111942,0.0014011296165984,-0.001270769350498,0.001270769365406,-0.0012707693650258,0.0012707693508755,0.0036296981615084,0.0034083413813193,0.74728474373172,0.79944244,1368840,32768,0.005561449695164,0.0055614496951975,0.0055614496952188,37.193657587365,37.1936084,0.00021274926069892,0.00021274926069892,0.00021274926069892,421003.50108407,0.016825251804874
38600046,0.99999876830915,0.016075953201667,0.0053586510671892,0.0053586510672276,0.0053586510672501,-0.0013385398931369,0.0013385398926175,7.175179862004e-12,-7.7069802041039e-12,6.7029069954982e-14,-5.9786926491611e-13,-0.0014011322467432,0.0014011322513381,-0.0014011322516186,0.0014011322464537,-0.0014011322470974,0.0014011322512139,-0.001401132251941,0.0014011322463624,-0.0012707925777863,0.0012707925914687,-0.0012707925921987,0.0012707925770128,2.6833400846259e-13,9.4419315554722e-13,9.3557541881316e-13,8.1406048395218e-13,-0.0013385398923617,0.0013385398934078,-0.0014011322485107,0.0014011322495655,-0.0014011322485539,0.0014011322495711,-0.0014011322482586,0.0014011322498569,-0.0014011322483028,0.0014011322497582,-0.0012707925836234,0.0012707925858175,-0.0012707925837332,0.0012707925856216,-0.0012707925843847,0.0012707925850502,-0.0012707925837891,0.0012707925856884,-7.2553867646793e-12,7.5961992354452e-12,-0.0013385398927242,0.0013385398930555,1.0869091486128e-13,2.3002817867939e-13,-0.0014011322515904,0.0014011322467696,-0.0014011322513031,0.0014011322466133,-0.0014011322464862,0.001401132251851,-0.001401132246237,0.001401132251652,-0.001270792577204,0.001270792592143,-0.0012707925917301,0.0012707925775979,0.0036297788147741,0.0034083311113421,0.74929191998864,0.79944244,1368840,32768,0.0055615234185976,0.005561523418629,0.00556152341865,37.193613445586,37.1936084,0.00021274890756469,0.00021274890756469,0.00021274890756469,419549.37773382,0.016825477246833
38686446,0.99999883790348,0.016075954345298,0.0053586514483994,0.0053586514484379,0.0053586514484603,-0.0013385541351614,0.0013385541346428,7.1779626005226e-12,-7.7081437567934e-12,6.6567436998729e-14,-5.9676312223743e-13,-0.0014011343946632,0.0014011343992588,-0.0014011343995391,0.0014011343943738,-0.0014011343950155,0.0014011343991346,-0.001401134399861,0.0014011343942818,-0.0012708104773797,0.0012708104910738,-0.0012708104917963,0.0012708104766141,2.6872770231786e-13,9.4301942669794e-13,9.4326030169232e-13,8.0518766677536e-13,-0.0013385541343873,0.0013385541354325,-0.001401134396437,0.0014011343974973,-0.0014011343964858,0.0014011343974979,-0.0014011343961854,0.0014011343977882,-0.0014011343962351,0.0014011343976844,-0.0012708104832108,0.0012708104854175,-0.0012708104833397,0.0012708104852017,-0.001270810483971,0.0012708104846341,-0.0012708104833742,0.0012708104852697,-7.2543439141847e-12,7.6011956122211e-12,-0.0013385541347466,0.0013385541350835,1.0345328074976e-13,2.4128157019012e-13,-0.0014011343995211,0.0014011343946988,-0.0014011343992283,0.001401134394547,-0.0014011343944151,0.0014011343997813,-0.0014011343941609,0.0014011343995883,-0.0012708104767737,0.0012708104917274,-0.0012708104913096,0.0012708104771843,0.0036298416462678,0.0034083210320534,0.75102768419323,0.79944244,1368840,32768,0.0055615822990687,0.0055615822991012,0.0055615822991225,37.193608920276,37.1936084,0.00021274887136221,0.00021274887136221,0.00021274887136221,418296.29063545,0.016825657311728
38772846,0.99999890356552,0.0160759554265,0.0053586518088002,0.0053586518088387,0.0053586518088612,-0.0013385653947489,0.0013385653942296,7.1768041065021e-12,-7.7078484128748e-12,6.5865164335029e-14,-5.9543445694489e-13,-0.0014011365222216,0.0014011365268166,-0.0014011365271015,0.0014011365219386,-0.0014011365225816,0.0014011365266941,-0.0014011365274141,0.0014011365218499,-0.0012708235347496,0.0012708235484399,-0.0012708235491629,0.0012708235339684,2.7172072853002e-13,9.4399633803044e-13,9.4765204988037e-13,8.055106863191e-13,-0.0013385653939727,0.0013385653950214,-0.0014011365237755,0.0014011365248362,-0.0014011365238113,0.0014011365248258,-0.0014011365235246,0.0014011365251241,-0.0014011365235603,0.0014011365250172,-0.0012708235406524,0.0012708235428769,-0.0012708235407936,0.0012708235426736,-0.0012708235415607,0.0012708235422174,-0.0012708235409372,0.0012708235428409,-7.2510659555006e-12,7.6030464968543e-12,-0.0013385653943317,0.0013385653946737,1.0251854459942e-13,2.4440779821541e-13,-0.0014011365268531,0.0014011365220398,-0.001401136526568,0.0014011365219003,-0.0014011365217503,0.00140113652713,-0.0014011365215001,0.0014011365269382,-0.0012708235343606,0.001270823549311,-0.0012708235488788,0.0012708235347722,0.0036298898507859,0.0034083111403454,0.7525420301579,0.79944244,1368840,32768,0.0055616288451481,0.00556162884518,0.0055616288452034,37.193608454338,37.1936084,0.0002127488676347,0.0002127488676347,0.0002127488676347,417207.48540781,0.016825799673485
38859246,0.99999896551745,0.01607595644843,0.0053586521494434,0.0053586521494818,0.0053586521495043,-0.0013385742084719,0.0013385742079587,7.179562610467e-12,-7.7060201157868e-12,6.8757428919508e-14,-5.9368856910409e-13,-0.0014011377921148,0.0014011377967275,-0.0014011377970087,0.0014011377918428,-0.0014011377924883,0.0014011377965946,-0.0014011377973223,0.0014011377917429,-0.00127083356925,0.0012708335829498,-0.0012708335836773,0.001270833568508,2.7335806086359e-13,9.4673748958426e-13,9.522086459736e-13,8.042594892482e-13,-0.0013385742076945,0.0013385742087479,-0.0014011377937432,0.0014011377948184,-0.0014011377937884,0.0014011377948115,-0.0014011377934922,0.0014011377950974,-0.0014011377935294,0.0014011377949892,-0.0012708335751793,0.0012708335773898,-0.0012708335753108,0.0012708335771692,-0.0012708335760457,0.0012708335767181,-0.0012708335754471,0.0012708335773394,-7.2537319328804e-12,7.6012817860591e-12,-0.0013385742080569,0.0013385742083955,9.9748658629302e-14,2.4738867773983e-13,-0.0014011377968315,0.0014011377920106,-0.0014011377965389,0.0014011377918626,-0.0014011377917178,0.0014011377971037,-0.0014011377914696,0.0014011377969031,-0.0012708335688577,0.0012708335838027,-0.0012708335834007,0.001270833569276,0.0036299261107189,0.0034083014331505,0.75387432871243,0.79944244,1368840,32768,0.0055616652737613,0.0055616652737854,0.0055616652738063,37.193608406295,37.1936084,0.00021274886725036,0.00021274886725036,0.00021274886725036,416240.17528578,0.016825911109197
38880000,0.99999898018778,0.016075956690527,0.0053586522301425,0.005358652230181,0.0053586522302035,-0.0013385808057953,0.0013385808052773,7.1781222427045e-12,-7.7074826593424e-12,6.6535379154544e-14,-5.959384415485e-13,-0.0014011382681138,0.0014011382727092,-0.0014011382729896,0.0014011382678244,-0.0014011382684655,0.0014011382725854,-0.0014011382733109,0.0014011382677329,-0.0012708407331766,0.0012708407468719,-0.0012708407475936,0.0012708407324142,2.6895787175693e-13,9.4239250467351e-13,9.5291594789543e-13,7.9509647505434e-13,-0.0013385808050218,0.0013385808060666,-0.0014011382698843,0.0014011382709512,-0.0014011382699393,0.0014011382709451,-0.0014011382696334,0.0014011382712414,-0.0014011382696891,0.0014011382711311,-0.0012708407389997,0.0012708407412225,-0.0012708407391458,0.0012708407409893,-0.001270840739771,0.0012708407404245,-0.0012708407391731,0.0012708407410601,-7.2507493769366e-12,7.6042988115381e-12,-0.0013385808053774,0.0013385808057213,9.7096122015416e-14,2.5458948717181e-13,-0.0014011382729713,0.0014011382681498,-0.001401138272672,0.0014011382680047,-0.0014011382678657,0.0014011382732323,-0.0014011382676051,0.0014011382730458,-0.0012708407325629,0.001270840747528,-0.0012708407470989,0.0012708407329872,0.0036299593368236,0.0034082991302288,0.75418430222795,0.79944244,1368840,32768,0.0055616925320089,0.0055616925320417,0.005561692532063,37.193608402557,37.1936084,0.00021274886722046,0.00021274886722046,0.00021274886722046,415678.09256155,0.016825994522006
