time,ASR_ext,ASR_strain,ASR_strain_xx,ASR_strain_yy,ASR_strain_zz,disp_x_101,disp_x_102,disp_x_103,disp_x_104,disp_x_105,disp_x_106,disp_x_p1_neg,disp_x_p1_pos,disp_x_p2_neg,disp_x_p2_pos,disp_x_p3_neg,disp_x_p3_pos,disp_x_p4_neg,disp_x_p4_pos,disp_x_p5_neg,disp_x_p5_pos,disp_x_p6_neg,disp_x_p6_pos,disp_y_101,disp_y_102,disp_y_103,disp_y_104,disp_y_105,disp_y_106,disp_y_p1_neg,disp_y_p1_pos,disp_y_p2_neg,disp_y_p2_pos,disp_y_p3_neg,disp_y_p3_pos,disp_y_p4_neg,disp_y_p4_pos,disp_y_p5_neg,disp_y_p5_pos,disp_y_p6_neg,disp_y_p6_pos,disp_y_p7_neg,disp_y_p7_pos,disp_y_p8_neg,disp_y_p8_pos,disp_z_101,disp_z_102,disp_z_103,disp_z_104,disp_z_105,disp_z_106,disp_z_p1_neg,disp_z_p1_pos,disp_z_p2_neg,disp_z_p2_pos,disp_z_p3_neg,disp_z_p3_pos,disp_z_p4_neg,disp_z_p4_pos,disp_z_p5_neg,disp_z_p5_pos,disp_z_p6_neg,disp_z_p6_pos,error,error_ASR,humidity,humidity_bc,ndof,nelem,strain_xx,strain_yy,strain_zz,temp,temp_bc,thermal_strain_xx,thermal_strain_yy,thermal_strain_zz,vonmises,vstrain
2419200,0,0,0,0,0,0,0,0,0,0,0,0,0,0,0,0,0,0,0,0,0,0,0,0,0,0,0,0,0,0,0,0,0,0,0,0,0,0,0,0,0,0,0,0,0,0,0,0,0,0,0,0,0,0,0,0,0,0,0,0,0,0,0,0,0,0,0,0,0,0,0,0,0,0,0,0,0,0,0
2505600,0.0094605373730395,0.00016961035434406,5.6536784781355e-05,5.6536784781355e-05,5.6536784781355e-05,-5.0657200768548e-05,5.0657202107381e-05,4.6724727330624e-11,-4.5414018640257e-11,-1.3600287222767e-12,2.8049001504611e-12,-4.9773195747683e-05,4.9773222588684e-05,-4.9773223226542e-05,4.9773195114736e-05,-4.9773203197505e-05,4.9773235574649e-05,-4.9773232341368e-05,4.9773206421134e-05,-5.1367519207222e-05,5.136762048405e-05,-5.1367617603747e-05,5.1367522099081e-05,-2.2033617505757e-11,-2.6626754243729e-11,-1.1567431473093e-11,-1.1481662433351e-11,-5.0657214608299e-05,5.0657188275332e-05,-4.9773217356593e-05,4.9773210285193e-05,-4.9773219174205e-05,4.977321045216e-05,-4.9773220814886e-05,4.9773208811527e-05,-4.977321894731e-05,4.9773208671347e-05,-5.1367583124546e-05,5.1367549553505e-05,-5.1367559223923e-05,5.1367529669551e-05,-5.136759105921e-05,5.1367524114666e-05,-5.1367587611489e-05,5.1367517300543e-05,-4.6341945596034e-11,4.6113217142355e-11,-5.0657201309927e-05,5.0657201109394e-05,-5.5522085088412e-14,-1.3824071066471e-13,-4.9773231152061e-05,4.9773195084322e-05,-4.9773233993401e-05,4.9773197838337e-05,-4.9773195382627e-05,4.9773231201349e-05,-4.9773197962026e-05,4.9773233732897e-05,-5.1367496194113e-05,-5.1367496194113e-05,5.1367496131642e-05,5.1367594795155e-05,0.00031780921966926,0.00047196312664782,0.81318618503065,0.89000107803867,43648,1000,0.00021104932206083,0.00021104932207688,0.00021104932110976,29.914651169127,31.134358773242,0.00015451720935301,0.00015451720935301,0.00015451720935301,296500.42008291,0.00063334874047016
2592000,0.020823078537823,0.00037243585574767,0.00012414528535112,0.00012414528534943,0.00012414528504712,-7.0293580249513e-05,7.029358123164e-05,4.6470385523386e-11,-4.5690494087504e-11,-1.7206646260533e-12,2.7924926912651e-12,-6.9681065125594e-05,6.968109404087e-05,-6.9681094827714e-05,6.9681064285612e-05,-6.9681064909654e-05,6.968109845274e-05,-6.9681095768565e-05,6.9681067727104e-05,-7.0923163649152e-05,7.0923259575903e-05,-7.0923256397578e-05,7.0923167042842e-05,-6.862620506066e-12,-1.1464553376058e-11,-3.7447399886315e-12,-3.7730882862134e-12,-7.0293585259984e-05,7.0293576110932e-05,-6.9681080876719e-05,6.9681079761156e-05,-6.9681081903549e-05,6.9681079859119e-05,-6.968108343219e-05,6.9681078218826e-05,-6.9681082224341e-05,6.9681078248262e-05,-7.0923216737779e-05,7.0923204020208e-05,-7.0923207991597e-05,7.0923196714223e-05,-7.0923219701847e-05,7.0923194388643e-05,-7.092321987435e-05,7.0923190210383e-05,-4.6216882911099e-11,4.6039995270777e-11,-7.0293580736622e-05,7.0293580452834e-05,-1.926457471576e-13,-1.529104095743e-13,-6.9681096774217e-05,6.9681064914274e-05,-6.9681096305213e-05,6.9681064133727e-05,-6.9681065373078e-05,6.9681096905627e-05,-6.9681064635565e-05,6.9681095884294e-05,-7.0923156370816e-05,-7.0923156370816e-05,7.0923155937648e-05,7.0923248279791e-05,0.00025337149914481,0.0004218138399357,0.81409169400952,0.89156329086603,43648,1000,0.00029284698453241,0.00029284698430281,0.00029284698392488,31.686823256659,31.84244011024,0.00016869458605327,0.00016869458605327,0.00016869458605327,181617.53622664,0.00087892714729527
2678400,0.033299704681221,0.00059543843083893,0.00019847947706414,0.00019847947706045,0.00019847947671434,-8.9654791735755e-05,8.9654792577148e-05,4.6565229570818e-11,-4.5787172027442e-11,-1.3942117680816e-12,2.2925403504954e-12,-8.8974999779945e-05,8.8975029513032e-05,-8.897502992192e-05,8.8974999345381e-05,-8.8975000007756e-05,8.8975032622761e-05,-8.8975030505166e-05,8.8975002145847e-05,-9.0453404285958e-05,9.0453498629798e-05,-9.0453496487383e-05,9.0453406584067e-05,-3.2413813640537e-12,-6.949128995644e-12,-2.4363771218219e-12,-2.5075353082823e-12,-8.965479546148e-05,8.9654788848256e-05,-8.8975016561131e-05,8.8975014199063e-05,-8.8975016971696e-05,8.8975014236381e-05,-8.8975018134941e-05,8.8975013024291e-05,-8.8975017758221e-05,8.8975012956435e-05,-9.0453455608803e-05,9.0453446426078e-05,-9.0453450129143e-05,9.0453441358473e-05,-9.0453455262389e-05,9.0453442292324e-05,-9.0453457133964e-05,9.045343843218e-05,-4.6236601635911e-11,4.6238389459971e-11,-8.9654792118852e-05,8.9654792117209e-05,-3.8894526872432e-14,4.1094441284204e-14,-8.8975031391671e-05,8.8974999849598e-05,-8.8975031071667e-05,8.8974999513981e-05,-8.8974999906483e-05,8.8975031434899e-05,-8.8974999498402e-05,8.8975031029218e-05,-9.0453399820679e-05,-9.0453399820679e-05,9.0453399837502e-05,9.0453492252118e-05,0.00019007327092945,0.0003648944700443,0.81472976693087,0.89127806232602,43648,1000,0.00037349180922489,0.0003734918092183,0.00037349180906486,32.492948607877,32.550521447259,0.00017514358886302,0.00017514358886302,0.00017514358886302,197242.64845519,0.001121103619859
2764800,0.046401605493053,0.0008296049676496,0.00027653498932071,0.00027653498931843,0.00027653498901046,-0.00010903768366325,0.00010903768420177,4.6479674195505e-11,-4.5975934470438e-11,-1.192601405081e-12,1.7870029082878e-12,-0.00010826985828674,0.00010826988804884,-0.00010826988854297,0.00010826985776977,-0.0001082698587921,0.00010826989088067,-0.00010826988932646,0.0001082698603612,-0.00011003895940355,0.00011003905327849,-0.00011003905165294,0.00011003896112981,-3.0282721501292e-12,-6.0249916722578e-12,-2.1040926662663e-12,-2.1929743002581e-12,-0.0001090376868867,0.00010903768097578,-0.00010826987500101,0.0001082698727713,-0.00010826987540802,0.00010826987285153,-0.00010826987633846,0.00010826987189748,-0.00010826987598121,0.00010826987176396,-0.00011003900997833,0.00011003900173084,-0.00011003900471533,0.00011003899693362,-0.00011003900979162,0.0001100389976599,-0.00011003901111184,0.00011003899446749,-4.6277730066966e-11,4.6291211408796e-11,-0.00010903768388688,0.00010903768389275,-4.9470852669997e-14,4.7890399113533e-14,-0.00010826988992354,0.00010826985836601,-0.0001082698896157,0.00010826985808188,-0.00010826985842928,0.00010826988997024,-0.00010826985805354,0.00010826988961781,-0.00011003895474028,-0.00011003895474028,0.00011003895480577,0.00011003904723038,0.0001266705180104,0.00030421456208183,0.81535005280019,0.89099283378791,43648,1000,0.00045422041765712,0.00045422041765184,0.00045422041747931,32.830790998144,32.854492054626,0.00017784632798516,0.00017784632798516,0.00017784632798516,219217.65900872,0.0013635904101129
2851200,0.059639111983193,0.0010661930100796,0.00035539767012239,0.00035539767012094,0.00035539766983629,-0.00012778339275727,0.00012778339306633,4.6404897086512e-11,-4.6125326509554e-11,-1.0289616578394e-12,1.3811756663256e-12,-0.00012693465914853,0.00012693468891231,-0.00012693468944659,0.00012693465859197,-0.00012693465982676,0.00012693469150697,-0.00012693469036732,0.00012693466097879,-0.00012899237209596,0.00012899246558807,-0.00012899246438157,0.0001289923733983,-2.9798188141689e-12,-5.406861919668e-12,-1.8750217708426e-12,-1.9511019907617e-12,-0.00012778339562237,0.00012778339019902,-0.00012693467577738,0.00012693467370064,-0.00012693467614615,0.00012693467378586,-0.00012693467690002,0.00012693467301862,-0.00012693467657425,0.00012693467288847,-0.00012899242213997,0.00012899241460586,-0.00012899241700164,0.0001289924099254,-0.00012899242221705,0.00012899241035289,-0.0001289924230509,0.00012899240771817,-4.6309387925208e-11,4.631712072574e-11,-0.0001277833928787,0.00012778339287927,-4.5697444047982e-14,3.88279406713e-14,-0.00012693469079784,0.00012693465920412,-0.00012693469049734,0.00012693465892227,-0.00012693465926811,0.00012693469083994,-0.0001269346589018,0.00012693469049212,-0.00012899236735313,-0.00012899236735313,0.0001289923674137,0.00012899245985059,6.6094519640094e-05,0.00024270139142954,0.81594538335348,0.89070760524979,43648,1000,0.0005322889939247,0.0005322889939201,0.00053228899378804,32.734663164881,32.729407882756,0.00017707730531905,0.00017707730531905,0.00017707730531905,237390.49039391,0.0015981430642763
2937600,0.072973676685538,0.0013045446052171,0.00043484820182789,0.0004348482018268,0.00043484820156237,-0.00014662187485085,0.00014662187502715,4.6321542349854e-11,-4.6172393773888e-11,-9.1968138230624e-13,1.1299828842103e-12,-0.00014568184950788,0.00014568187924888,-0.00014568187979606,0.00014568184894011,-0.00014568185018219,0.00014568188167539,-0.00014568188078399,0.00014568185108574,-0.00014805448592016,0.00014805457911798,-0.00014805457816488,0.00014805448696199,-2.8433235722401e-12,-4.9124110468616e-12,-1.6512982341195e-12,-1.7261883984823e-12,-0.00014662187739429,0.00014662187248173,-0.00014568186591305,0.00014568186415299,-0.00014568186633325,0.00014568186422058,-0.00014568186697445,0.00014568186357162,-0.00014568186659582,0.00014568186346014,-0.00014805453554163,0.00014805452860873,-0.00014805453050837,0.0001480545240657,-0.00014805453576623,0.0001480545242832,-0.00014805453629478,0.00014805452204873,-4.6280728563599e-11,4.6287557946878e-11,-0.0001466218748767,0.00014662187487625,-4.5172116346382e-14,3.7991280568927e-14,-0.00014568188102749,0.00014568184951874,-0.00014568188073521,0.00014568184924512,-0.00014568184958265,0.00014568188106551,-0.0001456818492249,0.00014568188072777,-0.00014805448117965,-0.00014805448117965,0.00014805448124179,0.00014805457358624,1.1484861780671e-05,0.00018063750462069,0.81651780621378,0.89042237671168,43648,1000,0.00061073778817526,0.00061073778817113,0.00061073778791491,32.612295962871,32.604323710885,0.00017609836770296,0.00017609836770296,0.00017609836770296,256489.99807312,0.001833893426545
3024000,0.086392667184061,0.0015438563603022,0.00051461878685487,0.00051461878685442,0.00051461878659288,-0.00016553593343154,0.00016553593355712,4.6302531893846e-11,-4.6202203914679e-11,-8.6817976446884e-13,1.0237491663422e-12,-0.00016451706833039,0.00016451709808781,-0.00016451709863258,0.0001645170677661,-0.00016451706902796,0.00016451710042338,-0.00016451709963427,0.00016451706982748,-0.00016717507534797,0.00016717516842846,-0.00016717516757957,0.00016717507627941,-2.7478728631938e-12,-4.6601893329442e-12,-1.5379447300795e-12,-1.6048113822021e-12,-0.00016553593582178,0.00016553593116517,-0.00016451708467022,0.00016451708302737,-0.00016451708507858,0.00016451708310005,-0.00016451708567275,0.00016451708249966,-0.00016451708529883,0.00016451708239026,-0.00016717512475927,0.00016717511815464,-0.00016717511981429,0.00016717511370279,-0.0001671751250355,0.00016717511384349,-0.00016717512544902,0.00016717511176852,-4.6280227843602e-11,4.628297768239e-11,-0.00016553593343517,0.00016553593343091,-4.3057853729772e-14,3.2007871446204e-14,-0.00016451709984377,0.0001645170683386,-0.00016451709955358,0.00016451706806242,-0.00016451706840246,0.00016451709987914,-0.00016451706804718,0.0001645170995392,-0.00016717507065497,-0.00016717507065497,0.00016717507071296,0.00016717516302149,5.9167900075512e-05,0.00011843884432323,0.81501127338274,0.87677430802203,43648,1000,0.00068949511437616,0.00068949511437262,0.00068949511412097,32.487479903315,32.479239539015,0.00017509983922652,0.00017509983922652,0.00017509983922652,267513.40878246,0.0020706267881156
3110400,0.099886984967378,0.0017833277406597,0.00059444258030645,0.00059444258030627,0.00059444258004696,-0.00018447469659773,0.00018447469671087,4.6309597633875e-11,-4.6220562228845e-11,-8.2759016621791e-13,9.6951873480933e-13,-0.00018340389101903,0.000183403920848,-0.00018340392137676,0.00018340389051779,-0.00018340389172858,0.00018340392308355,-0.00018340392236122,0.00018340389247908,-0.00018627235304857,0.00018627244609142,-0.0001862724452645,0.00018627235390698,-2.6672852809714e-12,-4.48597922112e-12,-1.4527948938485e-12,-1.5246232988048e-12,-0.00018447469888923,0.0001844746944185,-0.00018340390735749,0.00018340390579535,-0.00018340390778364,0.00018340390586231,-0.00018340390833361,0.00018340390526416,-0.00018340390793111,0.00018340390516915,-0.00018627240229444,0.00018627239596566,-0.00018627239744593,0.00018627239156439,-0.00018627240260637,0.00018627239165808,-0.00018627240297262,0.00018627238968484,-4.6278864528632e-11,4.6296545238499e-11,-0.00018447469659797,0.00018447469660334,-3.8271783029182e-14,4.180927422596e-14,-0.00018340392255186,0.00018340389108842,-0.00018340392227477,0.00018340389081015,-0.00018340389109233,0.00018340392264673,-0.0001834038908157,0.00018340392225895,-0.00018627234837147,-0.00018627234837147,0.00018627234845465,0.00018627244076222,0.00012071705543535,5.7146208335063e-05,0.81109418195196,0.84958561210054,43648,1000,0.00076834910374068,0.00076834910373885,0.00076834910351734,32.362422852452,32.354155367144,0.00017409938281962,0.00017409938281962,0.00017409938281962,265409.68674938,0.002307706716708
3196800,0.11344820867881,0.0020229807758067,0.00067432692535429,0.00067432692535403,0.00067432692509833,-0.00020343769343731,0.00020343769352742,4.6308805871298e-11,-4.6245728342391e-11,-7.9933752931658e-13,9.1149998518348e-13,-0.00020233789961987,0.00020233792942321,-0.00020233792993402,0.00020233789908064,-0.00020233790032707,0.00020233793165352,-0.00020233793094109,0.0002023379010392,-0.0002053483455024,0.00020534843848477,-0.00020534843773969,0.000205348346304,-2.5968514253244e-12,-4.3302955139151e-12,-1.3804046972311e-12,-1.4452262574181e-12,-0.00020343769564072,0.00020343769132507,-0.00020233791589681,0.00020233791440771,-0.0002023379163012,0.00020233791447257,-0.00020233791683064,0.00020233791391954,-0.00020233791646214,0.00020233791381992,-0.00020534839465183,0.00020534838850464,-0.00020534838985876,0.00020534838419044,-0.00020534839497167,0.00020534838422623,-0.0002053483952633,0.00020534838234796,-4.6290545373996e-11,4.629747658137e-11,-0.00020343769342446,0.00020343769342242,-3.996774960092e-14,3.2921718528803e-14,-0.00020233793114931,0.0002023378996426,-0.00020233793085596,0.00020233789936757,-0.00020233789969744,0.00020233793118824,-0.00020233789934696,0.00020233793083889,-0.0002053483408993,-0.0002053483408993,0.00020534834095381,0.00020534843325077,0.00018281968643082,1.9969896643631e-05,0.80753271560431,0.82666567875123,43648,1000,0.00084729777310861,0.00084729777311082,0.00084729777286329,32.237341033323,32.229071195273,0.00017309872826659,0.00017309872826659,0.00017309872826659,254129.14719129,0.0025451274647019
3283200,0.12706686151903,0.0022605466673599,0.00075351555587213,0.00075351555587079,0.00075351555561696,-0.00022223283631852,0.00022223283635912,4.6265996223221e-11,-4.6246172872928e-11,-7.4724118700055e-13,8.1108137643246e-13,-0.00022118112840138,0.00022118115819628,-0.0002211811587154,0.00022118112786842,-0.00022118112916288,0.00022118116036836,-0.00022118115977473,0.00022118112976644,-0.00022413199870569,0.00022413209153956,-0.00022413209088604,0.00022413199942397,-2.5609929840105e-12,-4.1437703591893e-12,-1.3005646987883e-12,-1.3770870302012e-12,-0.00022223283842054,0.00022223283425499,-0.00022118114464769,0.00022118114319306,-0.00022118114504777,0.00022118114324997,-0.00022118114553056,0.00022118114276021,-0.00022118114517212,0.0002211811426578,-0.00022413204767417,0.00022413204177804,-0.00022413204297066,0.00022413203752373,-0.00022413204809074,0.00022413203750277,-0.00022413204826291,0.00022413203575628,-4.6263413496974e-11,4.6271011459715e-11,-0.00022223283627574,0.0002222328362764,-4.4248604117871e-14,4.0086554795032e-14,-0.00022118115990582,0.00022118112841147,-0.0002211811596071,0.00022118112813743,-0.00022118112846959,0.00022118115994203,-0.00022118112811336,0.00022118115960252,-0.00022413199415521,-0.00022413199415521,0.00022413199422773,0.00022413208643667,0.00024437994440126,7.3098727752722e-05,0.79661396904953,0.76479338888033,43648,1000,0.00092554149549129,0.0009255414954869,0.00092554149523009,32.11226057142,32.103987023403,0.00017209808457136,0.00017209808457136,0.00017209808457136,214683.18457003,0.0027804836163282
3369600,0.14073601131878,0.002497415289472,0.00083247176324252,0.00083247176324172,0.00083247176298781,-0.00024098050127114,0.00024098050130679,4.6262189457162e-11,-4.6243602701445e-11,-7.1719388433678e-13,7.7700546889864e-13,-0.00024001413178549,0.00024001416159088,-0.00024001416209736,0.00024001413125474,-0.00024001413254611,0.000240014163729,-0.00024001416316234,0.00024001413312918,-0.00024279206893332,0.00024279216174724,-0.00024279216110078,0.00024279206963829,-2.5369495420506e-12,-4.0574269307453e-12,-1.2685833118271e-12,-1.3404883872352e-12,-0.00024098050333278,0.00024098049924328,-0.00024001414801019,0.00024001414658656,-0.00024001414841458,0.00024001414664488,-0.00024001414887735,0.00024001414616605,-0.00024001414851804,0.00024001414607032,-0.00024279211780323,0.00024279211201332,-0.0002427921131786,0.00024279210782686,-0.00024279211830125,0.00024279210777888,-0.00024279211838935,0.00024279210609607,-4.6255955835095e-11,4.6255325766108e-11,-0.00024098050123039,0.00024098050122266,-4.9360609714315e-14,3.0312522502657e-14,-0.0002400141632894,0.00024001413179174,-0.00024001416299003,0.00024001413152092,-0.00024001413185434,0.00024001416332528,-0.00024001413150302,0.00024001416297778,-0.00024279206439637,-0.00024279206439637,0.00024279206447491,0.00024279215663381,0.00030589006948866,0.00013427860415515,0.79051537626308,0.73261215393987,43648,1000,0.0010035814838793,0.0010035814838754,0.0010035814836194,31.987176521027,31.978902851532,0.00017109741216821,0.00017109741216821,0.00017109741216821,168697.6401155,0.0030152819232809
3456000,0.1544453985804,0.0027333505410908,0.0009111168471154,0.00091111684711599,0.00091111684685936,-0.00025963291100613,0.00025963291101859,4.6258487312907e-11,-4.6265852477612e-11,-6.9619795221868e-13,7.2991531923509e-13,-0.00025880092257028,0.00025880095238678,-0.00025880095289018,0.00025880092205203,-0.00025880092334649,0.00025880095449057,-0.00025880095396659,0.00025880092387951,-0.00026127741924179,0.00026127751200021,-0.00026127751142022,0.00026127741988577,-2.5040885385787e-12,-3.9573502233142e-12,-1.2453109933687e-12,-1.3136393618663e-12,-0.00025963291302232,0.0002596329090012,-0.00025880093880207,0.00025880093737637,-0.00025880093920015,0.00025880093743311,-0.00025880093964352,0.0002588009369812,-0.0002588009392794,0.00025880093688746,-0.0002612774680747,0.00026127746238098,-0.00026127746348892,0.0002612774582262,-0.00026127746853645,0.00026127745815352,-0.00026127746863028,0.00026127745654004,-4.625789820958e-11,4.6261806645327e-11,-0.00025963291095177,0.00025963291094749,-4.278381430737e-14,3.3505685983116e-14,-0.00025880095406362,0.00025880092256558,-0.00025880095377429,0.00025880092230044,-0.00025880092262919,0.00025880095409478,-0.00025880092228403,0.00025880095376264,-0.00026127741476784,-0.00026127741476784,0.0002612774148315,0.00026127750699104,0.00036713546220549,0.00019592855785017,0.7841768817839,0.70043091899941,43648,1000,0.0010812189249572,0.0010812189249547,0.0010812189246961,31.862091819869,31.853818679662,0.00017009673455895,0.00017009673455895,0.00017009673455895,134727.83972716,0.003248923601019
3542400,0.16832456329244,0.0029705154248219,0.0009901718083592,0.00099017180836018,0.0009901718081025,-0.00027862075627399,0.00027862075627742,4.6263939094888e-11,-4.6278651395437e-11,-6.760427297116e-13,6.9781459400786e-13,-0.00027796331319698,0.00027796334303966,-0.00027796334353254,0.0002779633126898,-0.00027796331398042,0.00027796334510915,-0.00027796334461435,0.00027796331448556,-0.00028001953335334,0.0002800196261025,-0.00028001962554679,0.0002800195339713,-2.4651876019756e-12,-3.8631675417069e-12,-1.2180043643322e-12,-1.288362634053e-12,-0.00027862075825292,0.0002786207542976,-0.00027796332942402,0.00027796332801864,-0.00027796332982153,0.00027796332807944,-0.00027796333024566,0.00027796332764751,-0.00027796332988591,0.00027796332754818,-0.000280019582143,0.00028001957654353,-0.00028001957759896,0.00028001957242032,-0.00028001958259829,0.00028001957234078,-0.00028001958267992,0.00028001957078247,-4.6266827116955e-11,4.627032071611e-11,-0.00027862075622862,0.00027862075622466,-4.3914048161855e-14,3.4488019944076e-14,-0.00027796334470567,0.00027796331322322,-0.00027796334441743,0.00027796331295715,-0.0002779633132841,0.00027796334473653,-0.00027796331293802,0.00027796334440717,-0.0002800195289365,-0.0002800195289365,0.00028001952900418,0.00028001962114608,0.00042990842846796,0.0002583001496695,0.77763600805858,0.66824968405895,43648,1000,0.0011602463704484,0.0011602463704466,0.0011602463702442,31.866079403498,31.866037091772,0.00017012863522798,0.00017012863522798,0.00017012863522798,122813.59295715,0.0034868042341998
3628800,0.18250124659532,0.0032114042285872,0.0010704680762819,0.001070468076283,0.0010704680760223,-0.00029815067241481,0.00029815067239245,4.6236434538075e-11,-4.6278696879342e-11,-6.6154315795769e-13,6.5712820459619e-13,-0.00029770537049006,0.00029770540027704,-0.00029770540077665,0.00029770536997604,-0.00029770537127571,0.00029770540240846,-0.00029770540195649,0.00029770537173908,-0.00029924792156492,0.00029924801420073,-0.00029924801369424,0.00029924792213626,-2.5000981237185e-12,-3.8421055968996e-12,-1.2447513266426e-12,-1.3227480100739e-12,-0.0002981506743906,0.00029815067041576,-0.00029770538669282,0.00029770538530598,-0.00029770538714719,0.00029770538531963,-0.00029770538755062,0.00029770538490937,-0.00029770538713928,0.00029770538485003,-0.00029924797032979,0.00029924796469333,-0.00029924796578379,0.00029924796053084,-0.00029924797076258,0.00029924796047425,-0.00029924797082661,0.00029924795894818,-4.6239963040575e-11,4.6244677970067e-11,-0.0002981506723527,0.00029815067235024,-4.6243932867829e-14,4.0077944763945e-14,-0.00029770540197755,0.00029770537050434,-0.00029770540167252,0.00029770537022868,-0.00029770537056718,0.00029770540200688,-0.00029770537020675,0.00029770540166563,-0.00029924791711525,-0.00029924791711525,0.000299247917181,0.00029924800927499,0.00049507283423002,0.00032212596992958,0.77310750728346,0.64735214500615,43648,1000,0.0012415233930275,0.0012415233930256,0.0012415233928104,32.003200464018,32.011945666728,0.00017122560371214,0.00017122560371214,0.00017122560371214,123892.33935558,0.0037315151833486
3715200,0.19696257863478,0.0034569806522583,0.0011523268841712,0.0011523268841722,0.0011523268839149,-0.00031806723132473,0.00031806723128889,4.6322608905507e-11,-4.6378776380805e-11,-6.5639566815114e-13,6.3821234128635e-13,-0.00031784577942073,0.00031784580931454,-0.00031784580982366,0.00031784577889784,-0.00031784578015347,0.00031784581135677,-0.00031784581092261,0.00031784578059948,-0.00031887306763989,0.00031887316035116,-0.00031887315986255,0.00031887306818603,-2.4832165806145e-12,-3.8055354346812e-12,-1.2047249244217e-12,-1.2767605914286e-12,-0.00031806723323076,0.00031806722938178,-0.00031784579554775,0.00031784579431652,-0.00031784579601547,0.00031784579437487,-0.00031784579641715,0.0003178457939691,-0.00031784579598775,0.00031784579386766,-0.00031887311635678,0.00031887311088944,-0.00031887311181212,0.00031887310677987,-0.00031887311697632,0.00031887310655661,-0.00031887311697413,0.0003188731051895,-4.6300971787094e-11,4.6304138565351e-11,-0.00031806723122803,0.00031806723122321,-4.5578239968996e-14,3.4963181898793e-14,-0.00031784581086424,0.00031784577929238,-0.00031784581062479,0.000317845779078,-0.00031784577935511,0.00031784581089549,-0.00031784577905911,0.00031784581061375,-0.00031887306312165,-0.00031887306312165,0.00031887306318667,0.00031887315546827,0.00056198255372514,0.00038768832513452,0.77386724652234,0.65446358265355,43648,1000,0.0013244026770769,0.0013244026770747,0.0013244026767391,32.148282489933,32.157854241684,0.00017238625991946,0.00017238625991946,0.00017238625991946,157130.0478119,0.0039811117668091
3801600,0.21169937513052,0.0037071131256323,0.0012357043753004,0.0012357043753009,0.001235704375031,-0.00033836403544102,0.00033836403537971,4.6437127112937e-11,-4.6517103522653e-11,-6.3898709702986e-13,5.9165927815636e-13,-0.00033837282423792,0.00033837285425171,-0.00033837285476643,0.00033837282370995,-0.00033837282522803,0.00033837285648989,-0.00033837285609993,0.00033837282562987,-0.0003388911706448,0.00033889126368749,-0.00033889126324087,0.00033889117115727,-2.6735961175915e-12,-3.9331907848978e-12,-1.2404509653686e-12,-1.3204005523754e-12,-0.00033836403746265,0.00033836403335686,-0.00033837284071115,0.00033837283912601,-0.0003383728411786,0.00033837283920196,-0.00033837284155951,0.0003383728388198,-0.00033837284113591,0.00033837283869673,-0.00033889121958144,0.00033889121394152,-0.00033889121492794,0.00033889120981869,-0.00033889122034692,0.00033889120948065,-0.00033889122017267,0.00033889120818893,-4.6450865274128e-11,4.6456639487435e-11,-0.00033836403535395,0.00033836403535176,-4.7725056738159e-14,4.0789320090741e-14,-0.0003383728559999,0.00033837282429032,-0.00033837285573736,0.00033837282405627,-0.00033837282435229,0.00033837285603086,-0.00033837282403281,0.00033837285572974,-0.00033889116614515,-0.00033889116614515,0.00033889116621872,0.00033889125872228,0.00063060787412423,0.0004549108400218,0.77464129880403,0.66157502030094,43648,1000,0.0014088572042769,0.0014088572042743,0.0014088572040376,32.294105541605,32.30376281664,0.00017355284433284,0.00017355284433284,0.00017355284433284,217598.25972641,0.0042355162046136
3888000,0.22670079471487,0.0039616570782358,0.0013205523595013,0.0013205523595015,0.001320552359233,-0.00035902093680958,0.00035902093670408,4.6295681698703e-11,-4.6422311124378e-11,-6.2391511629206e-13,5.3197705728959e-13,-0.00035926949293486,0.00035926952278031,-0.0003592695233074,0.00035926949239265,-0.0003592694938733,0.00035926952489568,-0.00035926952457783,0.00035926949420214,-0.0003592795382009,0.00035927963093482,-0.00035927963055971,0.00035927953863842,-2.964943775944e-12,-4.1363170501181e-12,-1.4975931613216e-12,-1.567278672183e-12,-0.00035902093902776,0.00035902093448447,-0.00035926950946914,0.00035926950755329,-0.00035926950987677,0.00035926950758854,-0.00035926951023058,0.0003592695072322,-0.00035926950986002,0.00035926950715769,-0.00035927958722794,0.00035927958108262,-0.00035927958257058,0.00035927957688015,-0.00035927958796862,0.00035927957651331,-0.00035927958776417,0.00035927957523132,-4.6338895363849e-11,4.6340693389803e-11,-0.00035902093669716,0.00035902093669136,-4.5449846832495e-14,3.2964838535046e-14,-0.00035926952451848,0.00035926949293893,-0.00035926952423797,0.00035926949267871,-0.00035926949299851,0.00035926952455097,-0.00035926949266428,0.0003592695242268,-0.00035927953354999,-0.00035927953354999,0.00035927953361016,0.00035927962597187,0.00070086353199254,0.00052372890139073,0.77543098831755,0.66868645794834,43648,1000,0.0014948027496571,0.0014948027496541,0.0014948027493967,32.440001930155,32.449671391595,0.00017472001544124,0.00017472001544124,0.00017472001544124,274370.37446032,0.0044944783116415
3974400,0.2419546591778,0.004220448255429,0.0014068160852321,0.0014068160852317,0.0014068160849652,-0.00038002421983897,0.00038002421964573,4.5810959447811e-11,-4.6023189287865e-11,-5.6945539764614e-13,3.8559157338329e-13,-0.00038052136719694,0.0003805213966199,-0.00038052139716302,0.00038052136663936,-0.00038052136804088,0.00038052139843777,-0.0003805213982796,0.00038052136821008,-0.00038002308798766,0.00038002317978908,-0.00038002317956927,0.00038002308827694,-3.2471459930953e-12,-4.2008750632092e-12,-1.6633288629156e-12,-1.7191680688309e-12,-0.00038002422215239,0.00038002421733066,-0.00038052138353365,0.00038052138149287,-0.00038052138380759,0.00038052138146223,-0.00038052138409542,0.00038052138117834,-0.00038052138384937,0.00038052138117857,-0.00038002313668839,0.00038002313022772,-0.00038002313199316,0.00038002312594917,-0.00038002313756623,0.00038002312545212,-0.0003800231371846,0.00038002312432296,-4.5917990553084e-11,4.5914919749837e-11,-0.00038002421968722,0.00038002421967675,-4.0858457684517e-14,2.396417232275e-14,-0.0003805213982981,0.00038052136714054,-0.00038052139796851,0.00038052136682143,-0.00038052136719777,0.00038052139832875,-0.00038052136681748,0.00038052139794874,-0.00038002308316258,-0.00038002308316258,0.00038002308321233,0.00038002317481874,0.00077269190551734,0.0005940787775836,0.77623750548707,0.67579789559573,43648,1000,0.001582181869973,0.0015821818699695,0.0015821818697218,32.58590569818,32.595579966551,0.00017588724558544,0.00017588724558544,0.00017588724558544,323674.93624051,0.0047578284315931
4060800,0.25744769230016,0.004483316272458,0.0014944387575744,0.0014944387575737,0.0014944387573099,-0.00040135982342725,0.00040135982317947,4.5080044291473e-11,-4.5346120265976e-11,-5.5461388045607e-13,3.1065612731561e-13,-0.00040211361705294,0.00040211364600535,-0.00040211364657622,0.00040211361646767,-0.0004021136180763,0.00040211364762151,-0.00040211364753913,0.00040211361816846,-0.00040110668005207,0.00040110677025026,-0.00040110677009973,0.00040110668026197,-3.0556589752452e-12,-3.9241914421745e-12,-1.4266569313159e-12,-1.485670577019e-12,-0.00040135982551132,0.00040135982109362,-0.00040211363309921,0.000402113631269,-0.00040211363309594,0.00040211363129304,-0.00040211363335698,0.00040211363103656,-0.0004021136333903,0.00040211363098083,-0.00040110672761159,0.00040110672185324,-0.00040110672302487,0.00040110671739984,-0.00040110672861827,0.00040110671698961,-0.00040110672824685,0.00040110671582736,-4.5253163370451e-11,4.5253935074818e-11,-0.00040135982332239,0.00040135982331317,-4.3069868068624e-14,2.4893261586769e-14,-0.00040211364791267,0.00040211361686607,-0.00040211364755289,0.00040211361651676,-0.00040211361692274,0.0004021136479441,-0.00040211361650996,0.00040211364753417,-0.00040110667517084,-0.00040110667517084,0.00040110667523437,0.00040110676548474,0.00084603443658172,0.00066589864172931,0.77706194176724,0.68290933324313,43648,1000,0.0016709356991873,0.0016709356991836,0.0016709356992472,32.731810222382,32.741488541507,0.00017705448177906,0.00017705448177906,0.00017705448177906,365379.20726703,0.0050253924940414
4147200,0.27316526333316,0.0047500670472616,0.0015833556824937,0.0015833556824929,0.001583355682275,-0.00042301183383554,0.00042301183355175,4.4432305505919e-11,-4.4738205778523e-11,-5.5712762719224e-13,2.7934426034224e-13,-0.00042402910304257,0.0004240291316037,-0.00042402913220244,0.00042402910242939,-0.00042402910404662,0.0004240291334937,-0.00042402913345484,0.00042402910409748,-0.00042251385595066,0.00042251394495384,-0.00042251394486173,0.00042251385611042,-2.8685073984798e-12,-3.7132502980464e-12,-1.2940943266007e-12,-1.3246060783112e-12,-0.00042301183572787,0.00042301183165744,-0.00042402911873764,0.00042402911715623,-0.00042402911906563,0.00042402911722212,-0.00042402911932852,0.00042402911696435,-0.00042402911900996,0.00042402911688569,-0.00042251390285008,0.00042251389727264,-0.0004225138981309,0.00042251389297461,-0.00042251390374698,0.00042251389247285,-0.00042251390324616,0.00042251389145986,-4.4626891693798e-11,4.4613633664998e-11,-0.00042301183366364,0.0004230118336431,-3.417427952863e-14,5.6553125282019e-15,-0.00042402913345707,0.00042402910306733,-0.00042402913310076,0.00042402910270214,-0.00042402910312484,0.00042402913348943,-0.00042402910271637,0.00042402913306157,-0.00042251385107945,-0.00042251385107945,0.00042251385111028,0.00042251394010739,0.00092082520020224,0.00073912106049715,0.77790532413521,0.69002077089052,43648,1000,0.0017609976807744,0.0017609976807703,0.0017609976806069,32.877714836643,32.887397116463,0.00017822171869314,0.00017822171869314,0.00017822171869314,399985.47738839,0.005296973097688
4233600,0.28909140680592,0.0050204820219513,0.0016734940073886,0.001673494007387,0.0016734940071757,-0.00044496240213826,0.0004449624018375,4.4055893622691e-11,-4.4376757644045e-11,-5.7323545863846e-13,2.7882296744385e-13,-0.00044624865407121,0.00044624868236435,-0.00044624868298869,0.00044624865343307,-0.00044624865505484,0.00044624868427326,-0.00044624868424638,0.0004462486550941,-0.00044422652505803,0.0004442266133376,-0.00044422661325134,0.00044422652520802,-2.8851565516243e-12,-3.7443986994253e-12,-1.311273220915e-12,-1.3352602013645e-12,-0.00044496240403282,0.00044496239994069,-0.00044624866962636,0.00044624866805893,-0.00044624866996491,0.00044624866811286,-0.0004462486702351,0.0004462486678478,-0.00044624866990369,0.00044624866778526,-0.00044422657160924,0.00044422656596438,-0.0004442265668551,0.00044422656169085,-0.00044422657248614,0.00044422656118048,-0.00044422657198834,0.00044422656016187,-4.4257074998797e-11,4.4243059610781e-11,-0.00044496240194804,0.00044496240192531,-3.1850549046413e-14,1.5742460255116e-15,-0.00044624868418668,0.00044624865401628,-0.00044624868386668,0.0004462486536835,-0.00044624865407603,0.00044624868421809,-0.00044624865370342,0.00044624868382271,-0.00044422652016046,-0.00044422652016046,0.00044422652019184,0.00044422660845734,0.00099699043921174,0.00081367181343913,0.77876864740975,0.69713220853792,43648,1000,0.0018522932288892,0.0018522932288845,0.0018522932286762,33.023619476096,33.033305691418,0.00017938895580877,0.00017938895580877,0.00017938895580877,428049.55760623,0.0055723484520244
4320000,0.30529665821583,0.0052957592624062,0.0017652530875414,0.0017652530875395,0.0017652530873254,-0.0004674569045761,0.00046745690427192,4.3792125357101e-11,-4.4115888613415e-11,-6.0048027338689e-13,3.0408410749807e-13,-0.00046901547034037,0.00046901549842424,-0.00046901549906882,0.00046901546968078,-0.00046901547129339,0.00046901550033737,-0.00046901550029788,0.0004690154713447,-0.00046648953092333,0.00046648961871231,-0.00046648961862123,0.0004664895310941,-2.8688369766467e-12,-3.7787346210747e-12,-1.3010397908922e-12,-1.3540565021504e-12,-0.00046745690646923,0.00046745690237649,-0.00046901548576887,0.0004690154842434,-0.00046901548610851,0.00046901548427858,-0.00046901548638586,0.00046901548400789,-0.00046901548607128,0.00046901548394487,-0.00046648957723828,0.00046648957159808,-0.00046648957248896,0.00046648956728114,-0.00046648957809711,0.0004664895667978,-0.00046648957765126,0.00046648956572962,-4.4001669676254e-11,4.3991376902456e-11,-0.00046745690438182,0.0004674569043665,-4.1176889133125e-14,2.0951279070453e-14,-0.00046901550026635,0.00046901547026852,-0.00046901549993228,0.00046901546993943,-0.00046901547032867,0.00046901550029676,-0.00046901546994192,0.00046901549990592,-0.00046648952601721,-0.00046648952601721,0.00046648952605723,0.00046648961383352,0.0010755549978089,0.00088994912619889,0.77951493693984,0.70348514477375,43648,1000,0.0019458424201502,0.0019458424201454,0.0019458424199429,33.247333495155,33.262008724157,0.00018117866796124,0.00018117866796124,0.00018117866796124,449998.67365718,0.0058545997716636
4406400,0.32184694404023,0.0055769060617468,0.0018589686873216,0.0018589686873199,0.0018589686871054,-0.00049056715735198,0.00049056715703039,4.3592001661919e-11,-4.3934555167733e-11,-6.1196215791732e-13,2.9737360661691e-13,-0.00049240760963471,0.00049240763760207,-0.00049240763826498,0.00049240760895774,-0.00049240761061355,0.00049240763950809,-0.00049240763948281,0.00049240761065058,-0.00048936678248973,0.00048936686986941,-0.00048936686978803,0.00048936678264024,-2.8263733327054e-12,-3.7388870883895e-12,-1.2443652428489e-12,-1.29837857072e-12,-0.00049056715918097,0.00049056715519911,-0.00049240762494955,0.00049240762353494,-0.00049240762527951,0.00049240762359557,-0.00049240762555661,0.00049240762332359,-0.00049240762525253,0.00049240762323435,-0.00048936682852078,0.00048936682300809,-0.00048936682378724,0.00048936681866851,-0.00048936682939283,0.00048936681819122,-0.0004893668289552,0.00048936681710435,-4.3811529205503e-11,4.380455228629e-11,-0.00049056715715934,0.00049056715714475,-4.2229952550996e-14,2.0819106637642e-14,-0.00049240763945484,0.00049240760958991,-0.00049240763911936,0.00049240760926064,-0.00049240760965014,0.00049240763948517,-0.00049240760926283,0.00049240763909381,-0.00048936677754566,-0.00048936677754566,0.0004893667775904,0.00048936686499872,0.0011568211991391,0.00096829024740023,0.77983928060473,0.70739061052005,43648,1000,0.0020419432440702,0.0020419432440655,0.0020419432439075,33.545029390333,33.564636008293,0.00018356023512266,0.00018356023512266,0.00018356023512266,468209.15874308,0.0061446322691732
4492800,0.33872789441921,0.0058637102853568,0.0019545700951888,0.0019545700951869,0.001954570094981,-0.00051413983676727,0.00051413983643974,4.3453437762598e-11,-4.3802365279573e-11,-6.297781577684e-13,3.097800217271e-13,-0.00051627476783715,0.00051627479569313,-0.00051627479637497,0.00051627476714126,-0.00051627476881306,0.00051627479762736,-0.00051627479759478,0.00051627476885732,-0.00051270296789015,0.00051270305501156,-0.00051270305492482,0.00051270296804556,-2.9471918770759e-12,-3.8952366943693e-12,-1.3744694594309e-12,-1.4293052254124e-12,-0.00051413983872772,0.00051413983447692,-0.00051627478323239,0.00051627478156294,-0.00051627478356059,0.00051627478161632,-0.00051627478384947,0.00051627478133198,-0.0005162747835476,0.00051627478124957,-0.00051270301393087,0.00051270300814619,-0.00051270300917843,0.00051270300379875,-0.00051270301479738,0.00051270300332971,-0.00051270301436804,0.00051270300222056,-4.3674606483987e-11,4.3667891836173e-11,-0.0005141398365591,0.0005141398365446,-4.2681181413323e-14,2.1152508217158e-14,-0.00051627479755698,0.00051627476778334,-0.0005162747972128,0.00051627476744562,-0.00051627476784423,0.00051627479758809,-0.00051627476744714,0.00051627479718709,-0.00051270296293154,-0.00051270296293154,0.00051270296297758,0.00051270305011681,0.0012401515403539,0.0010486255104557,0.78017869185144,0.71129607626636,43648,1000,0.0021399574812206,0.0021399574812157,0.0021399574810058,33.847175965886,33.86726329243,0.00018597740772709,0.00018597740772709,0.00018597740772709,483761.45225996,0.0064405256391725
4579200,0.35591815812052,0.0061558360904184,0.0020519453635447,0.0020519453635427,0.002051945363331,-0.00053814333541368,0.00053814333508915,4.3441981053769e-11,-4.3788436969779e-11,-6.5319401595942e-13,3.3727146129425e-13,-0.0005405822314217,0.00054058225924861,-0.00054058225994509,0.00054058223071121,-0.00054058223238044,0.00054058226122813,-0.00054058226117503,0.00054058223244521,-0.00053646789436732,0.00053646798148944,-0.00053646798138272,0.00053646789454293,-2.9514383355848e-12,-3.9514656972001e-12,-1.3853268115698e-12,-1.4407792057725e-12,-0.00053814333738792,0.00053814333311245,-0.00054058224679263,0.00054058224514798,-0.00054058224714437,0.00054058224519718,-0.00054058224744961,0.00054058224489538,-0.00054058224712446,0.00054058224481681,-0.00053646794042197,0.00053646793458275,-0.00053646793565497,0.00053646793024791,-0.00053646794127386,0.00053646792978695,-0.0005364679408861,0.00053646792863294,-4.365389180063e-11,4.3647235268688e-11,-0.00053814333520603,0.00053814333519157,-4.2964628636558e-14,2.1452888746622e-14,-0.00054058226112225,0.00054058223134647,-0.00054058226078764,0.00054058223101849,-0.0005405822314077,0.0005405822611538,-0.00054058223101993,0.00054058226076211,-0.00053646788941853,-0.00053646788941853,0.00053646788946446,0.00053646797656132,0.0013254158206095,0.0011308438825374,0.78053356991546,0.71520154201266,43648,1000,0.0022397531662566,0.0022397531662515,0.0022397531660379,34.149738740725,34.169890576566,0.0001883979099258,0.0001883979099258,0.0001883979099258,496134.86546705,0.0067418864340766
4665600,0.37339362836612,0.0064529036183818,0.0021509678728669,0.0021509678728647,0.0021509678726502,-0.00056254650708107,0.0005625465067592,4.3447178042064e-11,-4.3791416819923e-11,-6.7224858091436e-13,3.5992023997785e-13,-0.00056529748713197,0.00056529751494954,-0.00056529751565744,0.00056529748641003,-0.00056529748807779,0.00056529751694711,-0.00056529751687736,0.00056529748815919,-0.0005606311737178,0.0005606312608667,-0.00056063126074341,0.00056063117391002,-2.9501771976411e-12,-3.9923037437434e-12,-1.3971940078586e-12,-1.4530781829884e-12,-0.00056254650906915,0.00056254650476859,-0.00056529750249996,0.00056529750085341,-0.0005652975028546,0.00056529750090237,-0.00056529750317291,0.00056529750058652,-0.00056529750284505,0.00056529750050801,-0.00056063121980226,0.00056063121392415,-0.00056063121502739,0.00056063120958625,-0.00056063122063549,0.00056063120914427,-0.00056063122028153,0.0005606312079499,-4.3658620200298e-11,4.3652043945316e-11,-0.00056254650687402,0.00056254650685959,-4.3186592443951e-14,2.1631883278462e-14,-0.00056529751683015,0.00056529748705145,-0.00056529751649483,0.00056529748672279,-0.00056529748711289,0.00056529751686206,-0.00056529748672426,0.00056529751646946,-0.00056063116876886,-0.00056063116876886,0.0005606311688147,0.00056063125592253,0.0014124858172077,0.0012148197487324,0.78090431430793,0.71910700775897,43648,1000,0.0023412002934973,0.002341200293492,0.0023412002932756,34.452342916876,34.472517860703,0.00019081874333501,0.00019081874333501,0.00019081874333501,505462.74167504,0.0070483267432173
4752000,0.39112782733902,0.0067544924183059,0.0022514974728425,0.0022514974728402,0.0022514974726232,-0.00058731558912733,0.00058731558880769,4.345228818007e-11,-4.379474071838e-11,-6.8761717023804e-13,3.782965609468e-13,-0.00059038500294986,0.00059038503076061,-0.00059038503147768,0.00059038500221874,-0.00059038500388576,0.00059038503277353,-0.00059038503269013,0.00059038500398077,-0.0005851600080705,0.00058516009524252,-0.00058516009510582,0.00058516000827621,-2.9499284699455e-12,-4.0262337072063e-12,-1.4068976231845e-12,-1.4635148788603e-12,-0.00058731559112717,0.00058731558680525,-0.00059038501831647,0.00059038501666756,-0.00059038501867386,0.00059038501671629,-0.00059038501900265,0.00059038501638914,-0.00059038501867246,0.00059038501631046,-0.00058516005417933,0.00058516004826987,-0.00058516004939825,0.00058516004392885,-0.00058516005499767,0.00058516004350271,-0.00058516005467132,0.00058516004227491,-4.3663304174853e-11,4.3656903973316e-11,-0.00058731558892068,0.00058731558890641,-4.3472818994044e-14,2.2026238878228e-14,-0.00059038503264698,0.00059038500286547,-0.00059038503231107,0.00059038500253653,-0.00059038500292714,0.0005903850326793,-0.00059038500253769,0.00059038503228606,-0.00058516000312055,-0.00058516000312055,0.00058516000316644,0.00058516009028504,0.001501222300751,0.0013004140500905,0.78129132353383,0.72301247350527,43648,1000,0.0024441580263241,0.0024441580263187,0.0024441580260998,34.754951298665,34.77514514484,0.00019323961038932,0.00019323961038932,0.00019323961038932,511929.20647375,0.0073594255261536
4838400,0.40909201911091,0.0070601429156481,0.0023533809719574,0.0023533809719549,0.0023533809717358,-0.00061241373711959,0.00061241373680206,4.3457501344341e-11,-4.3798182995574e-11,-6.999828512985e-13,3.9348206762823e-13,-0.0006158059032312,0.00061580593103719,-0.00061580593176152,0.00061580590249277,-0.00061580590415923,0.00061580593306317,-0.00061580593296836,0.00061580590426562,-0.00061001868812742,0.00061001877532019,-0.0006100187751722,0.00061001868834449,-2.9503079583523e-12,-4.0546099285675e-12,-1.415067873589e-12,-1.4720330892231e-12,-0.00061241373912953,0.00061241373478946,-0.00061580591859761,0.00061580591694629,-0.00061580591895751,0.00061580591699498,-0.00061580591929493,0.00061580591665849,-0.0006158059189624,0.00061580591657961,-0.00061001873425703,0.0006100187283217,-0.00061001872947038,0.00061001872397851,-0.00061001873506297,0.00061001872356468,-0.00061001873475872,0.00061001872230935,-4.3668045191783e-11,4.3661729678835e-11,-0.00061241373691341,0.0006124137368992,-4.3616623424447e-14,2.2208674481416e-14,-0.00061580593292847,0.00061580590314415,-0.00061580593259214,0.00061580590281494,-0.00061580590320606,0.00061580593296117,-0.000615805902816,0.00061580593256731,-0.0006100186831764,-0.0006100186831764,0.0006100186832223,0.00061001877035133,0.001591473070212,0.0013874747575484,0.78169499906089,0.72691793925158,43648,1000,0.0025484727707948,0.0025484727707893,0.0025484727705682,35.057560132828,35.077772428976,0.00019566048106263,0.00019566048106263,0.00019566048106263,515713.77969738,0.0076747227189951
4924800,0.42725532097524,0.0073693579327417,0.0024564526443227,0.0024564526443201,0.0024564526440989,-0.00063780108721758,0.00063780108690238,4.3462889767964e-11,-4.3801631037297e-11,-7.1037409267674e-13,4.0691198088301e-13,-0.00064151841567168,0.00064151844347465,-0.00064151844420471,0.00064151841492746,-0.00064151841659329,0.0006415184455125,-0.00064151844540728,0.00064151841671008,-0.00063516852394451,0.00063516861115663,-0.0006351686109986,0.00063516852417171,-2.9506020964254e-12,-4.0791855895627e-12,-1.4220618805151e-12,-1.4791784150559e-12,-0.00063780108923656,0.00063780108488069,-0.00064151843103852,0.00064151842938489,-0.00064151843140084,0.00064151842943375,-0.00064151843174577,0.00064151842908904,-0.0006415184314109,0.00064151842900995,-0.00063516857009263,0.00063516856413506,-0.00063516856530113,0.00063516855979041,-0.00063516857088797,0.00063516855938782,-0.00063516857060256,0.00063516855810849,-4.3672829707384e-11,4.3666538370168e-11,-0.00063780108701206,0.00063780108699787,-4.3685621316609e-14,2.2263466925191e-14,-0.00064151844536973,0.0006415184155826,-0.0006415184450333,0.00064151841525331,-0.00064151841564475,0.0006415184454028,-0.00064151841525438,0.00064151844500851,-0.00063516851899317,-0.00063516851899317,0.0006351685190388,0.00063516860617848,0.0016830731948853,0.0014758373663957,0.78211574891387,0.73082340499788,43648,1000,0.0026539784436176,0.002653978443612,0.002653978443389,35.360169040265,35.380399713113,0.00019808135232212,0.00019808135232212,0.00019808135232212,516985.46182077,0.0079937199651196
5011200,0.44558484211454,0.0076811828927066,0.0025603942976449,0.0025603942976422,0.0025603942974195,-0.00066340084319521,0.00066340084288201,4.3468218840458e-11,-4.3805318542294e-11,-7.1469793117467e-13,4.1336572490203e-13,-0.00066745364118967,0.000667453668989,-0.00066745366972459,0.00066745364044001,-0.00066745364210803,0.00066745367104026,-0.00066745367092762,0.00066745364223074,-0.00066051991956472,0.00066052000679556,-0.00066052000663,0.00066051991980047,-2.9540871664295e-12,-4.0938234070933e-12,-1.4268539547088e-12,-1.4840909708631e-12,-0.00066340084522055,0.00066340084085314,-0.00066745365655719,0.00066745365489973,-0.00066745365692253,0.00066745365495008,-0.00066745365727206,0.00066745365460257,-0.00066745365693123,0.00066745365451946,-0.00066051996572772,0.00066051995975624,-0.0006605199609304,0.00066051995540805,-0.00066051996651985,0.00066051995501384,-0.00066051996624144,0.00066051995372588,-4.3675848173995e-11,4.3673088964169e-11,-0.00066340084298941,0.0006634008429774,-4.1700123148685e-14,2.4389843142328e-14,-0.00066745367088794,0.00066745364110157,-0.00066745367055114,0.00066745364076817,-0.00066745364115995,0.00066745367092086,-0.00066745364076889,0.00066745367052926,-0.00066051991461535,-0.00066051991461535,0.00066051991466037,0.00066052000181251,0.001775705425107,0.0015651913100931,0.78151326791161,0.72885757449027,43648,1000,0.0027603555570173,0.00276035555701,0.002760355556788,35.662776847591,35.683026997253,0.00020050221478073,0.00020050221478073,0.00020050221478073,518748.41099946,0.0083154543106348
5097600,0.46393010170978,0.0079895735611851,0.0026631911871387,0.0026631911871351,0.0026631911869113,-0.00068852018228205,0.0006885201819975,4.3501759168765e-11,-4.3802899880888e-11,-7.3476693572742e-13,4.6998514227651e-13,-0.00069300789702513,0.00069300792484306,-0.00069300792557384,0.00069300789628409,-0.00069300789792811,0.00069300792689819,-0.00069300792676005,0.00069300789808879,-0.00068525976554501,0.00068525985291212,-0.00068525985269459,0.00068525976584279,-2.9336112037209e-12,-4.150271506172e-12,-1.4117516807787e-12,-1.5070155058284e-12,-0.00068852018433449,0.00068852017994204,-0.00069300791241769,0.00069300791074476,-0.0006930079127469,0.00069300791078361,-0.00069300791314194,0.00069300791042213,-0.00069300791280262,0.00069300791034597,-0.00068525981177195,0.0006852598058032,-0.00068525980704623,0.00068525980150956,-0.00068525981253098,0.00068525980110205,-0.00068525981241708,0.00068525979972879,-4.3687706164683e-11,4.3692902461822e-11,-0.00068852018208946,0.00068852018207796,-7.5664835550036e-14,2.8064848520495e-14,-0.00069300792674054,0.00069300789695744,-0.00069300792639465,0.00069300789663342,-0.00069300789699842,0.00069300792677895,-0.00069300789661259,0.0006930079263947,-0.00068525976063287,-0.00068525976063287,0.00068525976069079,0.00068525984788878,0.0018664939465427,0.0016535772612551,0.77231730533168,0.68033219149736,43648,1000,0.0028647252505618,0.0028647252505555,0.0028647252503289,35.865027767359,35.878820768646,0.00020212022213887,0.00020212022213887,0.00020212022213887,544629.15828018,0.0086312174672251
5184000,0.48215697079513,0.0082962651709029,0.002765421723711,0.0027654217237071,0.0027654217234847,-0.00071325253379495,0.00071325253350116,4.3494035228256e-11,-4.3812599319871e-11,-7.4312273928689e-13,4.6276815686811e-13,-0.00071819651295567,0.0007181965407641,-0.00071819654150349,0.00071819651220521,-0.00071819651385502,0.00071819654284384,-0.00071819654268837,0.00071819651402297,-0.00070962834189105,0.00070962842920329,-0.00070962842897549,0.00070962834216106,-2.9420785038742e-12,-4.1605829264593e-12,-1.4354549419545e-12,-1.5095741335464e-12,-0.00071325253584923,0.00071325253144362,-0.00071819652833284,0.00071819652667659,-0.00071819652870207,0.00071819652672108,-0.0007181965290747,0.00071819652635039,-0.00071819652873635,0.00071819652626658,-0.00070962838809675,0.0007096283820805,-0.00070962838331929,0.00070962837772809,-0.0007096283888655,0.00070962837736718,-0.00070962838865822,0.00070962837600668,-4.3686291016738e-11,4.369696570534e-11,-0.0007132525335944,0.00071325253359047,-4.8549649194484e-14,3.3876038639685e-14,-0.00071819654266984,0.00071819651287314,-0.00071819654232786,0.00071819651254824,-0.00071819651293021,0.00071819654270525,-0.00071819651253578,0.00071819654231731,-0.00070962833692947,-0.00070962833692947,0.000709628337006,0.00070962842418656,0.0019558087913903,0.0017415144874002,0.77338889739177,0.68861650922473,43648,1000,0.0029674763681125,0.0029674763681057,0.0029674763678814,35.979297735124,35.987182163772,0.00020303438188099,0.00020303438188099,0.00020303438188099,572659.89637787,0.0089421804122909
5270400,0.5002309042399,0.0086076081731421,0.0028692027244574,0.002869202724454,0.0028692027242308,-0.00073846760529349,0.00073846760501296,4.3505450056011e-11,-4.3815716665815e-11,-7.5451292073643e-13,4.9416672707511e-13,-0.00074365234429188,0.00074365237211839,-0.00074365237285607,0.00074365234353913,-0.00074365234517554,0.0007436523742141,-0.00074365237403783,0.00074365234537888,-0.00073477287672665,0.00073477296402983,-0.00073477296382239,0.00073477287699162,-2.9245382750102e-12,-4.1863101993323e-12,-1.434746904761e-12,-1.5104228429131e-12,-0.00073846760735799,0.00073846760294564,-0.00074365235967882,0.00074365235803441,-0.00074365236005406,0.00074365235806743,-0.00074365236043458,0.00074365235768709,-0.00074365236009355,0.00074365235760291,-0.00073477292295907,0.00073477291692647,-0.000734772918167,0.00073477291258905,-0.00073477292367502,0.00073477291225573,-0.00073477292352692,0.00073477291082295,-4.3695058190083e-11,4.3703052328221e-11,-0.0007384676051006,0.00073846760509415,-5.1148893318772e-14,3.2816056315535e-14,-0.00074365237401707,0.0007436523442049,-0.00074365237367172,0.00074365234388277,-0.00074365234426422,0.00074365237405132,-0.00074365234386975,0.00074365237366981,-0.0007347728718213,-0.0007347728718213,0.00073477287184853,0.00073477295907458,0.0020472414920316,0.0018310026987027,0.79181931496719,0.80400170950033,43648,1000,0.0030722222979679,0.003072222297962,0.0030722222977359,36.088225527187,36.095543558899,0.0002039058042175,0.0002039058042175,0.0002039058042175,536511.3395369,0.0092592782832938
5356800,0.51812716333225,0.0089123724546978,0.0029707908183094,0.0029707908183069,0.0029707908180814,-0.00076332899419785,0.00076332899392403,4.351284903586e-11,-4.381188763573e-11,-7.6034862481261e-13,5.0459805546401e-13,-0.00076878676015582,0.00076878678797379,-0.00076878678871208,0.00076878675940529,-0.00076878676104231,0.00076878679007908,-0.00076878678988878,0.00076878676124742,-0.00075942849754359,0.00075942858490304,-0.00075942858465662,0.00075942849785699,-2.9234986008892e-12,-4.2017193168296e-12,-1.4540563148718e-12,-1.5042245028563e-12,-0.00076332899627348,0.00076332899184572,-0.00076878677554654,0.00076878677387653,-0.00076878677591191,0.00076878677392795,-0.00076878677630939,0.00076878677353214,-0.00076878677595857,0.00076878677345449,-0.00075942854381226,0.0007594285377421,-0.00075942853900436,0.00075942853341106,-0.00075942854451629,0.00075942853309594,-0.0007594285443715,0.00075942853165821,-4.3702271969707e-11,4.3699596036749e-11,-0.00076332899401181,0.00076332899399796,-4.2029598377561e-14,1.670313678946e-14,-0.00076878678987711,0.00076878676007321,-0.0007687867895439,0.00076878675974064,-0.00076878676013058,0.00076878678991492,-0.0007687867597443,0.00076878678951838,-0.00075942849262707,-0.00075942849262707,0.00075942849266868,0.00075942857987551,0.0021373599936771,0.0019184856763376,0.78220076399911,0.74770296004574,43648,1000,0.0031754881618916,0.003175488161886,0.0031754881616588,36.196636502467,36.203904954025,0.00020477309201974,0.00020477309201974,0.00020477309201974,508832.20812249,0.0095719934581108
5443200,0.53581789290307,0.0092086603591879,0.0030695534531398,0.0030695534531373,0.0030695534529108,-0.00078722026905606,0.00078722026878298,4.3513192966529e-11,-4.3811621496802e-11,-7.6025151013234e-13,5.0347273690054e-13,-0.00079314494249614,0.00079314497031345,-0.0007931449710506,0.00079314494174538,-0.00079314494338319,0.00079314497242413,-0.00079314497222996,0.00079314494359123,-0.00078293402876175,0.00078293411612919,-0.00078293411588792,0.0007829340290902,-2.9277375596272e-12,-4.2052786492709e-12,-1.4561396482862e-12,-1.5055418155545e-12,-0.00078722027113455,0.00078722026670184,-0.00079314495788915,0.00079314495621823,-0.0007931449582567,0.00079314495626966,-0.00079314495865528,0.00079314495587242,-0.00079314495830159,0.00079314495579397,-0.00078293407503768,0.00078293406896346,-0.00078293407023184,0.00078293406463075,-0.00078293407574427,0.00078293406430936,-0.00078293407558427,0.00078293406288104,-4.3706299008449e-11,4.3695797138097e-11,-0.00078722026887144,0.000787220268855,-4.168030022485e-14,1.6291781709017e-14,-0.00079314497222078,0.00079314494241722,-0.00079314497188806,0.00079314494208501,-0.00079314494247536,0.00079314497225799,-0.00079314494208949,0.00079314497186126,-0.00078293402384788,-0.00078293402384788,0.0007829340238805,0.00078293411108872,0.002223596756719,0.0020033475994869,0.76894994891053,0.67633392771571,43648,1000,0.0032747142860588,0.0032747142860533,0.0032747142858249,36.304996359429,36.312266349152,0.00020563997087543,0.00020563997087543,0.00020563997087543,539717.3041399,0.0098725672127328
5529600,0.55327486085671,0.0094952014518656,0.0031650671506991,0.0031650671506968,0.0031650671504698,-0.00081027384941016,0.00081027384914282,4.3525644439087e-11,-4.3818898156857e-11,-7.6298636776079e-13,5.1533378631833e-13,-0.00081681978977733,0.00081681981760234,-0.00081681981833958,0.00081681978902811,-0.00081681979066262,0.00081681981971959,-0.00081681981951847,0.00081681979087878,-0.00080542014818267,0.00080542023556664,-0.00080542023531911,0.00080542014851146,-2.9291834566325e-12,-4.2218496430385e-12,-1.4637731944984e-12,-1.5040398467327e-12,-0.00081027385149611,0.00081027384705432,-0.00081681980517614,0.00081681980350183,-0.00081681980554199,0.00081681980355629,-0.00081681980594814,0.00081681980315346,-0.00081681980558911,0.00081681980307764,-0.00080542019447818,0.00080542018838876,-0.00080542018965355,0.00080542018406265,-0.0008054201951776,0.00080542018374409,-0.00080542019502852,0.00080542018229278,-4.371634927495e-11,4.3705535355307e-11,-0.00081027384922959,0.00081027384921057,-3.922540463199e-14,9.693703864001e-15,-0.00081681981950935,0.00081681978969945,-0.00081681981917913,0.00081681978936378,-0.00081681978975788,0.00081681981954643,-0.00081681978937425,0.00081681981914572,-0.00080542014328025,-0.00080542014328025,0.00080542014330642,0.00080542023053225,0.0023065077620617,0.002085176418184,0.75418775363567,0.60141412576628,43648,1000,0.003370451728518,0.0033704517285127,0.0033704517282838,36.413351932212,36.420627744279,0.00020650681545769,0.00020650681545769,0.00020650681545769,600731.76499081,0.010162658759014
5616000,0.57047261736633,0.0097729398617354,0.0032576466206558,0.0032576466206536,0.003257646620426,-0.00083256129053766,0.0008325612902715,4.3524746907682e-11,-4.3812963691093e-11,-7.6363208332874e-13,5.107900721845e-13,-0.00083985264819704,0.0008398526760065,-0.00083985267674733,0.00083985264744266,-0.00083985264908195,0.00083985267813869,-0.00083985267793061,0.00083985264930135,-0.00082701659135641,0.00082701667878077,-0.00082701667852351,0.00082701659168045,-2.9252782524044e-12,-4.2146578627424e-12,-1.4493259740863e-12,-1.5076652359796e-12,-0.00083256129262258,0.00083256128818517,-0.00083985266358522,0.00083985266192945,-0.00083985266397397,0.00083985266196618,-0.00083985266437333,0.00083985266157308,-0.00083985266401707,0.00083985266149631,-0.00082701663764294,0.00082701663156035,-0.00082701663283674,0.00082701662723309,-0.00082701663834054,0.00082701662689664,-0.00082701663818649,0.00082701662547029,-4.3704865566945e-11,4.3710177948773e-11,-0.0008325612903532,0.00083256129034425,-4.356588968021e-14,2.3078324384796e-14,-0.00083985267792655,0.00083985264811988,-0.00083985267759025,0.00083985264780893,-0.00083985264818387,0.0008398526779684,-0.00083985264779437,0.00083985267757436,-0.00082701658640937,-0.00082701658640937,0.0008270165864561,0.00082701667371276,0.0023863880939166,0.002164274267659,0.74309052570339,0.54799038503428,43648,1000,0.0034629986064113,0.0034629986064084,0.0034629986061794,36.521708507731,36.528989139406,0.00020737366806185,0.00020737366806185,0.00020737366806185,679418.74863606,0.010443162706043
5702400,0.58738785301511,0.010042362786317,0.0033474542621813,0.0033474542621814,0.0033474542619543,-0.00085417753609895,0.00085417753583789,4.3532006597668e-11,-4.3813448676277e-11,-7.5547862652889e-13,5.1855086450939e-13,-0.00086230850775537,0.00086230853557934,-0.00086230853631625,0.00086230850700701,-0.00086230850864961,0.00086230853770936,-0.00086230853750748,0.00086230850886554,-0.00084784927874143,0.00084784936614801,-0.00084784936586708,0.00084784927909328,-2.9277386772402e-12,-4.2168515604323e-12,-1.4573561846513e-12,-1.5211073106276e-12,-0.00085417753819157,0.00085417753374459,-0.00086230852315592,0.00086230852148389,-0.00086230852353491,0.00086230852153046,-0.00086230852393654,0.00086230852114013,-0.00086230852358202,0.00086230852105723,-0.0008478493250651,0.00084784931896891,-0.00084784932023525,0.00084784931459003,-0.00084784932574983,0.00084784931432747,-0.00084784932558077,0.00084784931287515,-4.371577311608e-11,4.3707055617688e-11,-0.00085417753591839,0.0008541775359066,-4.368487133952e-14,2.8230034650643e-14,-0.00086230853749201,0.00086230850768142,-0.00086230853715447,0.00086230850735533,-0.00086230850774255,0.00086230853752718,-0.00086230850735031,0.00086230853713398,-0.00084784927384216,-0.00084784927384216,0.0008478492739161,0.00084784936110839,0.0024636325385439,0.0022407986608676,0.73421752639197,0.50714110322116,43648,1000,0.0035527499958869,0.0035527499958855,0.0035527499956547,36.630065915464,36.637350534533,0.00020824052732372,0.00020824052732372,0.00020824052732372,763123.24634031,0.010715268972714
5788800,0.60399928282835,0.01030316105068,0.003434387016969,0.0034343870169694,0.0034343870167411,-0.00087508762220754,0.00087508762194455,4.3529752048896e-11,-4.3828771325827e-11,-7.6563619857498e-13,5.2330857210587e-13,-0.00088415004310475,0.00088415007094045,-0.00088415007167613,0.00088415004236213,-0.00088415004399121,0.00088415007307339,-0.00088415007286164,0.00088415004422936,-0.00086788999964763,0.00086789008702384,-0.00086789008674587,0.00086788999992658,-2.9279425533648e-12,-4.2331429745055e-12,-1.4632850476462e-12,-1.5199113912797e-12,-0.00087508762430313,0.00087508761984742,-0.00088415005851437,0.00088415005684744,-0.00088415005889883,0.00088415005689339,-0.00088415005929989,0.00088415005649217,-0.00088415005895092,0.00088415005641063,-0.00086789004592608,0.00086789003982197,-0.00086789004110649,0.00086789003546193,-0.0008678900466112,0.00086789003517664,-0.00086789004644351,0.00086789003372557,-4.3708351269283e-11,4.3726963097763e-11,-0.00087508762202155,0.00087508762201776,-3.8535455121239e-14,2.6731698070856e-14,-0.00088415007285802,0.00088415004303797,-0.00088415007251598,0.00088415004271518,-0.00088415004309716,0.00088415007288594,-0.000884150042705,0.00088415007249201,-0.00086788999469566,-0.00086788999469566,0.00086788999476262,0.00086789008201481,0.0025380980424334,0.0023146555694123,0.72515707353666,0.46629182140805,43648,1000,0.003639561457839,0.0036395614578358,0.0036395614576049,36.738423657809,36.74571192966,0.00020910738926247,0.00020910738926247,0.00020910738926247,851196.36939521,0.010978532804077
5875200,0.62022800987074,0.010558975574264,0.0035196585248302,0.0035196585248316,0.0035196585246022,-0.00089545758679712,0.00089545758654021,4.3541125230865e-11,-4.3824399665261e-11,-7.654824091555e-13,5.2846267935731e-13,-0.00090542815319414,0.00090542818102882,-0.00090542818176311,0.00090542815244811,-0.00090542815408294,0.00090542818316969,-0.00090542818294998,0.00090542815431718,-0.00088745854680424,0.00088745863422381,-0.00088745863395071,0.00088745854714498,-2.9245858912027e-12,-4.2355644593544e-12,-1.4557968646404e-12,-1.5158377363153e-12,-0.0008954575888961,0.00089545758444094,-0.00090542816860255,0.00090542816693048,-0.00090542816898633,0.00090542816697887,-0.00090542816938979,0.00090542816657554,-0.00090542816903447,0.00090542816649307,-0.00088745859311214,0.00088745858701857,-0.00088745858829293,0.00088745858267234,-0.00088745859380293,0.00088745858238468,-0.00088745859366513,0.00088745858092284,-4.3720577601659e-11,4.3722101408049e-11,-0.00089545758661684,0.00089545758660753,-4.2144933089459e-14,2.590582624185e-14,-0.00090542818293651,0.00090542815311833,-0.00090542818260071,0.00090542815279713,-0.00090542815317984,0.00090542818297234,-0.00090542815278994,0.00090542818258072,-0.00088745854189505,-0.00088745854189505,0.00088745854194704,0.00088745862919152,0.0026104446715793,0.0023869677031041,0.72938225061014,0.49184196051334,43648,1000,0.003724123199697,0.0037241231996965,0.0037241231994626,36.784635370458,36.787895818024,0.00020947708296367,0.00020947708296367,0.00020947708296367,922147.93505471,0.011235040387676
5961600,0.63601529335635,0.010803583882422,0.0036011946275498,0.0036011946275516,0.0036011946273205,-0.0009150674515593,0.00091506745130413,4.3546497860852e-11,-4.3827009497297e-11,-7.6515906609223e-13,5.2965023131371e-13,-0.00092597319643381,0.00092597322427208,-0.00092597322500495,0.00092597319568766,-0.00092597319732317,0.00092597322641478,-0.00092597322619481,0.00092597319755938,-0.00090617505318933,0.0009061751406158,-0.00090617514034077,0.00090617505353565,-2.9258447056879e-12,-4.2370875304726e-12,-1.4540628440841e-12,-1.5169185856491e-12,-0.00091506745365978,0.00091506744920278,-0.00092597321184328,0.0009259732101702,-0.00092597321222757,0.0009259732102194,-0.00092597321263177,0.00092597320981589,-0.00092597321227305,0.00092597320973089,-0.00090617509949919,0.00090617509341212,-0.00090617509468829,0.00090617508906472,-0.00090617510018799,0.00090617508877041,-0.00090617510005036,0.00090617508730689,-4.3726505523507e-11,4.3723837340312e-11,-0.00091506745138058,0.00091506745136941,-4.4635268776119e-14,2.6619657375975e-14,-0.00092597322618263,0.00092597319636207,-0.00092597322584665,0.00092597319603769,-0.00092597319642424,0.00092597322622076,-0.00092597319603312,0.00092597322582589,-0.00090617504827711,-0.00090617504827711,0.0009061750483279,0.00090617513557632,0.0026797865035324,0.0024557694056959,0.71821267171287,0.44077103288462,43648,1000,0.0038055224807331,0.0038055224807313,0.0038055224804977,36.780614635207,36.780475049482,0.00020944491708165,0.00020944491708165,0.00020944491708165,979075.71057286,0.011482017728826
6048000,0.65135175550953,0.011039756129206,0.0036799187098112,0.0036799187098128,0.0036799187095815,-0.00093365292744224,0.00093365292719061,4.3550901343976e-11,-4.3828717121601e-11,-7.6747699528108e-13,5.3563940128985e-13,-0.0009456006263434,0.00094560065418711,-0.00094560065491845,0.0009456006256002,-0.0009456006272337,0.00094560065633527,-0.00094560065610839,0.00094560062747622,-0.00092385455857841,0.00092385464601628,-0.00092385464573535,0.00092385455892859,-2.9233470466956e-12,-4.2433724267087e-12,-1.4543193509539e-12,-1.5163647937435e-12,-0.00093365292954609,0.00093365292508615,-0.00094560064175822,0.00094560064008462,-0.00094560064214379,0.00094560064013408,-0.00094560064255011,0.00094560063972867,-0.00094560064219031,0.00094560063964273,-0.00092385460488927,0.0009238545988022,-0.00092385460007941,0.00092385459445802,-0.00092385460557884,0.00092385459417014,-0.00092385460544831,0.00092385459269619,-4.3728343364421e-11,4.3728028344633e-11,-0.00093365292726481,0.00093365292725459,-4.4676811624661e-14,2.575428675363e-14,-0.00094560065609817,0.00094560062627595,-0.00094560065576143,0.00094560062595229,-0.00094560062633687,0.00094560065613562,-0.00094560062594563,0.00094560065574232,-0.00092385455366695,-0.00092385455366695,0.00092385455371892,0.00092385464097562,0.0027450036686958,0.00252193000455,0.71480347804483,0.42834657677503,43648,1000,0.0038826632080273,0.003882663208026,0.0038826632077918,36.773517302069,36.77305428094,0.00020938813841655,0.00020938813841655,0.00020938813841655,1058339.7889158,0.011716130750766
6134400,0.66623184434925,0.011269462310995,0.0037564874370746,0.0037564874370762,0.0037564874368445,-0.00095188973787792,0.00095188973762907,4.3555383118826e-11,-4.3830601858141e-11,-7.6823891318148e-13,5.3939881585408e-13,-0.00096480390091363,0.00096480392876172,-0.00096480392949144,0.00096480390017196,-0.00096480390180454,0.00096480393091339,-0.00096480393068228,0.00096480390205092,-0.00094124626326008,0.00094124635070762,-0.00094124635042455,0.00094124626361609,-2.9212616398151e-12,-4.2459374071738e-12,-1.4559784914447e-12,-1.515100744124e-12,-0.0009518897399843,0.00095188973552211,-0.0009648039163319,0.00096480391465651,-0.0009648039167182,0.00096480391470737,-0.00096480391712647,0.00096480391429984,-0.00096480391676467,0.00096480391421388,-0.00094124630957771,0.0009412463034826,-0.00094124630476189,0.00094124629914192,-0.00094124631026008,0.00094124629886257,-0.00094124631013474,0.00094124629738464,-4.3732266656332e-11,4.3730571913987e-11,-0.00095188973770216,0.00095188973769109,-4.3732663997134e-14,2.4290772639452e-14,-0.00096480393067235,0.00096480390084774,-0.00096480393033586,0.00096480390052344,-0.00096480390090872,0.00096480393070959,-0.00096480390051787,0.00096480393031539,-0.00094124625835059,-0.00094124625835059,0.000941246258399,0.00094124634566283,0.0028088967354317,0.0025860537041257,0.71771106037567,0.44713313593456,43648,1000,0.0039583509243549,0.0039583509243537,0.0039583509241189,36.766128999612,36.765633512398,0.0002093290319969,0.0002093290319969,0.0002093290319969,1108914.161854,0.011945886950598
6220800,0.68065312466951,0.01149277790335,0.0038309259678595,0.0038309259678612,0.003830925967629,-0.00096979480998325,0.00096979480973731,4.3560747425538e-11,-4.3832157104747e-11,-7.686032255814e-13,5.4263418760393e-13,-0.00098358837804722,0.00098358840589892,-0.00098358840662735,0.00098358837730656,-0.00098358837893873,0.00098358840805492,-0.00098358840781996,0.000983588379189,-0.00095836863447922,0.00095836872193787,-0.00095836872164789,0.00095836863484072,-2.9187465990008e-12,-4.2473522463044e-12,-1.4545627699882e-12,-1.5122023620794e-12,-0.00096979481209148,0.00096979480762858,-0.00098358839346963,0.0009835883917921,-0.00098358839385654,0.0009835883918442,-0.00098358839426668,0.00098358839143423,-0.00098358839390301,0.00098358839134871,-0.00095836868080181,0.00095836867470992,-0.00095836867598559,0.00095836867037198,-0.00095836868148212,0.00095836867009164,-0.00095836868135662,0.0009583686686086,-4.3736013100704e-11,4.3733428341431e-11,-0.0009697948098093,0.00096979480979731,-4.3062096247225e-14,2.2507988866978e-14,-0.00098358840780977,0.00098358837798335,-0.00098358840747422,0.00098358837765792,-0.00098358837804493,0.00098358840784745,-0.0009835883776545,0.00098358840745216,-0.00095836862957477,-0.00095836862957477,0.00095836862962487,0.00095836871689224,0.0028715319670313,0.0026481599783502,0.72064672965231,0.46591969509408,43648,1000,0.0040326562371508,0.0040326562371498,0.0040326562369144,36.758711497459,36.758212743856,0.00020926969197968,0.00020926969197968,0.00020926969197968,1133589.9633173,0.012171497604877
6307200,0.69461462308723,0.011709772684829,0.0039032575616859,0.0039032575616877,0.003903257561455,-0.0009872176066697,0.00098721760642789,4.3565935208231e-11,-4.3832984108894e-11,-7.7070030857578e-13,5.4860353465624e-13,-0.0010018388324808,0.0010018388603365,-0.0010018388610632,0.0010018388317418,-0.0010018388333709,0.0010018388624966,-0.0010018388622551,0.0010018388336281,-0.00097506829579678,0.00097506838326487,-0.00097506838296881,0.00097506829616488,-2.9155658726404e-12,-4.2520952190569e-12,-1.4563367746171e-12,-1.5121973769376e-12,-0.00098721760878182,0.00098721760431537,-0.0010018388479066,0.0010018388462277,-0.0010018388482947,0.0010018388462807,-0.0010018388487073,0.0010018388458676,-0.0010018388483425,0.0010018388457816,-0.00097506834212692,0.00097506833602936,-0.00097506833730823,0.00097506833169133,-0.00097506834279443,0.00097506833141875,-0.00097506834267852,0.00097506832992779,-4.3739138093473e-11,4.3736252784558e-11,-0.00098721760649791,0.00098721760648569,-4.2309075133856e-14,2.2344699737702e-14,-0.0010018388622479,0.0010018388324195,-0.0010018388619123,0.0010018388320937,-0.0010018388324817,0.0010018388622851,-0.0010018388320909,0.0010018388618893,-0.00097506829089345,-0.00097506829089345,0.00097506829094214,0.00097506837821514,0.0029322780884489,0.002708267975765,0.72360964478676,0.4847062542536,43648,1000,0.0041049547990138,0.004104954799013,0.0041049547987774,36.751291021965,36.750791975315,0.00020921032817572,0.00020921032817572,0.00020921032817572,1147065.8733015,0.012391063626683
6393600,0.7081165665158,0.011919402361901,0.00397313412071,0.0039731341207119,0.0039731341204789,-0.0010040643529441,0.0010040643527058,4.3570309574597e-11,-4.3834349302483e-11,-7.7195871130891e-13,5.5398963482046e-13,-0.0010194879531656,0.0010194879810254,-0.0010194879817507,0.0010194879524281,-0.001019487954056,0.0010194879831902,-0.001019487982943,0.0010194879543189,-0.00099121564466046,0.00099121573213771,-0.00099121573183518,0.00099121564503286,-2.9113618246006e-12,-4.2553105031851e-12,-1.4544256565298e-12,-1.5113959161275e-12,-0.0010040643550587,0.0010040643505906,-0.0010194879685945,0.0010194879669137,-0.0010194879689835,0.0010194879669676,-0.0010194879693985,0.0010194879665522,-0.0010194879690324,0.0010194879664653,-0.00099121569099323,0.00099121568489726,-0.00099121568617754,0.00099121568056026,-0.00099121569165864,0.00099121568029446,-0.0009912156915488,0.00099121567879631,-4.3741624811623e-11,4.3739463951165e-11,-0.0010040643527738,0.0010040643527619,-4.2886498670434e-14,2.2530958753499e-14,-0.0010194879829365,0.0010194879531065,-0.0010194879826002,0.0010194879527803,-0.0010194879531682,0.0010194879829741,-0.0010194879527769,0.0010194879825776,-0.00099121563976119,-0.00099121563976119,0.00099121563981168,0.00099121572708977,0.0029907512983766,0.0027660562264402,0.72303912203063,0.48538089711843,43648,1000,0.0041748578863562,0.0041748578863552,0.0041748578861193,36.743870268984,36.743371206773,0.00020915096215187,0.00020915096215187,0.00020915096215187,1155432.6854618,0.012603400421811
6480000,0.72116049707418,0.0121258618555,0.0040419539519098,0.0040419539519117,0.0040419539516784,-0.0010205828156325,0.0010205828153963,4.357588678657e-11,-4.3837501647357e-11,-7.7179218698435e-13,5.5532288820813e-13,-0.0010367047702684,0.0010367047981339,-0.0010367047988571,0.0010367047695327,-0.0010367047711604,0.0010367048003011,-0.0010367048000514,0.0010367047714255,-0.0010071936194976,0.0010071937069854,-0.0010071937066812,0.0010071936198733,-2.9087608452352e-12,-4.2542128308359e-12,-1.4465541617045e-12,-1.51593058642e-12,-0.0010205828177481,0.0010205828132803,-0.0010367047857002,0.0010367047840218,-0.001036704786094,0.0010367047840725,-0.0010367047865054,0.001036704783661,-0.0010367047861421,0.001036704783569,-0.0010071936658276,0.0010071936597479,-0.0010071936610286,0.0010071936554008,-0.0010071936664965,0.0010071936551416,-0.0010071936663902,0.0010071936536415,-4.3743801818646e-11,4.3745984001982e-11,-0.001020582815461,0.0010205828154534,-4.7125972098607e-14,3.0527905628732e-14,-0.0010367048000439,0.0010367047702117,-0.0010367047997034,0.0010367047698892,-0.0010367047702729,0.0010367048000821,-0.0010367047698769,0.0010367047996892,-0.0010071936145986,-0.0010071936145986,0.0010071936146575,0.0010071937019453,0.0030479424440713,0.0028228010141329,0.73686054293767,0.56135094059269,43648,1000,0.0042433943182116,0.0042433943182108,0.0042433943179742,36.736449365101,36.735950438231,0.00020909159492081,0.00020909159492081,0.00020909159492081,1150301.6883004,0.012811628133911
6566400,0.7337498736159,0.012328019094872,0.0041093396983674,0.0041093396983694,0.0041093396981356,-0.0010372417678595,0.0010372417676302,4.3583923276355e-11,-4.3839187566442e-11,-7.7597000053148e-13,5.6754004439416e-13,-0.0010538346699544,0.0010538346978249,-0.0010538346985469,0.0010538346692201,-0.0010538346708428,0.0010538346999994,-0.0010538346997379,0.0010538346711198,-0.0010234430770622,0.0010234431645677,-0.00102344316425,0.0010234430774482,-2.9007618248939e-12,-4.262729423601e-12,-1.448181273762e-12,-1.515169124388e-12,-0.0010372417699808,0.0010372417655084,-0.00105383468539,0.0010538346837092,-0.0010538346857844,0.001053834683761,-0.0010538346862016,0.0010538346833431,-0.0010538346858366,0.0010538346832511,-0.0010234431234061,0.001023443117315,-0.0010234431186023,0.001023443112972,-0.00102344312406,0.0010234431127272,-0.0010234431239663,0.0010234431112094,-4.3748712286282e-11,4.3750677167432e-11,-0.0010372417676917,0.0010372417676836,-4.617766283351e-14,2.9112742978627e-14,-0.0010538346997351,0.0010538346699004,-0.0010538346993942,0.0010538346695765,-0.0010538346699618,0.0010538346997736,-0.0010538346695657,0.0010538346993791,-0.0010234430721685,-0.0010234430721685,0.0010234430722274,0.0010234431595227,0.0031058128177953,0.0028781533592093,0.74715344928302,0.61978136300686,43648,1000,0.0043125092158704,0.0043125092158696,0.004312509215633,36.729614792054,36.729153979329,0.00020903691833643,0.00020903691833643,0.00020903691833643,1101228.2639293,0.013021655399944
6652800,0.74619887085534,0.012530870459842,0.0041769568200238,0.0041769568200259,0.0041769568197918,-0.0010547227817699,0.001054722781637,4.3660634638758e-11,-4.3788162860506e-11,-6.8664828807202e-13,6.296300005298e-13,-0.0010717038346761,0.001071703862576,-0.0010717038633848,0.0010717038341446,-0.0010717038356168,0.0010717038647278,-0.0010717038646597,0.0010717038360654,-0.0010406378410444,0.0010406379292368,-0.0010406379285947,0.001040637842088,-3.0231511153968e-12,-4.3596200518941e-12,-1.5820585221393e-12,-1.6450242162276e-12,-0.0010547227839437,0.0010547227793714,-0.001071703850089,0.0010717038484878,-0.0010717038504457,0.0010717038487025,-0.0010717038510607,0.0010717038481585,-0.0010717038506961,0.001071703848075,-0.0010406378880038,0.0010406378815281,-0.0010406378832883,0.0010406378776826,-0.0010406378886077,0.0010406378770619,-0.0010406378886095,0.0010406378751149,-4.3798304477157e-11,4.3731723202345e-11,-0.0010547227816108,0.0010547227815545,-1.6679446336717e-14,6.0966902208869e-14,-0.0010717038647213,0.0010717038347881,-0.0010717038643242,0.0010717038342934,-0.0010717038348068,0.0010717038647276,-0.001071703834529,0.0010717038641995,-0.0010406378364585,-0.0010406378364585,0.0010406378366787,0.0010406379238948,0.0031672286932933,0.0029337777257724,0.75717042133993,0.678211785421,43648,1000,0.0043850298758529,0.0043850298756626,0.0043850298753518,37.16936815931,37.197859549308,0.00021255494527448,0.00021255494527448,0.00021255494527448,1048119.543981,0.013242077707291
6739200,0.75850010622041,0.012734183258251,0.0042447277528307,0.0042447277528228,0.0042447277525977,-0.001072290082281,0.0010722900820182,4.3574330481173e-11,-4.3793079210314e-11,-7.5956079593907e-13,4.9710757841059e-13,-0.0010895898147244,0.0010895898428382,-0.0010895898433115,0.0010895898139148,-0.0010895898154494,0.0010895898444752,-0.0010895898442968,0.0010895898156628,-0.0010580171107968,0.001058017198319,-0.001058017197584,0.0010580171108278,-2.934776168132e-12,-4.2099420950412e-12,-1.4754273678832e-12,-1.4695326067876e-12,-0.0010722900844105,0.0010722900799467,-0.0010895898301611,0.0010895898282003,-0.0010895898306195,0.0010895898286605,-0.0010895898308841,0.0010895898282249,-0.0010895898304346,0.0010895898280415,-0.0010580171570267,0.0010580171508181,-0.0010580171519707,0.0010580171465992,-0.0010580171574059,0.0010580171462269,-0.0010580171573355,0.0010580171442434,-4.3673541068005e-11,4.3773046498771e-11,-0.0010722900822159,0.001072290082141,-5.295352936485e-14,-4.5158708667743e-14,-0.0010895898447413,0.0010895898147382,-0.0010895898447395,0.0010895898143232,-0.0010895898148158,0.0010895898445766,-0.0010895898145877,0.0010895898442801,-0.001058017105223,-0.001058017105223,0.0010580171056076,0.001058017192742,0.0032291157484238,0.0029896026054052,0.76689148408442,0.73664220783518,43648,1000,0.0044579034460661,0.0044579034461865,0.0044579034461859,37.635308135518,37.666565119287,0.00021628246508414,0.00021628246508414,0.00021628246508414,989001.00722136,0.013463620067667
6825600,0.77062892484436,0.012940241902839,0.0043134139676774,0.0043134139676828,0.0043134139674788,-0.0010900708024767,0.001090070802209,4.3552254037946e-11,-4.3863456707389e-11,-7.9949381130698e-13,5.1398535692369e-13,-0.00110753938056,0.0011075394084636,-0.0011075394091309,0.0011075393799364,-0.0011075393815598,0.0011075394105804,-0.0011075394104238,0.001107539381901,-0.001075856303947,0.0010758563912902,-0.0010758563906797,0.0010758563036091,-2.8781642505284e-12,-4.2153629882601e-12,-1.3091438889058e-12,-1.3940285898541e-12,-0.0010900708044935,0.0010900708001827,-0.0011075393959988,0.0011075393944219,-0.0011075393963979,0.0011075393945252,-0.0011075393968266,0.0011075393941027,-0.001107539396422,0.0011075393940924,-0.0010758563499796,0.0010758563441544,-0.0010758563451572,0.0010758563398663,-0.0010758563504573,0.0010758563394325,-0.0010758563503761,0.0010758563373067,-4.3677422537664e-11,4.3816693459504e-11,-0.0010900708022866,0.0010900708022995,-2.6031204764563e-14,7.2715308009019e-14,-0.0011075394105225,0.0011075393806471,-0.0011075394100857,0.0011075393803255,-0.001107539380724,0.0011075394105135,-0.0011075393804204,0.0011075394099861,-0.001075856298352,-0.001075856298352,0.00107585629878,0.0010758563862166,0.0032919630391272,0.0030462846338646,0.78668449879755,0.88014327974572,43648,1000,0.0045316575418796,0.00453165754186,0.0045316575416732,38.10374567728,38.135270689266,0.00022002996541824,0.00022002996541824,0.00022002996541824,911861.23777964,0.013687886340145
6912000,0.78255969183703,0.013133641606922,0.0043778805357035,0.0043778805357082,0.0043778805355102,-0.0011072594793297,0.0011072594791138,4.3571194871082e-11,-4.3773038528426e-11,-7.7057822407008e-13,5.6248411061417e-13,-0.0011249931889327,0.0011249932168124,-0.0011249932175225,0.0011249931882105,-0.0011249931898424,0.0011249932189641,-0.0011249932187416,0.0011249931901164,-0.0010927622945453,0.0010927623821126,-0.0010927623815953,0.001092762295081,-2.8834069727198e-12,-4.2389006809645e-12,-1.5397134039889e-12,-1.3731029055899e-12,-0.0011072594814439,0.0011072594770002,-0.0011249932044105,0.0011249932026348,-0.0011249932047341,0.0011249932028277,-0.0011249932052351,0.0011249932023,-0.0011249932047842,0.0011249932023213,-0.0010927623410229,0.0010927623347687,-0.0010927623359835,0.001092762330584,-0.0010927623414993,0.0010927623304127,-0.001092762341394,0.0010927623287548,-4.3728221044628e-11,4.3693982796465e-11,-0.0011072594792146,0.0011072594791331,3.1650150756679e-14,-1.1774440298931e-13,-0.001124993218748,0.0011249931889223,-0.0011249932184934,0.0011249931884839,-0.0011249931889833,0.0011249932187871,-0.0011249931886927,0.0011249932182866,-0.0010927622897217,-0.0010927622897217,0.0010927622897964,0.0010927623768158,0.0033525696844894,0.0030991767860095,0.75010229202339,0.66927950108049,43648,1000,0.0046029499324781,0.0046029499324794,0.0046029499322792,38.572313868238,38.603976259245,0.00022377851094591,0.00022377851094591,0.00022377851094591,851535.43187741,0.013904717315537
6998400,0.7942670384525,0.013321010066612,0.004440336688933,0.0044403366889384,0.0044403366887403,-0.0011221480053154,0.001122148005106,4.3534800865246e-11,-4.3759723935178e-11,-7.6393448585525e-13,6.0871552180571e-13,-0.001140679920185,0.0011406799481201,-0.0011406799488423,0.0011406799194997,-0.0011406799211435,0.0011406799502545,-0.0011406799500504,0.0011406799214322,-0.0011072553888451,0.0011072554762762,-0.0011072554756906,0.0011072553891617,-2.8335068500754e-12,-4.2281365392134e-12,-1.5190315358058e-12,-1.435717786866e-12,-0.0011221480074413,0.001122148002968,-0.0011406799357144,0.0011406799339078,-0.0011406799360432,0.0011406799340632,-0.0011406799365168,0.001140679933537,-0.0011406799360436,0.0011406799335054,-0.0011072554351063,0.0011072554289221,-0.0011072554303376,0.0011072554247478,-0.0011072554355012,0.0011072554246549,-0.0011072554354644,0.0011072554229897,-4.3701926553789e-11,4.3669897179323e-11,-0.0011221480052007,0.0011221480051138,-2.0020417801743e-14,-8.6718644922571e-14,-0.001140679950082,0.0011406799202105,-0.0011406799497574,0.0011406799197174,-0.0011406799202555,0.0011406799500873,-0.0011406799199788,0.0011406799496037,-0.0011072553838826,-0.0011072553838826,0.0011072553840366,0.001107255471063,0.0034037463594625,0.0031502679833988,0.7398312196527,0.61390026052372,43648,1000,0.0046646973934559,0.0046646973934307,0.0046646973932342,39.040957046037,39.072681829225,0.0002275276563683,0.0002275276563683,0.0002275276563683,896464.8376288,0.014092558168545
7084800,0.80572614211805,0.013503284750247,0.0045010949168129,0.0045010949168151,0.0045010949166187,-0.0011373764135078,0.0011373764133194,4.3579440913288e-11,-4.3781027696127e-11,-7.9293389406089e-13,6.344590882986e-13,-0.0011565280563455,0.0011565280842259,-0.001156528084939,0.0011565280556365,-0.0011565280572246,0.0011565280864165,-0.0011565280861222,0.001156528057578,-0.0011220679285297,0.0011220680160645,-0.0011220680155817,0.0011220679289322,-2.8291629239559e-12,-4.2799498387056e-12,-1.4578588163551e-12,-1.5138962515087e-12,-0.0011373764156533,0.0011373764111681,-0.0011565280717594,0.0011565280700526,-0.0011565280721571,0.0011565280701422,-0.0011565280726213,0.0011565280696702,-0.0011565280722256,0.0011565280695872,-0.0011220679748906,0.0011220679687601,-0.0011220679701819,0.0011220679645165,-0.0011220679754589,0.0011220679643345,-0.00112206797538,0.0011220679626833,-4.3708828960572e-11,4.3728914141101e-11,-0.0011373764133766,0.0011373764133525,-5.9087871376677e-14,1.0881608750793e-14,-0.0011565280861535,0.0011565280563169,-0.0011565280858183,0.001156528055968,-0.001156528056377,0.0011565280861796,-0.001156528056017,0.00115652808576,-0.0011220679236814,-0.0011220679236814,0.0011220679238145,0.0011220680110293,0.0034564778626642,0.0031998198942391,0.73588822380148,0.59419810702723,43648,1000,0.0047278505787446,0.0047278505787325,0.0047278505785409,39.50961226148,39.541387399204,0.00023127689809184,0.00023127689809184,0.00023127689809184,900515.89528382,0.014284711029072
7171200,0.81691464923677,0.013678312731866,0.0045594375773545,0.004559437577353,0.0045594375771589,-0.001152202255133,0.0011522022548881,4.3538319581282e-11,-4.3774631303297e-11,-5.8253590981018e-13,4.8209668404193e-13,-0.001171977398186,0.001171977426095,-0.0011719774267632,0.001171977397438,-0.0011719773991967,0.0011719774281565,-0.0011719774281003,0.0011719773992647,-0.0011363999657123,0.0011364000530486,-0.001136400052708,0.0011363999658102,-2.8554350037148e-12,-3.9437495211592e-12,-1.4654967889026e-12,-1.3608136339599e-12,-0.0011522022571974,0.0011522022528317,-0.0011719774137082,0.0011719774118436,-0.0011719774141232,0.0011719774120525,-0.0011719774145824,0.0011719774116237,-0.0011719774140438,0.0011719774116447,-0.001136400011919,0.0011364000058308,-0.0011364000072668,0.0011364000018508,-0.0011364000127166,0.0011364000013862,-0.0011364000122286,0.0011364000000131,-4.3704460741077e-11,4.368840176108e-11,-0.0011522022550222,0.0011522022549111,-6.1127485538453e-14,-1.5084342124879e-13,-0.0011719774279522,0.0011719773980793,-0.0011719774277084,0.0011719773976979,-0.0011719773981441,0.0011719774279791,-0.0011719773979133,0.0011719774274858,-0.0011363999608023,-0.0011363999608023,0.0011363999609391,0.0011364000481348,0.003507687684483,0.0032471720434482,0.72388398734121,0.53332239675741,43648,1000,0.0047893301890855,0.0047893301891022,0.0047893301889035,39.978264267361,40.010092969182,0.00023502611413889,0.00023502611413889,0.00023502611413889,900568.79865997,0.014471807840351
7257600,0.82781132426167,0.013845641469227,0.0046152138231419,0.0046152138231453,0.0046152138229395,-0.0011661323966702,0.0011661323963759,4.3484121354647e-11,-4.3817909275302e-11,-6.7234263686455e-13,4.5698827461602e-13,-0.001186672647975,0.0011866726758259,-0.0011866726765075,0.0011866726472027,-0.0011866726489294,0.001186672677848,-0.001186672677726,0.0011866726490421,-0.0011497377725077,0.0011497378596634,-0.0011497378594849,0.0011497377726157,-2.9424225227764e-12,-4.095365065879e-12,-1.4690254163996e-12,-1.3258232911262e-12,-0.0011661323987095,0.0011661323943259,-0.001186672663387,0.0011866726615949,-0.0011866726637491,0.0011866726617888,-0.0011866726641013,0.0011866726613095,-0.0011866726636754,0.0011866726613077,-0.0011497378186675,0.0011497378126586,-0.0011497378136349,0.0011497378084357,-0.0011497378193568,0.0011497378079208,-0.0011497378188895,0.0011497378066375,-4.3707875783809e-11,4.3673401101693e-11,-0.0011661323965026,0.0011661323964354,5.7731030474294e-14,-6.940990898669e-14,-0.0011866726777147,0.0011866726479028,-0.0011866726774938,0.0011866726475116,-0.0011866726479792,0.0011866726777419,-0.0011866726476931,0.0011866726772629,-0.001149737767571,-0.001149737767571,0.0011497377674795,0.0011497378547148,0.0035553184368575,0.0032921790639255,0.71072136258199,0.46898638272369,43648,1000,0.0048470916724356,0.0048470916724133,0.0048470916722114,40.446917625222,40.478798539162,0.00023877534100177,0.00023877534100177,0.00023877534100177,920949.51720971,0.014647622672809
7344000,0.83829740912767,0.014004600902191,0.0046682003007974,0.0046682003007986,0.004668200300595,-0.0011789686874148,0.0011789686871618,4.3528750638312e-11,-4.3786844341962e-11,-7.4164499031346e-13,4.8805873719942e-13,-0.0012003241229792,0.0012003241508615,-0.0012003241515623,0.001200324122266,-0.001200324123924,0.0012003241530133,-0.0012003241528211,0.0012003241241584,-0.001161935511046,0.0011619355983672,-0.0011619355980483,0.0011619355113396,-2.8857174903703e-12,-4.1401245220377e-12,-1.4757202706999e-12,-1.3763107781799e-12,-0.0011789686894856,0.001178968685085,-0.0012003241384509,0.0012003241367081,-0.0012003241388117,0.0012003241368467,-0.0012003241392562,0.0012003241363902,-0.0012003241388154,0.0012003241363564,-0.0011619355572763,0.0011619355511871,-0.0011619355522999,0.0011619355470531,-0.0011619355578454,0.0011619355466987,-0.0011619355576772,0.0011619355452913,-4.3715849393162e-11,4.3678171808892e-11,-0.0011789686872714,0.001178968687198,-2.8549127843741e-16,-8.4163222988957e-14,-0.0012003241527984,0.0012003241229653,-0.0012003241525067,0.0012003241225615,-0.0012003241230251,0.0012003241528081,-0.0012003241227009,0.001200324152352,-0.0011619355061687,-0.0011619355061687,0.0011619355061677,0.0011619355933168,0.0035985201964428,0.0033345838353409,0.7019276409072,0.42818194048028,43648,1000,0.0049003142031334,0.0049003142031209,0.0049003142029111,40.7381249158,40.758399481115,0.0002411049993264,0.0002411049993264,0.0002411049993264,946187.13886245,0.014809650165942
7430400,0.84823951231673,0.01415400901588,0.0047180030053606,0.0047180030053617,0.0047180030051575,-0.0011906788761164,0.0011906788758682,4.3529761195676e-11,-4.3796064824988e-11,-7.4017968213644e-13,5.1531102230787e-13,-0.001212819977672,0.0012128200055465,-0.0012128200062511,0.001212819976955,-0.0012128199786088,0.0012128200076815,-0.0012128200074932,0.0012128199788464,-0.0011730042237604,0.0011730043111197,-0.0011730043108186,0.001173004224097,-2.8859680121288e-12,-4.166440718096e-12,-1.478806294071e-12,-1.3912109700481e-12,-0.0011906788781995,0.0011906788737841,-0.0012128199931322,0.0012128199913849,-0.0012128199934957,0.0012128199915359,-0.001212819993939,0.001212819991074,-0.001212819993504,0.001212819991033,-0.0011730042700426,0.001173004263917,-0.0011730042650979,0.0011730042597505,-0.0011730042706059,0.0011730042594433,-0.0011730042704338,0.0011730042579696,-4.372623113483e-11,4.3677538681175e-11,-0.0011906788759806,0.0011906788759032,-4.6749454189206e-15,-7.709473304412e-14,-0.0012128200074827,0.0012128199776501,-0.0012128200071949,0.0012128199772554,-0.0012128199777225,0.0012128200074943,-0.001212819977397,0.0012128200070336,-0.0011730042188996,-0.0011730042188996,0.001173004218871,0.0011730043060519,0.0036371412015962,0.0033739656086775,0.69617521064714,0.40318419993587,43648,1000,0.0049488649055049,0.0049488649055028,0.0049488649052959,40.784598656627,40.788401523602,0.00024147678925302,0.00024147678925302,0.00024147678925302,964180.55713058,0.014957478631358
7516800,0.85764847609087,0.014294294192809,0.0047647647310038,0.004764764731005,0.0047647647308006,-0.0012017160216804,0.0012017160214406,4.3533546609445e-11,-4.3792182590647e-11,-7.4752069316771e-13,5.3140611884902e-13,-0.0012246048266341,0.0012246048545104,-0.0012246048552135,0.0012246048259189,-0.0012246048275651,0.0012246048566545,-0.0012246048564502,0.0012246048278178,-0.0011834104911364,0.00118341057851,-0.0011834105781886,0.001183410491485,-2.8775567396757e-12,-4.1818189541838e-12,-1.4715574272837e-12,-1.3999238215235e-12,-0.0012017160237707,0.0012017160193491,-0.0012246048420917,0.00122460484035,-0.0012246048424607,0.0012246048404958,-0.0012246048429073,0.0012246048400319,-0.0012246048424745,0.0012246048399855,-0.0011834105374232,0.0011834105313043,-0.0011834105324985,0.0011834105271283,-0.0011834105379831,0.0011834105268326,-0.0011834105378319,0.0011834105253334,-4.3723361516613e-11,4.3680571382645e-11,-0.0012017160215465,0.0012017160214737,-1.1314036716886e-14,-6.813374209036e-14,-0.0012246048564468,0.0012246048266148,-0.0012246048561532,0.0012246048262241,-0.0012246048266866,0.0012246048564591,-0.0012246048263558,0.0012246048560015,-0.0011834104862805,-0.0011834104862805,0.0011834104862662,0.0011834105734461,0.0036730746456761,0.0034104590254015,0.69098894757353,0.38129582520854,43648,1000,0.0049946228466765,0.0049946228466739,0.0049946228464676,40.816180872407,40.818403566089,0.00024172944697926,0.00024172944697926,0.00024172944697926,975687.5225494,0.015096823952813
7603200,0.8665436545611,0.014426182356884,0.0048087274523621,0.0048087274523633,0.0048087274521588,-0.0012120830446334,0.0012120830444041,4.3537577015731e-11,-4.3786928457039e-11,-7.5428589826004e-13,5.5116469170877e-13,-0.0012356978585232,0.0012356978864008,-0.0012356978871026,0.0012356978578089,-0.0012356978594476,0.001235697888556,-0.0012356978883327,0.0012356978597186,-0.0011931631980983,0.0011931632854842,-0.0011931632851477,0.0011931631984635,-2.8662623200065e-12,-4.1972181308084e-12,-1.4682210880301e-12,-1.4086997004852e-12,-0.0012120830467331,0.0012120830423036,-0.0012356978739826,0.0012356978722436,-0.0012356978743567,0.0012356978723858,-0.0012356978748075,0.0012356978719175,-0.0012356978743784,0.0012356978718657,-0.0011931632443919,0.0011931632382692,-0.0011931632394785,0.0011931632340816,-0.0011931632449386,0.0011931632338123,-0.0011931632448119,0.0011931632322825,-4.3721451104386e-11,4.3681225245023e-11,-0.0012120830445031,0.0012120830444339,-1.518659488348e-14,-6.0005960976729e-14,-0.0012356978883388,0.0012356978585068,-0.0012356978880404,0.0012356978581204,-0.0012356978585796,0.0012356978883505,-0.0012356978582434,0.0012356978878973,-0.0011931631932464,-0.0011931631932464,0.0011931631932364,0.0011931632804175,0.0037063300911454,0.0034442938675599,0.68733621891125,0.36716775327241,43648,1000,0.005037600537401,0.0050376005373992,0.0050376005371925,40.846343293004,40.848405608576,0.00024197074634403,0.00024197074634403,0.00024197074634403,984706.05979991,0.015227720667837
7689600,0.87494535661399,0.014550522522946,0.0048501741743825,0.0048501741743839,0.0048501741741793,-0.0012218986024542,0.0012218986022309,4.3543311017032e-11,-4.3786273653514e-11,-7.5829730512608e-13,5.6105633070246e-13,-0.0012461938910263,0.0012461939189075,-0.0012461939196075,0.0012461938903133,-0.0012461938919476,0.001246193921069,-0.001246193920835,0.0012461938922289,-0.0012023972565939,0.0012023973439955,-0.0012023973436468,0.00120239725697,-2.8592664160796e-12,-4.2042710918158e-12,-1.4646209627173e-12,-1.412832750694e-12,-0.0012218986045586,0.0012218986001256,-0.0012461939064873,0.0012461939047494,-0.0012461939068643,0.0012461939048896,-0.0012461939073172,0.0012461939044188,-0.0012461939068897,0.0012461939043642,-0.0012023973028931,0.0012023972967731,-0.00120239729799,0.0012023972925797,-0.0012023973034344,0.0012023972923239,-0.0012023973033217,0.0012023972907817,-4.3722832856292e-11,4.368488286858e-11,-0.0012218986023257,0.0012218986022587,-1.8107535062527e-14,-5.5284752265238e-14,-0.0012461939208445,0.0012461938910113,-0.0012461939205435,0.0012461938906271,-0.0012461938910842,0.0012461939208565,-0.0012461938907452,0.0012461939204053,-0.0012023972517464,-0.0012023972517464,0.0012023972517427,0.0012023973389281,0.0037373970440687,0.0034757361223887,0.68617557826047,0.3653920339003,43648,1000,0.0050782902997832,0.0050782902997814,0.0050782902995745,40.876361707396,40.878407651063,0.00024221089365917,0.00024221089365917,0.00024221089365917,988456.63654021,0.015351664887032
7776000,0.88287406251717,0.014667660267152,0.0048892200891178,0.0048892200891192,0.0048892200889146,-0.0012312408522428,0.0012312408520279,4.3547594592054e-11,-4.378368055626e-11,-7.6489351538109e-13,5.7678861479786e-13,-0.0012561580584861,0.0012561580863701,-0.0012561580870683,0.0012561580577755,-0.0012561580594017,0.0012561580885401,-0.0012561580882904,0.0012561580596991,-0.0012111916125309,0.0012111916999454,-0.0012111916995852,0.001211191612919,-2.850276808353e-12,-4.2177593856401e-12,-1.4630244526661e-12,-1.4188260676023e-12,-0.0012312408543548,0.001231240849915,-0.0012561580739487,0.0012561580722122,-0.001256158074329,0.0012561580723501,-0.0012561580747861,0.0012561580718743,-0.0012561580743602,0.0012561580718167,-0.0012111916588388,0.0012111916527141,-0.0012111916539413,0.0012111916485138,-0.0012111916593683,0.0012111916482788,-0.0012111916592785,0.0012111916467115,-4.3722422809995e-11,4.3686922629796e-11,-0.0012312408521173,0.0012312408520527,-2.0396465137285e-14,-5.0088675707692e-14,-0.0012561580883072,0.0012561580584736,-0.0012561580880029,0.0012561580580913,-0.0012561580585466,0.0012561580883185,-0.0012561580582044,0.0012561580878694,-0.0012111916076889,-0.0012111916076889,0.0012111916076861,0.0012111916948775,0.0037666012466894,0.0035048996856848,0.68503257199405,0.3636163145282,43648,1000,0.0051170164181833,0.0051170164181816,0.0051170164179747,40.906365284329,40.90840969355,0.00024245092227463,0.00024245092227463,0.00024245092227463,985481.45317354,0.015469641904167
7862400,0.8903502199644,0.014777939158636,0.0049259797196125,0.004925979719614,0.0049259797194092,-0.0012400360440995,0.0012400360438829,4.3545213605968e-11,-4.3782821288393e-11,-7.6157067571509e-13,5.7232757460899e-13,-0.0012655431290374,0.0012655431569212,-0.0012655431576191,0.0012655431283271,-0.0012655431299563,0.0012655431590897,-0.0012655431588447,0.001265543130249,-0.0012194686338831,0.0012194687212888,-0.0012194687209335,0.0012194686342689,-2.8507472645691e-12,-4.2105633701793e-12,-1.4527423844232e-12,-1.4229561179026e-12,-0.0012400360462087,0.0012400360417729,-0.0012655431444979,0.0012655431427659,-0.0012655431448833,0.0012655431428994,-0.0012655431453337,0.0012655431424312,-0.0012655431449116,0.0012655431423682,-0.0012194686801764,0.0012194686740743,-0.0012194686752943,0.001219468669859,-0.0012194686807189,0.0012194686696266,-0.0012194686806187,0.0012194686680664,-4.371857845685e-11,4.3687517317511e-11,-0.0012400360439708,0.0012400360439111,-2.476650810606e-14,-4.0232212110007e-14,-0.0012655431588588,0.0012655431290266,-0.0012655431585493,0.0012655431286486,-0.0012655431290997,0.0012655431588705,-0.0012655431287521,0.0012655431584255,-0.0012194686290356,-0.0012194686290356,0.001219468629042,0.0012194687162286,0.0037936338435769,0.0035318979433882,0.68390623705598,0.36184059515609,43648,1000,0.0051534734033017,0.0051534734033001,0.0051534734030933,40.936367324635,40.938411736037,0.00024269093859708,0.00024269093859708,0.00024269093859708,980807.19112236,0.015580718919933
7948800,0.89739410708736,0.014881685038005,0.0049605616794023,0.0049605616794039,0.0049605616791991,-0.0012483101464077,0.0012483101461962,4.3550436505235e-11,-4.3781774202734e-11,-7.6418959570888e-13,5.7954929516685e-13,-0.0012743760685685,0.0012743760964551,-0.0012743760971519,0.0012743760678595,-0.0012743760694855,0.0012743760986288,-0.0012743760983758,0.0012743760697862,-0.0012272531122975,0.0012272531997179,-0.0012272531993509,0.001227253112694,-2.8451766112193e-12,-4.2149799999602e-12,-1.4462358184885e-12,-1.4296040030496e-12,-0.0012483101485206,0.0012483101440825,-0.0012743760840293,0.0012743760823006,-0.0012743760844196,0.00127437608243,-0.0012743760848691,0.0012743760819627,-0.0012743760844509,0.0012743760818947,-0.0012272531585945,0.0012272531525018,-0.0012272531537258,0.0012272531482739,-0.0012272531591358,0.0012272531480545,-0.0012272531590459,0.0012272531464858,-4.3718112147566e-11,4.3692114824119e-11,-0.001248310146279,0.0012483101462242,-2.8548921967678e-14,-3.1034198985347e-14,-0.0012743760983921,0.0012743760685592,-0.0012743760980777,0.0012743760681853,-0.0012743760686325,0.0012743760984042,-0.0012743760682797,0.0012743760979632,-0.0012272531074524,-0.0012272531074524,0.0012272531074716,0.0012272531946596,0.0038186027538712,0.003556838451025,0.68279564882059,0.36006487578398,43648,1000,0.0051877691493773,0.0051877691493757,0.0051877691491687,40.966369204217,40.968413778524,0.00024293095363374,0.00024293095363374,0.00024293095363374,974741.09420913,0.015685222408502
8035200,0.90402574583296,0.01497921664429,0.0049930722148307,0.0049930722148323,0.0049930722146275,-0.0012560885773919,0.0012560885771846,4.3556160036268e-11,-4.3783277097998e-11,-7.6772613472887e-13,5.8593610005435e-13,-0.0012826833712784,0.0012826833991699,-0.0012826833998644,0.0012826833705713,-0.0012826833721932,0.0012826834013479,-0.0012826834010863,0.0012826833725021,-0.0012345692813215,0.001234569368755,-0.0012345693683809,0.0012345692817254,-2.8400215334093e-12,-4.2198690858961e-12,-1.445493047062e-12,-1.4300892235206e-12,-0.001256088579508,0.0012560885750677,-0.0012826833867423,0.001282683385013,-0.0012826833871336,0.0012826833851426,-0.0012826833875858,0.0012826833846722,-0.0012826833871672,0.0012826833846035,-0.0012345693276246,0.0012345693215288,-0.0012345693227565,0.0012345693173025,-0.0012345693281569,0.0012345693170889,-0.0012345693280809,0.0012345693155146,-4.3721684567842e-11,4.369573833107e-11,-0.0012560885772653,0.0012560885772107,-2.929089930078e-14,-3.0545890373428e-14,-0.0012826834011067,0.0012826833712718,-0.0012826834007916,0.0012826833708978,-0.0012826833713444,0.0012826834011184,-0.0012826833709908,0.0012826834006774,-0.0012345692764795,-0.0012345692764795,0.0012345692764988,0.0012345693636938,0.0038416136868266,0.0035798265038267,0.68169992426293,0.35828915641187,43648,1000,0.005220009239965,0.0052200092399635,0.0052200092397566,40.996371065793,40.998415821011,0.00024317096852634,0.00024317096852634,0.00024317096852634,967551.82027926,0.01578347207381
8121600,0.91027561276736,0.015071001846851,0.0050236672823509,0.0050236672823526,0.0050236672821477,-0.0012634730630062,0.0012634730628002,4.3559849982366e-11,-4.3786727580823e-11,-7.662837670275e-13,5.8869407462365e-13,-0.0012905676999411,0.001290567727835,-0.0012905677285302,0.0012905676992342,-0.0012905677008567,0.0012905677300146,-0.0012905677297529,0.0012905677011661,-0.0012415176505118,0.0012415177379517,-0.0012415177375764,0.0012415176509147,-2.8371616207776e-12,-4.2183856018037e-12,-1.4486025108935e-12,-1.4245286580979e-12,-0.0012634730651225,0.0012634730606831,-0.0012905677154084,0.0012905677136752,-0.0012905677157976,0.0012905677138083,-0.0012905677162527,0.0012905677133344,-0.0012905677158309,0.0012905677132682,-0.0012415176968186,0.0012415176907153,-0.0012415176919438,0.0012415176864967,-0.001241517697349,0.0012415176862939,-0.0012415176972677,0.0012415176847113,-4.3726428922906e-11,4.3698125052275e-11,-0.0012634730628815,0.001263473062824,-2.6470103121225e-14,-3.6252363103427e-14,-0.0012905677297714,0.0012905676999337,-0.0012905677294588,0.0012905676995569,-0.0012905677000081,0.0012905677297834,-0.0012905676996568,0.0012905677293394,-0.0012415176456703,-0.0012415176456703,0.0012415176456836,0.0012415177328877,0.0038630924901553,0.0036010175492918,0.68061742304951,0.35651343703977,43648,1000,0.0052506155149095,0.005250615514908,0.0052506155147007,41.059659656146,41.063890199224,0.00024367727724917,0.00024367727724917,0.00024367727724917,959403.09067623,0.015876751697382
8208000,0.91617388288406,0.015157502067399,0.0050525006892001,0.0050525006892018,0.0050525006889969,-0.0012705175733256,0.0012705175731214,4.3565061587861e-11,-4.3789719312957e-11,-7.6718732765964e-13,5.9036372949919e-13,-0.0012980856377195,0.0012980856656189,-0.0012980856663124,0.001298085637014,-0.0012980856386353,0.0012980856678,-0.0012980856675356,0.0012980856389473,-0.0012481498298232,0.001248149917269,-0.0012481499169016,0.001248149830238,-2.8344104695293e-12,-4.2183041337043e-12,-1.4496345087785e-12,-1.4245804506333e-12,-0.0012705175754431,0.0012705175710032,-0.0012980856531909,0.0012980856514568,-0.0012980856535796,0.0012980856515902,-0.0012980856540364,0.0012980856511156,-0.0012980856536123,0.001298085651049,-0.0012481498761451,0.0012481498700375,-0.001248149871267,0.0012481498658157,-0.0012481498766587,0.0012481498656173,-0.0012481498765828,0.0012481498640352,-4.3732948517854e-11,4.3699766060967e-11,-0.0012705175732031,0.0012705175731437,-2.6500719832965e-14,-3.7183275841153e-14,-0.0012980856675576,0.0012980856377161,-0.0012980856672443,0.0012980856373377,-0.0012980856377907,0.0012980856675695,-0.0012980856374387,0.0012980856671233,-0.001248149824994,-0.001248149824994,0.0012481498249954,0.0012481499122043,0.0038832654444559,0.0036205651387564,0.67954640037088,0.35473771766766,43648,1000,0.0052798118121055,0.0052798118121042,0.0052798118118979,41.165167741264,41.172251594351,0.00024452134193011,0.00024452134193011,0.00024452134193011,950517.07956446,0.015965742156957
8294400,0.92173594941769,0.015239110599133,0.0050797035331114,0.0050797035331132,0.0050797035329082,-0.0012771780792001,0.0012771780790037,4.3567577158071e-11,-4.3788648992713e-11,-7.7296662169441e-13,6.0742650236084e-13,-0.0013051917141412,0.0013051917420425,-0.0013051917427344,0.0013051917134368,-0.0013051917150518,0.0013051917442324,-0.0013051917439518,0.0013051917153792,-0.0012544245351165,0.0012544246225655,-0.0012544246221739,0.0012544245355223,-2.824533477147e-12,-4.2313789695711e-12,-1.4370380994725e-12,-1.4379463952541e-12,-0.0012771780813242,0.0012771780768784,-0.0013051917296087,0.001305191727881,-0.0013051917300067,0.0013051917280067,-0.0013051917304614,0.0013051917275324,-0.0013051917300473,0.0013051917274568,-0.0012544245814028,0.0012544245753212,-0.0012544245765661,0.001254424571082,-0.0012544245819453,0.0012544245709168,-0.0012544245818861,0.0012544245693049,-4.3724401837773e-11,4.3709845047179e-11,-0.0012771780790749,0.0012771780790276,-3.5364743160784e-14,-2.0643604646166e-14,-0.0013051917439756,0.0013051917141371,-0.0013051917436538,0.0013051917137676,-0.0013051917142086,0.0013051917439887,-0.0013051917138483,0.0013051917435526,-0.0012544245302644,-0.0012544245302644,0.0012544245302944,0.0012544246175084,0.0039019454830057,0.0036385942674277,0.67971331432382,0.35907401629265,43648,1000,0.0053074157874734,0.005307415787471,0.0053074157872636,41.273252728655,41.280612989477,0.00024538602182924,0.00024538602182924,0.00024538602182924,940850.25257065,0.016049886448686
8380800,0.92697629399607,0.015316074179528,0.0051053580599098,0.0051053580599116,0.0051053580597065,-0.0012835335509916,0.0012835335507912,4.3562263673335e-11,-4.3781159927382e-11,-7.6949708062769e-13,5.9307917595593e-13,-0.0013119477947661,0.0013119478226655,-0.001311947823354,0.0013119477940611,-0.0013119477956812,0.0013119478248494,-0.0013119478245775,0.0013119477959984,-0.0012604229315745,0.0012604230190106,-0.0012604230186243,0.001260422931986,-2.8289743414816e-12,-4.2184823047319e-12,-1.4243929563612e-12,-1.4456731886176e-12,-0.0012835335531109,0.001283533548671,-0.0013119478102266,0.0013119478085085,-0.0013119478106345,0.001311947808626,-0.001311947811076,0.0013119478081662,-0.00131194781067,0.0013119478080823,-0.0012604229778418,0.0012604229717914,-0.0012604229730249,0.0012604229675364,-0.0012604229783874,0.0012604229673598,-0.0012604229783316,0.0012604229657707,-4.3714474876329e-11,4.3706830551034e-11,-0.0012835335508611,0.0012835335508215,-4.2167682394483e-14,-7.3660690892927e-15,-0.0013119478246009,0.001311947794767,-0.0013119478242702,0.0013119477944053,-0.001311947794837,0.0013119478246143,-0.0013119477944681,0.0013119478241853,-0.0012604229267138,-0.0012604229267138,0.0012604229267646,0.0012604230139548,0.0039194611589696,0.0036551854833572,0.68020708230719,0.3649459305384,43648,1000,0.0053337548821544,0.0053337548821524,0.0053337548819468,41.381583754191,41.388974384604,0.00024625267003353,0.00024625267003353,0.00024625267003353,928319.36893302,0.016130181458151
8467200,0.93190917955442,0.015388599564196,0.0051295331881323,0.0051295331881341,0.0051295331879291,-0.0012895548487018,0.0012895548485041,4.3566897884705e-11,-4.3785675495316e-11,-7.6875004462559e-13,5.9993202542961e-13,-0.0013183375829455,0.0013183376108477,-0.0013183376115385,0.0013183375822413,-0.0013183375838602,0.0013183376130356,-0.0013183376127605,0.0013183375841817,-0.0012661132362253,0.0012661133236751,-0.0012661133232828,0.0012661132366379,-2.8270999281554e-12,-4.2223018351067e-12,-1.4160380939494e-12,-1.4445267530522e-12,-0.0012895548508217,0.0012895548463837,-0.0013183375984097,0.0013183375966935,-0.0013183375988178,0.0013183375968112,-0.0013183375992611,0.0013183375963493,-0.0013183375988544,0.0013183375962652,-0.0012661132825079,0.0012661132764652,-0.0012661132776831,0.0012661132721964,-0.0012661132830587,0.0012661132720148,-0.0012661132829934,0.0012661132704215,-4.3719155850975e-11,4.3711281944459e-11,-0.0012895548485716,0.0012895548485337,-4.2554847037457e-14,-3.4881287341792e-16,-0.001318337612783,0.0013183375829458,-0.0013183376124508,0.0013183375825833,-0.0013183375830174,0.0013183376127974,-0.0013183375826468,0.0013183376123669,-0.0012661132313763,-0.0012661132313763,0.0012661132314305,0.0012661133186328,0.0039356905171036,0.0036704074726418,0.6807216341926,0.37081784478414,43648,1000,0.0053587084215633,0.0053587084215622,0.0053587084213548,41.489939770978,41.497335779731,0.00024711951816782,0.00024711951816782,0.00024711951816782,914797.67259322,0.016206258412614
8553600,0.93654865795314,0.015456887209775,0.0051522957366588,0.0051522957366606,0.0051522957364556,-0.0012952419093757,0.0012952419091959,4.357817554018e-11,-4.3775869147835e-11,-7.8418163202472e-13,6.3080919980019e-13,-0.0013243665421795,0.0013243665700874,-0.0013243665707737,0.0013243665414807,-0.0013243665430822,0.0013243665722898,-0.0013243665719843,0.0013243665434344,-0.0012714934699758,0.0012714935574609,-0.0012714935570391,0.0012714934704318,-2.8100335671681e-12,-4.2518189333796e-12,-1.4165027856358e-12,-1.4619273685342e-12,-0.001295241911513,0.0012952419070588,-0.0013243665576504,0.0013243665559342,-0.0013243665580619,0.0013243665560476,-0.0013243665585151,0.0013243665555777,-0.0013243665581114,0.0013243665554878,-0.0012714935162654,0.0012714935102148,-0.0012714935114625,0.0012714935059201,-0.0012714935168005,0.0012714935057996,-0.0012714935167958,0.0012714935041622,-4.3718655042745e-11,4.3713200974069e-11,-0.0012952419092528,0.0012952419092195,-4.7511636787404e-14,1.1167629424822e-14,-0.0013243665720265,0.0013243665421898,-0.0013243665716898,0.0013243665418299,-0.0013243665422602,0.0013243665720411,-0.001324366541884,0.0013243665716147,-0.0012714934651184,-0.0012714934651184,0.0012714934651804,0.001271493552378,0.0039506331091155,0.0036843268546102,0.68125592376498,0.37668975902989,43648,1000,0.005382276244764,0.0053822762447645,0.0053822762445584,41.598298367977,41.605697174858,0.00024798638694381,0.00024798638694381,0.00024798638694381,901001.22404335,0.016278115889604
8640000,0.94090853017337,0.015521132914944,0.0051737109717152,0.0051737109717171,0.0051737109715121,-0.0013006099470048,0.0013006099468265,4.3573106400921e-11,-4.3770938239647e-11,-7.8386611225187e-13,6.3348147110531e-13,-0.0013300513798585,0.0013300514077614,-0.0013300514084479,0.0013300513791585,-0.0013300513807596,0.0013300514099673,-0.0013300514096577,0.0013300513811152,-0.0012765773970926,0.0012765774845739,-0.0012765774841449,0.0012765773975468,-2.8067554320188e-12,-4.2510602506744e-12,-1.4114738216201e-12,-1.4636126111688e-12,-0.001300609949142,0.0013006099446881,-0.0013300513953196,0.0013300513936075,-0.001330051395737,0.0013300513937165,-0.0013300513961865,0.0013300513932468,-0.0013300513957864,0.001330051393153,-0.0012765774433956,0.0012765774373438,-0.001276577438597,0.0012765774330568,-0.0012765774439226,0.0012765774329251,-0.0012765774439067,0.0012765774312816,-4.3710796488701e-11,4.3710937954968e-11,-0.0013006099468798,0.0013006099468508,-4.9376138651681e-14,1.5837516174752e-14,-0.0013300514096938,0.0013300513798613,-0.0013300514093531,0.0013300513795072,-0.0013300513799329,0.0013300514097095,-0.0013300513795536,0.0013300514092881,-0.0012765773922554,-0.0012765773922554,0.0012765773923273,0.0012765774795198,0.0039643522960112,0.0036970087232327,0.68180896233373,0.38256167327564,43648,1000,0.005404521497593,0.0054045214975904,0.0054045214973841,41.7066572351,41.714058569985,0.0002488532578808,0.0002488532578808,0.0002488532578808,887071.53715587,0.016345945534961
8726400,0.94500230616448,0.015581528215397,0.0051938427385326,0.0051938427385345,0.0051938427383295,-0.0013056738758093,0.0013056738756247,4.3557243826688e-11,-4.3764391557291e-11,-7.7653486562818e-13,6.2207981941794e-13,-0.0013354084608548,0.0013354084887492,-0.0013354084894379,0.0013354084601555,-0.0013354084617609,0.0013354084909502,-0.0013354084906529,0.0013354084621078,-0.0012813785373888,0.0012813786248318,-0.0012813786244174,0.0012813785378266,-2.8101183881063e-12,-4.2355921349795e-12,-1.4236776840946e-12,-1.4461455271292e-12,-0.0013056738779405,0.0013056738734931,-0.00133540847632,0.0013354084745974,-0.0013354084767276,0.0013354084747169,-0.0013354084771831,0.0013354084742422,-0.001335408476773,0.0013354084741586,-0.0012813785836846,0.0012813785776133,-0.0012813785788546,0.001281378573347,-0.001281378584196,0.0012813785732045,-0.0012813785841531,0.0012813785715826,-4.3703715263851e-11,4.3695731007765e-11,-0.0013056738756864,0.0013056738756474,-3.9340886398219e-14,-3.2917229695346e-15,-0.0013354084906857,0.0013354084608603,-0.0013354084903554,0.0013354084604962,-0.0013354084609323,0.0013354084906983,-0.0013354084605633,0.001335408490267,-0.0012813785325525,-0.0012813785325525,0.0012813785326034,0.001281378619776,0.003976910194261,0.0037085167686285,0.68237981920291,0.38843358752138,43648,1000,0.005425506072251,0.00542550607225,0.0054255060720433,41.815016133724,41.822419965111,0.00024972012906979,0.00024972012906979,0.00024972012906979,873127.68842483,0.016409935274457
8812800,0.94884316980782,0.015636717602882,0.0052122392010278,0.0052122392010297,0.0052122392008246,-0.0013103126503788,0.0013103126502013,4.3549057547362e-11,-4.3747120379031e-11,-7.6689880706198e-13,6.4750374861671e-13,-0.0013403544493269,0.0013403544772751,-0.001340354477957,0.0013403544486776,-0.0013403544502614,0.0013403544794461,-0.0013403544791595,0.0013403544506169,-0.0012857277689228,0.0012857278563546,-0.001285727855976,0.0012857277693649,-2.8039599880059e-12,-4.2463251600341e-12,-1.428150047467e-12,-1.4435372832798e-12,-0.0013103126525105,0.0013103126480434,-0.0013403544648234,0.0013403544630557,-0.0013403544652653,0.0013403544631972,-0.0013403544656909,0.0013403544627494,-0.001340354465305,0.0013403544626474,-0.0012857278152268,0.0012857278091956,-0.0012857278104359,0.0012857278049326,-0.0012857278157732,0.0012857278048103,-0.0012857278157021,0.0012857278031938,-4.3696379164434e-11,4.3677672853546e-11,-0.0013103126502713,0.0013103126502041,-5.1459104430271e-14,-2.2845155037372e-14,-0.0013403544792345,0.0013403544493354,-0.0013403544788744,0.0013403544490083,-0.0013403544494655,0.0013403544791847,-0.0013403544490632,0.0013403544787462,-0.0012857277641828,-0.0012857277641828,0.0012857277642614,0.0012857278512822,0.003987821960477,0.0037184585269184,0.66459911751021,0.30344439455299,43648,1000,0.0054447282173834,0.0054447282173292,0.0054447282171666,41.923375241011,41.930781360238,0.00025058700192809,0.00025058700192809,0.00025058700192809,861773.62770371,0.016468555187521
8899200,0.95242453673152,0.015687758613662,0.0052292528712879,0.0052292528712896,0.0052292528710846,-0.0013133987332944,0.0013133987331163,4.3550281568792e-11,-4.3749414779527e-11,-7.7960800703994e-13,6.3066814528578e-13,-0.0013440103832068,0.0013440104110997,-0.0013440104117843,0.0013440103825113,-0.0013440103841132,0.0013440104133052,-0.0013440104129989,0.0013440103844683,-0.0012884976220176,0.0012884977094448,-0.0012884977090298,0.0012884976224707,-2.8031474245939e-12,-4.2406522156916e-12,-1.4272591335073e-12,-1.4385222600148e-12,-0.001313398735429,0.0013133987309808,-0.0013440103986737,0.0013440103969461,-0.0013440103990785,0.00134401039707,-0.0013440103995397,0.0013440103965903,-0.001344010399125,0.0013440103965081,-0.0012884976683155,0.0012884976622375,-0.0012884976634782,0.0012884976579848,-0.0012884976688113,0.0012884976578441,-0.0012884976687869,0.0012884976562077,-4.3697090789754e-11,4.3680243686774e-11,-0.0013133987331774,0.0013133987331324,-3.6979635003417e-14,-1.1910930246904e-14,-0.0013440104130335,0.0013440103832136,-0.0013440104127052,0.001344010382846,-0.0013440103832873,0.0013440104130458,-0.0013440103829198,0.00134401041261,-0.001288497617206,-0.001288497617206,0.0012884976172408,0.0012884977043912,0.0039923615674696,0.0037271419669852,0.65902156040339,0.27958262364292,43648,1000,0.0054575155365718,0.0054575155365701,0.0054575155363628,41.925666650233,41.926091277618,0.00025060533320187,0.00025060533320187,0.00025060533320187,881451.89540273,0.016507555888312
8985600,0.95574174903165,0.015735465307144,0.0052451551024487,0.0052451551024504,0.0052451551022454,-0.0013166382124017,0.0013166382122327,4.3532028832283e-11,-4.3720988647926e-11,-7.64274651934e-13,6.5030601595054e-13,-0.0013476137073164,0.0013476137351873,-0.0013476137358885,0.0013476137066142,-0.0013476137082286,0.0013476137374036,-0.0013476137371031,0.0013476137085924,-0.0012914760526989,0.0012914761401214,-0.0012914761396745,0.0012914760531779,-2.7829789230807e-12,-4.2299634834015e-12,-1.4107001687841e-12,-1.4322214525001e-12,-0.0013166382145391,0.0013166382100932,-0.0013476137227861,0.0013476137210571,-0.0013476137232061,0.0013476137211676,-0.0013476137236679,0.0013476137206884,-0.0013476137232661,0.0013476137205981,-0.0012914760989425,0.0012914760928967,-0.0012914760940942,0.0012914760886157,-0.0012914760994815,0.0012914760885666,-0.0012914760993652,0.0012914760868604,-4.3682899870335e-11,4.3669872650661e-11,-0.0013166382122825,0.0013166382122465,-2.9361485379717e-14,6.5726815620311e-15,-0.0013476137371244,0.0013476137073048,-0.0013476137368006,0.001347613706961,-0.0013476137073924,0.0013476137371375,-0.0013476137070344,0.0013476137367253,-0.0012914760478385,-0.0012914760478385,0.0012914760479155,0.0012914761349935,0.0039976347052745,0.0037348014783409,0.66514706811517,0.31372910299747,43648,1000,0.0054709386104342,0.0054709386104298,0.0054709386102156,41.804089284733,41.796109644119,0.00024963271427786,0.00024963271427786,0.00024963271427786,880261.60098875,0.016548495775401
9072000,0.95881353166934,0.015779607003863,0.0052598690013548,0.0052598690013567,0.0052598690011514,-0.0013202619856538,0.0013202619854775,4.3517510746389e-11,-4.3720295374987e-11,-7.7817275676821e-13,6.372083572515e-13,-0.0013513994223618,0.0013513994502336,-0.0013513994509189,0.0013513994216633,-0.0013513994232648,0.001351399452442,-0.0013513994521308,0.0013513994236232,-0.0012948801093769,0.0012948801967283,-0.0012948801963221,0.0012948801098327,-2.7985974459455e-12,-4.2412820788027e-12,-1.4188561549184e-12,-1.4481992879176e-12,-0.00132026198779,0.0013202619833401,-0.0013513994378142,0.0013513994360914,-0.0013513994382263,0.00135139943621,-0.001351399438683,0.001351399435731,-0.0013513994382742,0.0013513994356431,-0.001294880155633,0.0012948801495684,-0.0012948801508115,0.0012948801452885,-0.0012948801561406,0.0012948801451778,-0.0012948801561005,0.0012948801435314,-4.3663814541614e-11,4.3651788556059e-11,-0.001320261985534,0.0013202619854958,-4.1268651035745e-14,1.6422145373555e-15,-0.0013513994521638,0.0013513994223644,-0.0013513994518306,0.0013513994220037,-0.0013513994224393,0.0013513994521786,-0.0013513994220673,0.0013513994517502,-0.0012948801045632,-0.0012948801045632,0.0012948801045948,0.0012948801916824,0.0040046169131262,0.0037413801495685,0.66457716536117,0.31420980998412,43648,1000,0.0054859541573479,0.0054859541573456,0.0054859541571379,41.674913838502,41.66612801062,0.00024859931070802,0.00024859931070802,0.00024859931070802,859342.67986424,0.016594293131419
9158400,0.96165848424444,0.015820411720063,0.0052734705734216,0.0052734705734234,0.0052734705732181,-0.0013232245970303,0.0013232245967294,4.3389407953959e-11,-4.3812457206565e-11,-7.6301192580354e-13,4.9175156556252e-13,-0.0013545962515882,0.0013545962792989,-0.0013545962802075,0.001354596251052,-0.0013545962526158,0.0013545962818355,-0.0013545962815456,0.0013545962529701,-0.0012976307435643,0.0012976308307832,-0.0012976308302792,0.0012976307444423,-3.0040301701168e-12,-4.2057363999929e-12,-1.4240258793398e-12,-1.4723244626748e-12,-0.0013232245991449,0.0013232245946386,-0.0013545962672917,0.001354596265384,-0.0013545962677518,0.0013545962657749,-0.0013545962682973,0.0013545962653476,-0.0013545962678383,0.0013545962649766,-0.0012976307896191,0.0012976307839497,-0.0012976307853235,0.0012976307795906,-0.0012976307905183,0.0012976307793546,-0.0012976307898793,0.0012976307778333,-4.3612887450343e-11,4.3676829496958e-11,-0.0013232245967757,0.0013232245967793,-1.1672025780566e-14,5.0649687980917e-14,-0.0013545962813984,0.0013545962517196,-0.0013545962810516,0.0013545962514225,-0.001354596251782,0.0013545962813508,-0.0013545962515293,0.0013545962810911,-0.0012976307388629,-0.0012976307388629,0.001297630739082,0.0012976308257084,0.0040089422215203,0.0037469563811798,0.66303482965596,0.30977246867508,43648,1000,0.0054982297628013,0.0054982297628507,0.0054982297623773,41.545011078183,41.536146377121,0.00024756008862547,0.00024756008862547,0.00024756008862547,849745.54862579,0.0166317358939
9244800,0.96429390643576,0.015858130689688,0.0052860435632967,0.0052860435632998,0.005286043563092,-0.0013258865412876,0.0013258865411432,4.3531264267405e-11,-4.371059578895e-11,-6.0684393192267e-13,5.7890013852755e-13,-0.0013574988756008,0.0013574989033858,-0.0013574989041051,0.0013574988750322,-0.0013574988764831,0.0013574989056821,-0.0013574989054605,0.0013574988771369,-0.0013000925260965,0.0013000926135588,-0.0013000926135498,0.0013000925270138,-2.9179403295141e-12,-4.1498965176276e-12,-1.3528923171272e-12,-1.3995414214408e-12,-0.0013258865433905,0.0013258865389191,-0.0013574988911704,0.0013574988894895,-0.0013574988916243,0.0013574988895887,-0.0013574988922184,0.0013574988891334,-0.001357498891729,0.0013574988889252,-0.0013000925723799,0.0013000925666666,-0.0013000925677779,0.0013000925622097,-0.0013000925733396,0.0013000925619444,-0.0013000925727975,0.0013000925608566,-4.3716933977676e-11,4.3576500944279e-11,-0.0013258865410706,0.0013258865409513,-5.6867762728884e-14,-2.7121436164624e-14,-0.001357498905215,0.0013574988756503,-0.0013574989049819,0.0013574988752797,-0.001357498875686,0.0013574989052835,-0.0013574988753668,0.0013574989046817,-0.0013000925216132,-0.0013000925216132,0.0013000925213001,0.0013000926083376,0.0040121220100563,0.0037516133977972,0.66149925443,0.30533512736603,43648,1000,0.0055092593591602,0.0055092593589091,0.005509259358313,41.41503432762,41.406164743622,0.00024652027462096,0.00024652027462096,0.00024652027462096,842524.53918619,0.016665379605829
9331200,0.96673579820438,0.015893004284968,0.0052976680950576,0.0052976680950604,0.00529766809485,-0.001328321354281,0.0013283213543083,4.3595131375132e-11,-4.3655203539969e-11,-4.8448614045744e-13,6.9054502197065e-13,-0.0013601630067279,0.0013601630347214,-0.0013601630351916,0.0013601630062045,-0.00136016300754,0.0013601630368278,-0.0013601630363841,0.0013601630082829,-0.0013023384081615,0.0013023384962554,-0.0013023384956461,0.0013023384091401,-2.8985407456875e-12,-4.099568408058e-12,-1.365017182015e-12,-1.4174467567981e-12,-0.0013283213563861,0.0013283213520647,-0.0013601630222068,0.0013601630205857,-0.0013601630226335,0.0013601630205572,-0.0013601630229919,0.0013601630201441,-0.0013601630225347,0.0013601630199384,-0.0013023384548786,0.0013023384490988,-0.0013023384499738,0.0013023384444619,-0.0013023384558518,0.0013023384444756,-0.0013023384547919,0.0013023384428329,-4.37593328883e-11,4.3551973840624e-11,-0.0013283213542672,0.0013283213540667,-1.4869878088373e-13,-5.7440009953007e-14,-0.0013601630365952,0.00136016300697,-0.0013601630362862,0.0013601630063189,-0.0013601630070614,0.0013601630364683,-0.001360163006719,0.0013601630361087,-0.0013023384035872,-0.0013023384035872,0.0013023384036093,0.0013023384909172,0.0040144603300983,0.0037554308437222,0.6599701282895,0.300897786057,43648,1000,0.0055193477223347,0.0055193477220478,0.0055193477218056,41.285049938522,41.276183110124,0.00024548039950818,0.00024548039950818,0.00024548039950818,835705.56317435,0.016696153354323
9417600,0.96899893822108,0.015925255109116,0.0053084183697742,0.005308418369776,0.0053084183695656,-0.0013305467570653,0.0013305467566528,4.3430392348973e-11,-4.3814710902422e-11,-7.0949714887853e-13,5.0705498040664e-13,-0.0013626044855303,0.0013626045133366,-0.0013626045137274,0.0013626044844552,-0.0013626044868278,0.0013626045150279,-0.0013626045154657,0.0013626044861954,-0.0013043868304649,0.0013043869172403,-0.0013043869171736,0.0013043868303444,-2.8092972367213e-12,-4.0675619152462e-12,-1.2939197951679e-12,-1.3470566424619e-12,-0.0013305467589152,0.0013305467547437,-0.0013626045003797,0.0013626044988311,-0.0013626045012615,0.0013626044995243,-0.0013626045015529,0.0013626044986734,-0.0013626045008772,0.0013626044987638,-0.0013043868769786,0.0013043868711566,-0.0013043868711782,0.0013043868659581,-0.0013043868769516,0.0013043868658325,-0.0013043868763144,0.0013043868642031,-4.3570971701429e-11,4.3745005943626e-11,-0.001330546756721,0.0013305467568858,1.4145191403524e-13,2.3158654283714e-13,-0.0013626045153247,0.0013626044854965,-0.0013626045152767,0.0013626044846435,-0.0013626044850601,0.001362604515014,-0.0013626044849193,0.0013626045144618,-0.0013043868249828,-0.0013043868249828,0.0013043868251169,0.0013043869122942,0.0040160307692375,0.0037584824111196,0.6584471609493,0.29646044474794,43648,1000,0.0055285683055551,0.0055285683054327,0.0055285683053247,41.155064758851,41.146201476625,0.00024444051807081,0.00024444051807081,0.00024444051807081,829238.04910234,0.016724280927958
9504000,0.97109697003825,0.015955088230516,0.0053183627435743,0.0053183627435758,0.005318362743366,-0.0013325791481065,0.0013325791477542,4.3471972314027e-11,-4.3778529595972e-11,-6.9425273223206e-13,4.9905263663746e-13,-0.0013648401556446,0.0013648401832909,-0.001364840183837,0.001364840154837,-0.0013648401565363,0.0013648401855052,-0.0013648401849658,0.001364840156369,-0.0013062536764369,0.0013062537636085,-0.0013062537624993,0.0013062536766634,-2.8437642426015e-12,-4.0658414383938e-12,-1.2847541045852e-12,-1.3721499347026e-12,-0.0013325791500897,0.0013325791457488,-0.0013648401711376,0.0013648401688866,-0.0013648401711084,0.0013648401695031,-0.0013648401708676,0.0013648401683193,-0.0013648401709601,0.0013648401688186,-0.0013062537223066,0.0013062537165717,-0.0013062537170515,0.0013062537118436,-0.0013062537230936,0.0013062537118444,-0.0013062537222726,0.0013062537101406,-4.3634899189664e-11,4.3710092539618e-11,-0.0013325791477472,0.0013325791478566,1.4528332639999e-13,2.5842404649924e-13,-0.0013648401848382,0.0013648401553688,-0.0013648401850548,0.0013648401548794,-0.0013648401551646,0.0013648401852164,-0.0013648401548233,0.001364840184802,-0.0013062536705127,-0.0013062536705127,0.0013062536714973,0.0013062537576229,0.0040169015069316,0.0037608359178932,0.65693008168502,0.29202310343892,43648,1000,0.0055369890813844,0.0055369890813384,0.0055369890808521,41.025079498175,41.016219843127,0.0002434006359854,0.0002434006359854,0.0002434006359854,823109.50356095,0.016749969450619
9590400,0.97304248474803,0.015982692509706,0.0053275641699713,0.0053275641699724,0.0053275641697624,-0.0013344336352455,0.0013344336350069,4.3550076045659e-11,-4.3732177482585e-11,-6.6504474216316e-13,5.3106254110979e-13,-0.0013668859326349,0.001366885960569,-0.0013668859611827,0.0013668859319901,-0.0013668859336319,0.0013668859627987,-0.0013668859625919,0.0013668859337029,-0.0013079533202529,0.0013079534076354,-0.0013079534072762,0.0013079533208959,-2.8035954109082e-12,-4.0427459086523e-12,-1.2401720547715e-12,-1.3143850229104e-12,-0.0013344336371488,0.0013344336329491,-0.0013668859478629,0.0013668859463415,-0.0013668859483846,0.0013668859465511,-0.0013668859488458,0.0013668859461991,-0.0013668859484045,0.0013668859460466,-0.0013079533662605,0.0013079533607564,-0.0013079533613795,0.0013079533561674,-0.001307953367122,0.0013079533560471,-0.00130795336674,0.0013079533545041,-4.3729397714564e-11,4.3610681194213e-11,-0.0013344336350208,0.0013344336349147,-3.984616507995e-14,5.4684300020407e-14,-0.0013668859625281,0.0013668859326535,-0.0013668859620438,0.001366885932176,-0.0013668859327897,0.0013668859624191,-0.0013668859323648,0.0013668859619687,-0.0013079533153235,-0.0013079533153235,0.0013079533153481,0.001307953402373,0.0040171352977782,0.0037625537496842,0.65541863789226,0.28758576212985,43648,1000,0.005544672667389,0.0055446726670688,0.0055446726667324,40.895094230063,40.886238209625,0.0002423607538405,0.0002423607538405,0.0002423607538405,817312.07231879,0.016773409753238
9676800,0.97483957894428,0.016008136592444,0.0053360455308849,0.0053360455308849,0.0053360455306745,-0.0013359585138085,0.0013359585133001,4.3407155411786e-11,-4.3941232978436e-11,-8.6607365969125e-13,3.2716153485145e-13,-0.0013685927155859,0.0013685927431001,-0.0013685927440195,0.0013685927147084,-0.0013685927167661,0.0013685927460587,-0.0013685927453875,0.0013685927164081,-0.0013093322710333,0.0013093323570657,-0.0013093323576659,0.0013093322701259,-3.0075699443321e-12,-4.2047208427821e-12,-1.4073890640537e-12,-1.5035897428361e-12,-0.0013359585158868,0.0013359585111681,-0.001368592731323,0.0013685927288415,-0.0013685927316006,0.0013685927287914,-0.0013685927321327,0.0013685927291108,-0.0013685927321583,0.0013685927290926,-0.0013093323161277,0.00130933231112,-0.0013093323123007,0.0013093323054037,-0.0013093323172899,0.0013093323052527,-0.0013093323173927,0.0013093323046657,-4.3677096135871e-11,4.3726212929504e-11,-0.0013359585134876,0.001335958513707,5.2934441712671e-14,1.4609686037061e-13,-0.0013685927459722,0.0013685927163244,-0.0013685927450517,0.001368592715328,-0.0013685927155495,0.0013685927455033,-0.0013685927152255,0.0013685927454155,-0.0013093322662528,-0.0013093322662528,0.0013093322660046,0.0013093323527538,0.0040160959094516,0.0037636577819504,0.65391441097227,0.28314842082082,43648,1000,0.0055509904667214,0.0055509904666099,0.0055509904668994,40.683806478872,40.669624736119,0.00024067045183098,0.00024067045183098,0.00024067045183098,811961.21740794,0.016792684265529
9763200,0.97649308655299,0.016031689003106,0.0053438963344381,0.0053438963344385,0.0053438963342293,-0.0013371672479773,0.0013371672477262,4.3521632738112e-11,-4.3813327415275e-11,-7.0546456618881e-13,5.2857861699196e-13,-0.0013699782577709,0.0013699782856779,-0.0013699782863685,0.0013699782570391,-0.001369978258758,0.0013699782878125,-0.0013699782876305,0.0013699782589231,-0.0013104065072587,0.0013104065945279,-0.0013104065943537,0.0013104065075921,-2.8538109945036e-12,-4.1147324153962e-12,-1.4668368656112e-12,-1.3690049719555e-12,-0.0013371672500512,0.0013371672456544,-0.0013699782732659,0.0013699782715003,-0.0013699782736363,0.0013699782716609,-0.0013699782740527,0.0013699782711959,-0.0013699782736148,0.0013699782711469,-0.0013104065533929,0.0013104065473166,-0.0013104065485458,0.0013104065432137,-0.0013104065540788,0.0013104065430862,-0.0013104065537582,0.0013104065414713,-4.3751806382936e-11,4.3660181387899e-11,-0.0013371672478477,0.0013371672477482,-2.3219878883933e-14,-1.0623722511393e-13,-0.0013699782875984,0.0013699782577667,-0.0013699782873044,0.0013699782573625,-0.0013699782578418,0.0013699782876299,-0.0013699782575276,0.0013699782871705,-0.0013104065023792,-0.0013104065023792,0.0013104065022092,0.0013104065894273,0.0040138362175612,0.0037642284301534,0.65771164577831,0.30515093879817,43648,1000,0.0055559983347199,0.0055559983347244,0.005555998334497,40.385059380563,40.364967053532,0.0002382804750445,0.0002382804750445,0.0002382804750445,806954.91109383,0.016807963037055
9849600,0.97801540888824,0.016053489531896,0.005351163177368,0.0053511631773685,0.0053511631771592,-0.0013385560167747,0.0013385560165396,4.3537985709128e-11,-4.3797533074252e-11,-7.2924942781291e-13,5.3004380752552e-13,-0.0013714288704615,0.0013714288983599,-0.0013714288990465,0.0013714288697572,-0.0013714288714238,0.0013714289005237,-0.0013714289003192,0.0013714288716651,-0.001311691339992,0.0013116914273289,-0.0013116914270366,0.0013116913403367,-2.835993244706e-12,-4.122056603412e-12,-1.4386708143e-12,-1.349173342504e-12,-0.0013385560188453,0.0013385560144665,-0.0013714288859451,0.0013714288841885,-0.0013714288863206,0.0013714288843545,-0.0013714288867661,0.001371428883889,-0.0013714288863189,0.0013714288838362,-0.0013116913862116,0.0013116913801706,-0.0013116913812872,0.0013116913760121,-0.0013116913867613,0.0013116913757802,-0.0013116913865639,0.0013116913742784,-4.3736078569292e-11,4.3676378451913e-11,-0.0013385560166464,0.0013385560165627,-7.1942508088114e-15,-8.1852528873194e-14,-0.001371428900302,0.0013714288704724,-0.001371428900005,0.0013714288700612,-0.0013714288705424,0.0013714289003073,-0.0013714288702092,0.0013714288998397,-0.0013116913351481,-0.0013116913351481,0.0013116913350953,0.0013116914222825,0.0040124260763745,0.0037643133400818,0.66113854256424,0.32514777092601,43648,1000,0.0055617522897268,0.0055617522897215,0.0055617522895089,40.080951468959,40.060309370944,0.00023584761175167,0.00023584761175167,0.00023584761175167,793470.78224413,0.01682551730638
9936000,0.97941818743166,0.016073658278592,0.0053578860929334,0.0053578860929338,0.0053578860927246,-0.0013397904739491,0.0013397904737245,4.3545058904812e-11,-4.3790891100689e-11,-7.3789051677475e-13,5.4448366051557e-13,-0.0013727188543503,0.0013727188822507,-0.001372718882935,0.0013727188536504,-0.0013727188553051,0.0013727188844241,-0.0013727188842015,0.0013727188555678,-0.001312832839425,0.0013128329267885,-0.0013128329264656,0.0013128328397917,-2.8282088942773e-12,-4.1374068403552e-12,-1.4352026849549e-12,-1.3551079259125e-12,-0.0013397904760282,0.0013397904716427,-0.0013727188698339,0.0013727188680794,-0.0013727188702132,0.0013727188682432,-0.0013727188706643,0.001372718867773,-0.0013727188702196,0.0013727188677176,-0.0013128328856739,0.0013128328796313,-0.0013128328807508,0.0013128328754601,-0.0013128328861954,0.001312832875225,-0.0013128328860338,0.0013128328737157,-4.3733142217819e-11,4.3679766966043e-11,-0.0013397904738236,0.0013397904737444,-8.3085697083104e-15,-7.3703542525015e-14,-0.0013727188841928,0.0013727188543634,-0.0013727188838933,0.0013727188539544,-0.0013727188544325,0.0013727188841959,-0.001372718854096,0.0013727188837303,-0.0013128328346013,-0.0013128328346013,0.0013128328345692,0.0013128329217477,0.0040104734785944,0.0037639542811477,0.66357033906337,0.33996392803986,43648,1000,0.0055668668690298,0.0055668668690242,0.0055668668688112,39.776331913135,39.755651688356,0.00023341065530508,0.00023341065530508,0.00023341065530508,780984.63396546,0.016841121228155
10022400,0.98071197759765,0.016092334201626,0.0053641114006116,0.0053641114006121,0.0053641114004028,-0.0013408442196541,0.0013408442194372,4.3549311833711e-11,-4.3787025042324e-11,-7.4390315662214e-13,5.5812165564888e-13,-0.0013738331763684,0.0013738332042704,-0.0013738332049534,0.00137383317567,-0.0013738331773173,0.0013738332064506,-0.0013738332062139,0.0013738331775942,-0.0013138024046923,0.001313802492071,-0.0013138024917326,0.0013138024050739,-2.8216222131429e-12,-4.1504899700863e-12,-1.4337062600814e-12,-1.3625115820888e-12,-0.0013408442217403,0.0013408442173482,-0.001373833191852,0.0013738331900993,-0.0013738331922344,0.0013738331902603,-0.0013738331926888,0.0013738331897866,-0.0013738331922469,0.001373833189728,-0.0013138024509528,0.0013138024449068,-0.001313802446038,0.0013138024407267,-0.0013138024514646,0.0013138024405055,-0.0013138024513234,0.0013138024389777,-4.3731549442948e-11,4.3681740317524e-11,-0.0013408442195307,0.001340844219455,-1.0796699580004e-14,-6.7420969747419e-14,-0.0013738332062118,0.0013738331763827,-0.0013738332059091,0.0013738331759764,-0.0013738331764513,0.001373833206215,-0.0013738331761117,0.0013738332057522,-0.0013138023998753,-0.0013138023998753,0.0013138023998509,0.0013138024870286,0.0040078682817007,0.0037631976281855,0.66602476153182,0.35478008515371,43648,1000,0.0055712326808606,0.0055712326808549,0.0055712326806418,39.471660456137,39.450994005768,0.0002309732836491,0.0002309732836491,0.0002309732836491,770378.10832799,0.016854441066284
10108800,0.98190632518761,0.016109643030402,0.0053698810102035,0.005369881010204,0.0053698810099947,-0.0013417902956383,0.0013417902954275,4.355253632344e-11,-4.3784145130303e-11,-7.4854013261277e-13,5.6917496503669e-13,-0.001374829632612,0.001374829660515,-0.0013748296611972,0.0013748296319144,-0.0013748296335561,0.0013748296627007,-0.0013748296624529,0.0013748296338441,-0.0013146736836629,0.001314673771053,-0.0013146737707032,0.0013146736840559,-2.8162921995006e-12,-4.1608560651739e-12,-1.4321615425656e-12,-1.3689222980105e-12,-0.0013417902977303,0.0013417902933327,-0.0013748296480954,0.0013748296463444,-0.0013748296484803,0.0013748296465028,-0.0013748296489373,0.0013748296460265,-0.0013748296484977,0.0013748296459652,-0.0013146737299306,0.0013146737238826,-0.0013146737250237,0.0013146737196949,-0.0013146737304368,0.0013146737194869,-0.0013146737303109,0.0013146737179432,-4.3730172337959e-11,4.3683448147703e-11,-0.0013417902955164,0.0013417902954438,-1.3104776128673e-14,-6.1886374119634e-14,-0.0013748296624558,0.001374829632627,-0.0013748296621504,0.0013748296322232,-0.0013748296326953,0.0013748296624595,-0.0013748296323529,0.0013748296619991,-0.0013146736788497,-0.0013146736788497,0.001314673678831,0.0013146737660088,0.0040049150005699,0.0037620852277988,0.66849969961696,0.36959624226756,43648,1000,0.0055751523895512,0.0055751523895454,0.0055751523893324,39.166983611567,39.14633632318,0.00022853586889253,0.00022853586889253,0.00022853586889253,760078.72121675,0.016866400005802
10195200,0.98300986580013,0.016125699366357,0.0053752331221884,0.0053752331221889,0.0053752331219796,-0.0013426374616328,0.0013426374614262,4.3554758667314e-11,-4.3782222541978e-11,-7.51794327317e-13,5.7684049556588e-13,-0.0013757180541962,0.0013757180821001,-0.0013757180827816,0.0013757180534993,-0.001375718055137,0.0013757180842894,-0.001375718084034,0.0013757180554326,-0.0013154544724903,0.0013154545598881,-0.0013154545595305,0.0013154544728912,-2.8124231412271e-12,-4.1679270256315e-12,-1.4308590823549e-12,-1.3733839264167e-12,-0.0013426374637286,0.0013426374593275,-0.0013757180696794,0.0013757180679298,-0.0013757180700663,0.0013757180680864,-0.0013757180705248,0.0013757180676083,-0.001375718070087,0.0013757180675449,-0.0013154545187624,0.0013154545127135,-0.0013154545138613,0.0013154545085202,-0.0013154545192651,0.0013154545083221,-0.0013154545191497,0.0013154545067675,-4.3729196897169e-11,4.3684727785082e-11,-0.0013426374615119,0.0013426374614415,-1.4767813559315e-14,-5.7873143779889e-14,-0.0013757180840404,0.0013757180542119,-0.001375718083733,0.0013757180538097,-0.0013757180542798,0.0013757180840445,-0.0013757180539354,0.0013757180835857,-0.0013154544676795,-0.0013154544676795,0.0013154544676649,0.0013154545548426,0.0040016498291927,0.0037606551119548,0.6709931576365,0.38441239938141,43648,1000,0.0055786622917237,0.0055786622917178,0.0055786622915048,38.862306161371,38.841678640593,0.00022609844929097,0.00022609844929097,0.00022609844929097,750081.4042505,0.016877108744807
10281600,0.98403041652074,0.016140607221045,0.0053802024070845,0.005380202407085,0.0053802024068757,-0.0013433936638488,0.0013433936636458,4.3556596552344e-11,-4.3780652531117e-11,-7.5447953940326e-13,5.8323930008679e-13,-0.0013765074225609,0.0013765074504655,-0.0013765074511465,0.0013765074218644,-0.001376507423499,0.0013765074526579,-0.0013765074523961,0.0013765074238009,-0.0013161517278268,0.0013161518152306,-0.0013161518148665,0.0013161517282336,-2.80910977186e-12,-4.1737003786713e-12,-1.4295596514633e-12,-1.3773282765078e-12,-0.0013433936659479,0.0013433936615439,-0.0013765074380441,0.0013765074362956,-0.0013765074384328,0.0013765074364506,-0.0013765074388924,0.0013765074359712,-0.0013765074384562,0.0013765074359061,-0.001316151774102,0.0013161517680526,-0.0013161517692063,0.0013161517638544,-0.0013161517746013,0.0013161517636642,-0.0013161517744949,0.0013161517621002,-4.3728268337301e-11,4.3685916307597e-11,-0.0013433936637287,0.0013433936636603,-1.6297913874624e-14,-5.4241842948931e-14,-0.0013765074524057,0.0013765074225774,-0.0013765074520964,0.0013765074221767,-0.001376507422645,0.0013765074524101,-0.0013765074222987,0.0013765074519527,-0.0013161517230169,-0.0013161517230169,0.0013161517230061,0.0013161518101841,0.0039981054959712,0.0037589416833367,0.67350324623106,0.39922855649526,43648,1000,0.0055817953125705,0.0055817953125647,0.0055817953123518,38.557628601426,38.537020958005,0.00022366102881141,0.00022366102881141,0.00022366102881141,740380.6605209,0.01688666770438
10368000,0.98497505841759,0.016154461066011,0.0053848203554064,0.0053848203554069,0.0053848203551976,-0.0013440661546569,0.0013440661544568,4.3558290853526e-11,-4.3779200634295e-11,-7.5679076291462e-13,5.8867766336029e-13,-0.0013772058030257,0.0013772058309309,-0.0013772058316114,0.0013772058023298,-0.0013772058039615,0.001377205833126,-0.0013772058328588,0.0013772058042689,-0.0013167719765701,0.0013167720639798,-0.0013167720636101,0.0013167719769829,-2.8062243305965e-12,-4.1785744650654e-12,-1.4280789319924e-12,-1.380863227341e-12,-0.0013440661567587,0.0013440661523522,-0.0013772058185089,0.0013772058167615,-0.0013772058188992,0.0013772058169148,-0.0013772058193598,0.0013772058164346,-0.0013772058189249,0.0013772058163677,-0.0013167720228481,0.0013167720167994,-0.0013167720179573,0.0013167720125962,-0.0013167720233454,0.0013167720124135,-0.0013167720232465,0.0013167720108418,-4.3727535742034e-11,4.3686890277843e-11,-0.0013440661545373,0.0013440661544708,-1.7751075363891e-14,-5.074500859835e-14,-0.001377205832871,0.0013772058030429,-0.00137720583256,0.0013772058026437,-0.0013772058031103,0.0013772058328756,-0.0013772058027623,0.0013772058324198,-0.0013167719717619,-0.0013167719717619,0.0013167719717545,0.0013167720589326,0.0039943117519359,0.0037569760742641,0.67602817356454,0.41404471360911,43648,1000,0.0055845815019335,0.0055845815019277,0.0055845815017148,38.252950985628,38.232363275417,0.00022122360788503,0.00022122360788503,0.00022122360788503,730967.41566206,0.016895168539657
10454400,0.98585651848786,0.01616743888508,0.005389146295096,0.0053891462950965,0.0053891462948872,-0.0013449328547163,0.001344932854549,4.3520615180962e-11,-4.3722844061832e-11,-7.4275001537923e-13,6.4331464129694e-13,-0.0013780887075062,0.0013780887353796,-0.0013780887360464,0.0013780887068158,-0.00137808870843,0.0013780887375712,-0.0013780887372901,0.0013780887087642,-0.0013175946240149,0.0013175947112271,-0.0013175947108801,0.0013175946243289,-2.7774340924715e-12,-4.1904828071561e-12,-1.4205573676534e-12,-1.4006610637071e-12,-0.0013449328568367,0.001344932852427,-0.0013780887229726,0.0013780887212265,-0.0013780887233513,0.001378088721372,-0.0013780887238448,0.0013780887209124,-0.0013780887234171,0.0013780887208218,-0.001317594670068,0.0013175946640913,-0.0013175946653275,0.0013175946598536,-0.0013175946705699,0.0013175946597267,-0.0013175946705302,0.0013175946580949,-4.3685627522302e-11,4.363363055195e-11,-0.0013449328546213,0.0013449328545448,-4.1089332984376e-14,-4.4881246555784e-14,-0.0013780887373318,0.0013780887075478,-0.0013780887370404,0.0013780887071545,-0.001378088707625,0.0013780887373349,-0.001378088707271,0.0013780887368905,-0.0013175946190621,-0.0013175946190621,0.0013175946190143,0.0013175947061487,0.0039914322318807,0.0037548173454063,0.67856472006871,0.42886087072296,43648,1000,0.0055881724215254,0.0055881724215221,0.0055881724213199,38.084736560608,38.073038884521,0.00021987789248487,0.00021987789248487,0.00021987789248487,721680.50229612,0.016906124265761
10540800,0.98668528479322,0.016179494518821,0.0053931648396764,0.005393164839677,0.0053931648394677,-0.001345985618318,0.0013459856181345,4.3520872231933e-11,-4.3728432655811e-11,-7.6250447071771e-13,6.3444067709634e-13,-0.0013791579645502,0.0013791579924054,-0.0013791579931094,0.0013791579638565,-0.0013791579655021,0.0013791579946597,-0.0013791579943566,0.0013791579658297,-0.0013186013274107,0.0013186014146888,-0.0013186014143176,0.0013186013277426,-2.7839730691808e-12,-4.2061642692747e-12,-1.4110836276579e-12,-1.3977292709184e-12,-0.0013459856204373,0.0013459856160233,-0.00137915798003,0.0013791579782768,-0.0013791579804238,0.0013791579784301,-0.0013791579808977,0.0013791579779707,-0.0013791579804642,0.0013791579778851,-0.0013186013735308,0.0013186013675156,-0.0013186013686531,0.0013186013633463,-0.0013186013740689,0.0013186013632984,-0.0013186013740128,0.0013186013615743,-4.3665968593457e-11,4.3659825281131e-11,-0.0013459856181961,0.0013459856181584,-1.8664959210073e-14,-1.8059507117984e-14,-0.0013791579943646,0.0013791579646104,-0.0013791579940474,0.0013791579641894,-0.0013791579646585,0.0013791579943819,-0.0013791579642818,0.0013791579939551,-0.0013186013225798,-0.0013186013225798,0.0013186013225623,0.0013186014096977,0.0039894371235225,0.0037524583452573,0.6704022746516,0.38822628619046,43648,1000,0.0055925342654653,0.0055925342654822,0.0055925342652622,38.051748436103,38.049168869218,0.00021961398748882,0.00021961398748882,0.00021961398748882,712864.25150475,0.016919432024434
10627200,0.9874648780241,0.016190800293516,0.0053969334312415,0.0053969334312421,0.0053969334310328,-0.0013463572438202,0.0013463572436378,4.3521021286203e-11,-4.3724582067561e-11,-7.700806510353e-13,6.2096508876632e-13,-0.0013797118480714,0.0013797118759487,-0.001379711876627,0.0013797118473785,-0.0013797118489941,0.0013797118781597,-0.001379711877861,0.0013797118493332,-0.001318912179853,0.0013189122672023,-0.0013189122668032,0.0013189121802989,-2.7903090520915e-12,-4.2082767341521e-12,-1.4147154872953e-12,-1.4084276205618e-12,-0.0013463572459384,0.0013463572415168,-0.0013797118635359,0.0013797118617999,-0.0013797118639392,0.0013797118619396,-0.0013797118644014,0.0013797118614586,-0.0013797118639789,0.0013797118613773,-0.0013189122260967,0.0013189122200594,-0.0013189122212453,0.0013189122158144,-0.001318912226589,0.0013189122156795,-0.0013189122265345,0.0013189122140605,-4.3674511567769e-11,4.3647998289496e-11,-0.0013463572437021,0.0013463572436504,-2.9967878619526e-14,-2.2576780883077e-14,-0.0013797118778876,0.0013797118480918,-0.0013797118775628,0.0013797118477056,-0.001379711848158,0.0013797118778934,-0.0013797118477962,0.0013797118774508,-0.0013189121750491,-0.0013189121750491,0.0013189121750672,0.0013189122621552,0.0039847044699906,0.0037499504213874,0.66825627403371,0.37898076647405,43648,1000,0.0055940737147026,0.0055940737146968,0.0055940737144841,38.027008336709,38.025298853915,0.00021941606669367,0.00021941606669367,0.00021941606669367,718761.89896733,0.016924130077621
10713600,0.98819825855609,0.016201382539254,0.0054004608464873,0.0054004608464879,0.0054004608462786,-0.0013470292300558,0.0013470292298734,4.3520155959697e-11,-4.372233231276e-11,-7.6913556226006e-13,6.197013626664e-13,-0.0013804717382821,0.0013804717661587,-0.0013804717668375,0.0013804717375901,-0.0013804717392059,0.0013804717683696,-0.0013804717680729,0.0013804717395444,-0.0013195325630567,0.001319532650406,-0.0013195326500036,0.0013195325635053,-2.7907465093157e-12,-4.2065543161825e-12,-1.4104432354567e-12,-1.4087278760951e-12,-0.0013470292321733,0.0013470292277533,-0.0013804717537473,0.0013804717520123,-0.0013804717541512,0.0013804717521509,-0.0013804717546122,0.0013804717516715,-0.0013804717541895,0.0013804717515886,-0.0013195326092979,0.0013195326032703,-0.0013195326044488,0.0013195325990199,-0.0013195326097984,0.001319532598881,-0.00131953260974,0.0013195325972674,-4.3672193844456e-11,4.3647171844155e-11,-0.0013470292299369,0.0013470292298867,-3.0877027316246e-14,-1.8969332264626e-14,-0.0013804717680975,0.0013804717383025,-0.0013804717677721,0.0013804717379175,-0.0013804717383695,0.0013804717681043,-0.0013804717380066,0.0013804717676625,-0.0013195325582523,-0.0013195325582523,0.001319532558277,0.001319532645359,0.003981322431119,0.0037473019970242,0.66499852327007,0.36416572583627,43648,1000,0.0055968577649682,0.0055968577649629,0.0055968577647497,38.00305041411,38.001428838612,0.00021922440331288,0.00021922440331288,0.00021922440331288,716805.56812595,0.016932624782075
10800000,0.98888818185601,0.016211288554987,0.0054037628517316,0.0054037628517322,0.0054037628515229,-0.0013475800335161,0.0013475800333365,4.3521841967014e-11,-4.3723212050591e-11,-7.7222599726116e-13,6.2560077067883e-13,-0.0013811258751265,0.0013811259030049,-0.0013811259036819,0.0013811258744345,-0.0013811258760472,0.0013811259052191,-0.0013811259049147,0.0013811258763921,-0.0013200313771661,0.0013200314645196,-0.0013200314641146,0.001320031377615,-2.7868145117884e-12,-4.2116738068444e-12,-1.4107982540229e-12,-1.4108123712387e-12,-0.0013475800356363,0.0013475800312137,-0.0013811258905911,0.0013811258888572,-0.0013811258909974,0.0013811258889948,-0.0013811258914592,0.0013811258885133,-0.0013811258910391,0.0013811258884298,-0.0013200314234074,0.0013200314173769,-0.0013200314185613,0.0013200314131278,-0.0013200314239004,0.001320031412997,-0.0013200314238541,0.0013200314113722,-4.3672592538158e-11,4.3649361777254e-11,-0.0013475800333981,0.001347580033349,-3.1792911101331e-14,-1.8256059936959e-14,-0.0013811259049428,0.0013811258751474,-0.0013811259046162,0.0013811258747638,-0.0013811258752133,0.0013811259049485,-0.0013811258748493,0.0013811259045089,-0.0013200313723629,-0.0013200313723629,0.0013200313723864,0.0013200314594749,0.0039775327758395,0.0037445276476251,0.66170541480622,0.34935068519849,43648,1000,0.0055991396946201,0.0055991396946147,0.0055991396944014,37.97917128846,37.977558823309,0.00021903337030768,0.00021903337030768,0.00021903337030768,716565.93609536,0.016939587701182
10886400,0.98953723760304,0.016220560745115,0.0054068535817743,0.0054068535817749,0.0054068535815656,-0.0013480773552008,0.0013480773550234,4.352385049389e-11,-4.3721553983596e-11,-7.7312373454178e-13,6.2810075312961e-13,-0.0013817251942187,0.0013817252220983,-0.0013817252227744,0.0013817251935278,-0.0013817251951392,0.0013817252243135,-0.0013817252240069,0.0013817251954863,-0.0013204779331265,0.0013204780204874,-0.0013204780200783,0.0013204779335853,-2.7851683856059e-12,-4.2133963424575e-12,-1.4094591478729e-12,-1.414954979979e-12,-0.0013480773573229,0.0013480773528991,-0.0013817252096852,0.0013817252079526,-0.0013817252100922,0.0013817252080883,-0.001381725210554,0.0013817252076082,-0.0013817252101344,0.001381725207522,-0.0013204779793728,0.0013204779733414,-0.0013204779745346,0.0013204779690864,-0.0013204779798619,0.0013204779689628,-0.0013204779798203,0.0013204779673345,-4.3672607625933e-11,4.3649676767631e-11,-0.0013480773550834,0.0013480773550355,-3.3966109417496e-14,-1.5012659020631e-14,-0.0013817252240368,0.0013817251942419,-0.001381725223708,0.0013817251938591,-0.0013817251943075,0.001381725224043,-0.0013817251939414,0.0013817252236046,-0.0013204779283243,-0.0013204779283243,0.0013204779283523,0.0013204780154379,0.0039736166918703,0.0037416403086666,0.65837902889866,0.33453564456071,43648,1000,0.0056012000321905,0.0056012000321859,0.0056012000319724,37.955300218296,37.953688808006,0.00021884240174637,0.00021884240174637,0.00021884240174637,716572.99547853,0.01694587458806
10972800,0.99014786209111,0.01622923920139,0.0054097464005328,0.0054097464005334,0.0054097464003241,-0.0013485243563172,0.0013485243561377,4.352216031023e-11,-4.3723513688435e-11,-7.7071351405471e-13,6.2502084721862e-13,-0.0013822729336681,0.0013822729615468,-0.0013822729622232,0.0013822729329753,-0.0013822729345902,0.0013822729637615,-0.0013822729634569,0.0013822729349335,-0.0013208753857939,0.0013208754731453,-0.0013208754727416,0.0013208753862415,-2.7865724603594e-12,-4.2093409369355e-12,-1.406518825933e-12,-1.4123177370155e-12,-0.0013485243584363,0.0013485243540157,-0.0013822729491303,0.001382272947399,-0.001382272949539,0.001382272947536,-0.0013822729499983,0.0013822729470562,-0.0013822729495796,0.0013822729469704,-0.0013208754320267,0.001320875426006,-0.0013208754271944,0.0013208754217541,-0.0013208754325291,0.0013208754216233,-0.0013208754324752,0.0013208754200019,-4.3671987850749e-11,4.3650577916572e-11,-0.0013485243561983,0.0013485243561511,-3.3901934907395e-14,-1.4631876535627e-14,-0.0013822729634846,0.0013822729336895,-0.0013822729631559,0.0013822729333071,-0.0013822729337554,0.0013822729634916,-0.0013822729333888,0.0013822729630527,-0.0013208753809882,-0.0013208753809882,0.0013208753810136,0.0013208754681035,0.0039695863292061,0.003738652149915,0.6550213541786,0.31972060392292,43648,1000,0.005603051877015,0.0056030518770091,0.0056030518767965,37.931429973118,37.929818792703,0.00021865143978494,0.00021865143978494,0.00021865143978494,716815.6726505,0.016951525395014
11059200,0.99072234721497,0.016237361551467,0.0054124538505584,0.005412453850559,0.0054124538503497,-0.0013489240117776,0.0013489240116004,4.3527328975861e-11,-4.3726084668716e-11,-7.7159542828931e-13,6.2865355977116e-13,-0.001382772148552,0.0013827721764346,-0.0013827721771109,0.0013827721478602,-0.0013827721494726,0.0013827721786502,-0.0013827721783431,0.0013827721498198,-0.0013212266957086,0.001321226783073,-0.0013212267826651,0.0013212266961618,-2.784713046575e-12,-4.2120144434971e-12,-1.4029174653638e-12,-1.4185415174715e-12,-0.0013489240138991,0.0013489240094766,-0.0013827721640168,0.0013827721622885,-0.0013827721644277,0.0013827721624209,-0.0013827721648862,0.0013827721619441,-0.0013827721644701,0.0013827721618544,-0.0013212267419492,0.0013212267359313,-0.001321226737122,0.0013212267316678,-0.00132122674245,0.0013212267315467,-0.001321226742401,0.0013212267299174,-4.3674357013667e-11,4.3655895401186e-11,-0.0013489240116581,0.0013489240116145,-3.6870726565789e-14,-7.9608450369428e-15,-0.0013827721783718,0.0013827721485743,-0.0013827721780397,0.0013827721481956,-0.0013827721486398,0.0013827721783792,-0.0013827721482705,0.0013827721779436,-0.0013212266909023,-0.0013212266909023,0.0013212266909364,0.0013212267780324,0.0039654530544491,0.0037355745235851,0.65163429685837,0.30490556328514,43648,1000,0.0056047075563126,0.0056047075563076,0.0056047075560941,37.907559810887,37.905948777401,0.0002184604784871,0.0002184604784871,0.0002184604784871,717283.85152842,0.016956577720937
11145600,0.99126284879347,0.016244972300585,0.005414990766931,0.0054149907669315,0.0054149907667223,-0.0013492799354161,0.0013492799352382,4.3524649175374e-11,-4.3723873324507e-11,-7.7121320467186e-13,6.2680291042487e-13,-0.0013832262918329,0.0013832263197144,-0.0013832263203903,0.0013832262911424,-0.001383226292755,0.0013832263219295,-0.0013832263216238,0.0013832262931007,-0.0013215357496054,0.0013215358369646,-0.0013215358365551,0.0013215357500576,-2.7848994526451e-12,-4.2100467389032e-12,-1.4055273562217e-12,-1.4141506516095e-12,-0.0013492799375364,0.0013492799331153,-0.001383226307298,0.0013832263055674,-0.001383226307707,0.0013832263057029,-0.0013832263081666,0.0013832263052239,-0.0013832263077482,0.0013832263051372,-0.0013215357958424,0.0013215357898203,-0.0013215357910087,0.0013215357855632,-0.0013215357963409,0.0013215357854407,-0.001321535796293,0.0013215357838149,-4.3672317958311e-11,4.3653048164637e-11,-0.0013492799352972,0.0013492799352515,-3.4581472971503e-14,-1.2480177562672e-14,-0.0013832263216517,0.001383226291856,-0.0013832263213218,0.0013832262914747,-0.0013832262919215,0.0013832263216584,-0.0013832262915545,0.0013832263212207,-0.0013215357447972,-0.0013215357447972,0.0013215357448296,0.0013215358319184,0.0039612307484578,0.0037324206733502,0.64899819512368,0.29399228489918,43648,1000,0.0056061820457764,0.0056061820457712,0.0056061820455579,37.883689660144,37.882078762097,0.00021826951728115,0.00021826951728115,0.00021826951728115,717956.24374811,0.016961077240961
11232000,0.99177048783037,0.01625219727467,0.0054173990916259,0.0054173990916265,0.0054173990914172,-0.0013495862640824,0.0013495862639229,4.3530849691834e-11,-4.3710153861274e-11,-7.7155595890684e-13,6.4721763971008e-13,-0.0013836147302451,0.0013836147581299,-0.0013836147587919,0.0013836147295615,-0.0013836147311586,0.0013836147603321,-0.0013836147600253,0.0013836147315401,-0.0013218011420862,0.0013218012294694,-0.0013218012290234,0.0013218011425724,-2.7771443366174e-12,-4.2230906933605e-12,-1.4134416438574e-12,-1.4064220053614e-12,-0.0013495862662139,0.0013495862617877,-0.001383614745709,0.0013836147439775,-0.0013836147461199,0.0013836147441198,-0.0013836147465918,0.0013836147436184,-0.0013836147461739,0.0013836147435483,-0.0013218011883528,0.0013218011823096,-0.0013218011834953,0.0013218011780492,-0.0013218011888246,0.0013218011779419,-0.0013218011887734,0.0013218011763397,-4.3675010552525e-11,4.3641623954816e-11,-0.0013495862639832,0.0013495862639218,-3.216398800048e-14,-2.7136435706399e-14,-0.0013836147600747,0.001383614730273,-0.0013836147597433,0.0013836147298764,-0.0013836147303447,0.0013836147600591,-0.0013836147299915,0.0013836147596155,-0.0013218011373144,-0.0013218011373144,0.0013218011373314,0.0013218012243973,0.003956891124687,0.0037292266238735,0.65591996142361,0.33161180199135,43648,1000,0.0056074510740132,0.0056074510740058,0.0056074510738054,37.825930925572,37.822117251385,0.00021780744740458,0.00021780744740458,0.00021780744740458,717628.2322096,0.016964949806601
11318400,0.99224655434069,0.016258998192144,0.0054196660641175,0.0054196660641181,0.0054196660639088,-0.0013503956086833,0.0013503956085139,4.3524525237983e-11,-4.3715605282972e-11,-7.8101019949804e-13,6.4142487549858e-13,-0.0013843472747537,0.001384347302634,-0.0013843473033052,0.0013843472740666,-0.0013843472756712,0.0013843473048582,-0.0013843473045331,0.0013843472760331,-0.0013225891828367,0.0013225892702065,-0.0013225892697959,0.0013225891833279,-2.7790651014688e-12,-4.2287369326365e-12,-1.411656757208e-12,-1.4088580779999e-12,-0.00135039561081,0.0013503956063833,-0.0013843472902137,0.0013843472884823,-0.0013843472906199,0.0013843472886209,-0.0013843472910903,0.0013843472881342,-0.0013843472906686,0.0013843472880493,-0.0013225892291467,0.0013225892231058,-0.0013225892243023,0.0013225892188659,-0.0013225892295824,0.001322589218697,-0.0013225892295735,0.001322589217058,-4.3674969877297e-11,4.364222675993e-11,-0.0013503956085713,0.0013503956085191,-3.2611621384411e-14,-2.1465226605003e-14,-0.0013843473045692,0.001384347274777,-0.0013843473042391,0.0013843472743912,-0.0013843472748412,0.0013843473045718,-0.0013843472744718,0.0013843473041297,-0.0013225891781189,-0.0013225891781189,0.0013225891781309,0.0013225892652067,0.0039547389005824,0.0037259810756849,0.65832863561496,0.34600422993901,43648,1000,0.0056108043973261,0.0056108043973179,0.0056108043971049,37.737218827804,37.731315303286,0.00021709775062243,0.00021709775062243,0.00021709775062243,704161.09120211,0.016975180815276
11404800,0.99269307682072,0.016265394333166,0.0054217981111248,0.0054217981111253,0.0054217981109161,-0.0013508842553264,0.0013508842551536,4.3515051115647e-11,-4.3712467908229e-11,-7.7346413590746e-13,6.3283172624869e-13,-0.0013848296038833,0.0013848296317524,-0.001384829632431,0.0013848296031939,-0.0013848296047984,0.0013848296339781,-0.0013848296336558,0.001384829605159,-0.0013230519455845,0.0013230520329272,-0.0013230520325154,0.0013230519460312,-2.7809438676032e-12,-4.2147430072001e-12,-1.4096560536222e-12,-1.4083996214172e-12,-0.0013508842574508,0.0013508842530267,-0.0013848296193466,0.0013848296176115,-0.0013848296197476,0.0013848296177493,-0.0013848296202231,0.0013848296172604,-0.0013848296197972,0.0013848296171765,-0.0013230519918085,0.0013230519857776,-0.0013230519869705,0.0013230519815395,-0.0013230519923069,0.0013230519814016,-0.0013230519922688,0.0013230519797813,-4.3665345230147e-11,4.3639536400942e-11,-0.0013508842552135,0.0013508842551622,-3.5032312139852e-14,-2.2399286305414e-14,-0.0013848296336942,0.0013848296039114,-0.0013848296333708,0.0013848296035277,-0.0013848296039733,0.0013848296337001,-0.0013848296036108,0.0013848296332602,-0.0013230519407737,-0.0013230519407737,0.0013230519407916,0.0013230520278778,0.0039513384038872,0.0037226899411961,0.65991839783254,0.35610410304841,43648,1000,0.0056128289123882,0.0056128289123828,0.0056128289121719,37.64661460859,37.640513355188,0.00021637291686872,0.00021637291686872,0.00021637291686872,697154.95274336,0.016981357978794
11491200,0.99311199039267,0.016271410553029,0.0054238035177458,0.0054238035177463,0.0054238035175371,-0.0013512909730136,0.0013512909728386,4.3513423283023e-11,-4.3713005244754e-11,-7.7188359595657e-13,6.3656031822511e-13,-0.0013852406593319,0.0013852406872042,-0.0013852406878847,0.0013852406586402,-0.0013852406602478,0.0013852406894224,-0.0013852406891137,0.0013852406606018,-0.0013234339057129,0.0013234339930588,-0.0013234339926375,0.0013234339061509,-2.7805063515572e-12,-4.2161772575024e-12,-1.4141442988624e-12,-1.4106562289499e-12,-0.0013512909751376,0.0013512909707125,-0.0013852406747945,0.0013852406730597,-0.001385240675205,0.0013852406732027,-0.0013852406756713,0.0013852406727108,-0.0013852406752454,0.0013852406726325,-0.0013234339519344,0.0013234339458961,-0.0013234339470928,0.0013234339416453,-0.0013234339524396,0.0013234339415522,-0.0013234339523838,0.0013234339399005,-4.3660600228045e-11,4.3642709686353e-11,-0.0013512909728974,0.0013512909728489,-2.8201609048437e-14,-1.8056771907425e-14,-0.0013852406891437,0.0013852406593476,-0.001385240688818,0.0013852406589639,-0.0013852406594173,0.0013852406891499,-0.0013852406590586,0.0013852406887051,-0.0013234339008907,-0.0013234339008907,0.0013234339009183,0.0013234339880044,0.0039476850165955,0.0037193605626924,0.66152139201616,0.3662039761578,43648,1000,0.00561451396677,0.0056145139667656,0.0056145139665505,37.555831009002,37.549711407089,0.00021564664807201,0.00021564664807201,0.00021564664807201,691403.50422587,0.016986499492238
11577600,0.99350510163899,0.016277070778492,0.0054256902595668,0.0054256902595674,0.0054256902593581,-0.001351669413729,0.0013516694135468,4.3512292141108e-11,-4.3720326315218e-11,-7.6823347217123e-13,6.2314655153589e-13,-0.0013856209306756,0.0013856209585494,-0.0013856209592266,0.0013856209299839,-0.0013856209315963,0.0013856209607582,-0.0013856209604607,0.0013856209319351,-0.0013237898563822,0.0013237899437127,-0.0013237899433222,0.0013237898568156,-2.7880762379495e-12,-4.2067619568981e-12,-1.4047067048215e-12,-1.4125420831031e-12,-0.0013516694158459,0.0013516694114272,-0.0013856209461357,0.0013856209444043,-0.0013856209465437,0.0013856209445385,-0.0013856209470015,0.0013856209440642,-0.0013856209465806,0.0013856209439772,-0.0013237899025963,0.0013237898965828,-0.0013237898977616,0.0013237898923254,-0.0013237899031051,0.0013237898922039,-0.0013237899030431,0.0013237898905711,-4.3666290054224e-11,4.3643236434967e-11,-0.0013516694136095,0.0013516694135615,-3.5407594792872e-14,-1.4325503542171e-14,-0.0013856209604872,0.0013856209306973,-0.0013856209601612,0.0013856209303176,-0.0013856209307639,0.0013856209604944,-0.0013856209303988,0.0013856209600571,-0.0013237898515617,-0.0013237898515617,0.0013237898515791,0.0013237899386706,0.003944001511676,0.0037159999637545,0.66313686204956,0.37630384926719,43648,1000,0.0056160818687501,0.0056160818687445,0.005616081868533,37.465029344846,37.458909458991,0.00021492023475877,0.00021492023475877,0.00021492023475877,685770.39260166,0.01699128355465
11664000,0.99387409393293,0.016282397478649,0.0054274658262857,0.0054274658262863,0.0054274658260771,-0.0013520213261378,0.0013520213259498,4.351586203205e-11,-4.3725786089603e-11,-7.655265548657e-13,6.0864987675229e-13,-0.0013859723800583,0.0013859724079376,-0.0013859724086129,0.0013859723793651,-0.0013859723809859,0.0013859724101431,-0.0013859724098525,0.0013859723813153,-0.0013241213564042,0.0013241214437392,-0.001324121443337,0.001324121356828,-2.7934646615721e-12,-4.194767735078e-12,-1.4025787992393e-12,-1.4060126649253e-12,-0.0013520213282485,0.0013520213238371,-0.0013859723955228,0.001385972393793,-0.0013859723959314,0.001385972393932,-0.0013859723963808,0.0013859723934547,-0.0013859723959651,0.0013859723933727,-0.001324121402612,0.0013241213966084,-0.0013241213977737,0.0013241213923527,-0.0013241214031227,0.0013241213922072,-0.0013241214030537,0.0013241213906085,-4.3667050295705e-11,4.3651270013076e-11,-0.0013520213260145,0.0013520213259687,-3.2637591179287e-14,-1.5778576798839e-14,-0.0013859724098765,0.0013859723800848,-0.0013859724095478,0.0013859723797003,-0.0013859723801507,0.0013859724098847,-0.0013859723797843,0.0013859724094436,-0.0013241213515708,-0.0013241213515708,0.001324121351608,0.0013241214386915,0.0039402941872376,0.00371261466971,0.66476409526596,0.38640372237658,43648,1000,0.0056175398632858,0.0056175398632815,0.0056175398630695,37.374225827383,37.368107510892,0.00021419380661906,0.00021419380661906,0.00021419380661906,680251.87187897,0.016995732269047
11750400,0.99422053577278,0.016287411627853,0.0054291372093536,0.0054291372093542,0.0054291372091449,-0.0013523483196831,0.0013523483194967,4.3518028083526e-11,-4.372862106182e-11,-7.6518491824364e-13,6.1227917764435e-13,-0.0013862968062661,0.0013862968341455,-0.001386296834823,0.0013862968055744,-0.0013862968071932,0.001386296836355,-0.0013862968360625,0.001386296807528,-0.0013244298450763,0.0013244299324089,-0.0013244299320212,0.0013244298455043,-2.7898455956615e-12,-4.194399275746e-12,-1.403184104277e-12,-1.4055705313733e-12,-0.0013523483217952,0.0013523483173832,-0.0013862968217357,0.0013862968200042,-0.0013862968221427,0.0013862968201417,-0.0013862968225989,0.0013862968196682,-0.0013862968221793,0.0013862968195813,-0.0013244298912953,0.0013244298852866,-0.001324429886453,0.0013244298810334,-0.0013244298917953,0.0013244298808904,-0.0013244298917269,0.0013244298792848,-4.3672479747486e-11,4.3651029491012e-11,-0.0013523483195616,0.0013523483195138,-3.2022198214414e-14,-1.6092802493577e-14,-0.0013862968360893,0.0013862968062937,-0.0013862968357611,0.0013862968059093,-0.0013862968063594,0.001386296836094,-0.0013862968059919,0.0013862968356547,-0.0013244298402597,-0.0013244298402597,0.0013244298402816,0.0013244299273764,0.0039365687479402,0.0037092106958523,0.6664024195714,0.39650359548597,43648,1000,0.0056188946184999,0.005618894618497,0.0056188946182837,37.283422112133,37.277305562794,0.00021346737689706,0.00021346737689706,0.00021346737689706,674844.05120783,0.016999865978868
11836800,0.99454588884544,0.016292143361781,0.0054307144539965,0.0054307144539971,0.0054307144537878,-0.0013526528179429,0.0013526528177561,4.3511055825935e-11,-4.3731337331781e-11,-7.7654263009687e-13,6.1909185187477e-13,-0.0013865965588946,0.0013865965867812,-0.0013865965874422,0.0013865965582099,-0.0013865965598235,0.0013865965889825,-0.0013865965886751,0.0013865965601534,-0.0013247179232704,0.0013247180105755,-0.0013247180102631,0.0013247179237111,-2.7906459241532e-12,-4.2119557982298e-12,-1.4104374121052e-12,-1.4178448034616e-12,-0.001352652820059,0.0013526528156353,-0.0013865965743503,0.0013865965726141,-0.0013865965747584,0.0013865965727613,-0.0013865965752061,0.0013865965722781,-0.0013865965747951,0.0013865965721971,-0.0013247179695101,0.0013247179635019,-0.0013247179646435,0.0013247179592075,-0.0013247179699999,0.00132471795907,-0.0013247179699414,0.0013247179574687,-4.3674336720169e-11,4.3642877740043e-11,-0.0013526528178209,0.0013526528177746,-2.6138877945809e-14,-4.1930483758386e-15,-0.0013865965887134,0.0013865965589315,-0.0013865965883869,0.0013865965585398,-0.001386596558983,0.0013865965887074,-0.00138659655862,0.0013865965882789,-0.0013247179184881,-0.0013247179184881,0.0013247179184244,0.0013247180055519,0.0039328341181899,0.0037057966139177,0.66953408759186,0.41440432049797,43648,1000,0.0056201561773893,0.0056201561773796,0.005620156177175,37.192618351187,37.186503614695,0.0002127409468095,0.0002127409468095,0.0002127409468095,669530.14176247,0.017003715317995
11923200,0.99485151554301,0.016296633694871,0.0054322112316931,0.0054322112316937,0.0054322112314844,-0.0013530269825044,0.0013530269822948,4.3500168158546e-11,-4.3720897062488e-11,-7.7185936140281e-13,6.1778589177095e-13,-0.0013869406048093,0.0013869406326474,-0.0013869406333748,0.001386940604072,-0.001386940605758,0.0013869406348709,-0.0013869406346352,0.0013869406060552,-0.0013250802173818,0.0013250803046654,-0.0013250803042903,0.0013250802177911,-2.7641289695221e-12,-4.1818705408432e-12,-1.4009061444554e-12,-1.4150792408888e-12,-0.0013530269846075,0.0013530269801822,-0.0013869406202823,0.0013869406184908,-0.001386940620659,0.0013869406186208,-0.0013869406211256,0.0013869406181423,-0.0013869406207132,0.0013869406180608,-0.0013250802635939,0.0013250802576043,-0.0013250802587589,0.0013250802533201,-0.0013250802641118,0.001325080253209,-0.0013250802639986,0.0013250802515724,-4.3651450713438e-11,4.3646241049061e-11,-0.0013530269823525,0.0013530269823356,-9.1905721755052e-15,1.7182504498047e-14,-0.0013869406345419,0.0013869406047854,-0.0013869406342322,0.001386940604404,-0.001386940604864,0.0013869406346094,-0.0013869406044981,0.00138694063418,-0.0013250802125764,-0.0013250802125764,0.0013250802126205,0.0013250802996877,0.0039294729361832,0.0037023840311653,0.67626560197386,0.45157405799106,43648,1000,0.005621706416997,0.0056217064169773,0.0056217064167668,37.101814489143,37.095701666597,0.00021201451591314,0.00021201451591314,0.00021201451591314,662413.19541654,0.017008445297943
12009600,0.99513902662809,0.016300900434179,0.005433633478129,0.0054336334781296,0.0054336334779203,-0.0013536399842877,0.0013536399841005,4.3501967927094e-11,-4.3735568908391e-11,-7.8573252582245e-13,6.161682353069e-13,-0.0013874636695188,0.0013874636974111,-0.0013874636980904,0.0013874636688494,-0.0013874636704455,0.0013874636996553,-0.0013874636993462,0.0013874636708087,-0.0013256893927401,0.0013256894800907,-0.0013256894796643,0.0013256893931974,-2.7889210356709e-12,-4.2183984837631e-12,-1.410130333251e-12,-1.4244952473539e-12,-0.001353639986403,0.0013536399819773,-0.0013874636849846,0.0013874636832622,-0.0013874636853913,0.0013874636834154,-0.0013874636858277,0.0013874636828777,-0.0013874636854317,0.0013874636828117,-0.0013256894389742,0.0013256894329305,-0.0013256894341671,0.0013256894286814,-0.0013256894394906,0.0013256894285841,-0.001325689439485,0.0013256894269915,-4.3657529968898e-11,4.3655798404149e-11,-0.0013536399841594,0.0013536399841174,-2.4916003539077e-14,3.7293272480831e-15,-0.0013874636993548,0.0013874636695227,-0.0013874636990018,0.0013874636691298,-0.0013874636696151,0.0013874636993191,-0.0013874636692321,0.0013874636989131,-0.0013256893879703,-0.0013256893879703,0.0013256893879966,0.0013256894750712,0.0039271895821368,0.0036989780712222,0.68294263981662,0.48874379548415,43648,1000,0.0056242462925512,0.0056242462925349,0.0056242462923205,37.033366821692,37.028705266346,0.00021146693457354,0.00021146693457354,0.00021146693457354,650930.74760085,0.017016194429985
12096000,0.99540981757755,0.016304959088438,0.005434986362882,0.0054349863628825,0.0054349863626733,-0.0013542646933835,0.0013542646932057,4.3520366541499e-11,-4.3719957150026e-11,-7.7563724599102e-13,6.3168123198373e-13,-0.001387998455748,0.0013879984836054,-0.0013879984842843,0.0013879984550464,-0.0013879984566593,0.001387998485827,-0.0013879984855163,0.0013879984569909,-0.0013263117062847,0.0013263117936572,-0.0013263117932357,0.001326311706762,-2.7827247543748e-12,-4.2170279373971e-12,-1.4090621011789e-12,-1.420211201758e-12,-0.0013542646955063,0.0013542646910787,-0.0013879984711849,0.0013879984694568,-0.0013879984716113,0.0013879984696025,-0.0013879984720813,0.0013879984691044,-0.0013879984716397,0.0013879984690136,-0.0013263117525345,0.0013263117465064,-0.0013263117477029,0.0013263117422516,-0.0013263117530206,0.0013263117421281,-0.001326311752994,0.0013263117405057,-4.3669947148385e-11,4.3647089876071e-11,-0.0013542646932648,0.0013542646932181,-3.5269804884612e-14,-1.1346271026267e-14,-0.0013879984855497,0.0013879984557613,-0.0013879984852051,0.0013879984553724,-0.0013879984558176,0.0013879984855542,-0.0013879984554457,0.0013879984851183,-0.0013263117014894,-0.0013263117014894,0.0013263117015245,0.0013263117885977,0.0039250368192186,0.0036955830675808,0.68955349742618,0.52591353297724,43648,1000,0.0056268346819455,0.0056268346819369,0.0056268346817254,36.983736533484,36.980347958064,0.00021106989226787,0.00021106989226787,0.00021106989226787,639802.70706759,0.01702409158685
12182400,0.99566491033447,0.016308819752405,0.005436273250871,0.0054362732508715,0.0054362732506622,-0.0013548680412058,0.0013548680410212,4.3506161622509e-11,-4.3724836118623e-11,-7.8111219638211e-13,6.3124636291574e-13,-0.001388512112792,0.0013885121406578,-0.0013885121413293,0.0013885121120946,-0.0013885121137067,0.0013885121428724,-0.0013885121425763,0.0013885121140571,-0.0013269137132769,0.0013269138006022,-0.0013269138002341,0.0013269137137059,-2.7825941701287e-12,-4.2218300848124e-12,-1.409830460059e-12,-1.4174341689473e-12,-0.0013548680433269,0.0013548680388993,-0.0013885121282673,0.0013885121265241,-0.0013885121286585,0.001388512126662,-0.0013885121291348,0.0013885121261667,-0.0013885121287141,0.0013885121260918,-0.0013269137594852,0.001326913753489,-0.0013269137546335,0.0013269137492273,-0.0013269137599475,0.0013269137491058,-0.0013269137599271,0.0013269137474378,-4.3657187273485e-11,4.3650236456415e-11,-0.0013548680410804,0.0013548680410435,-2.8241431361305e-14,-6.602063017389e-15,-0.0013885121425985,0.001388512112828,-0.0013885121422821,0.0013885121124485,-0.0013885121128876,0.0013885121426285,-0.0013885121125283,0.0013885121421836,-0.0013269137084654,-0.0013269137084654,0.0013269137084409,0.0013269137955529,0.0039228751206152,0.0036922015203657,0.6960864070349,0.56308327047033,43648,1000,0.0056293345699331,0.0056293345699315,0.0056293345697196,36.935257342737,36.931990649781,0.00021068205874189,0.00021068205874189,0.00021068205874189,629033.1534345,0.01703171873649
12268800,0.99590524771266,0.016312486619542,0.0054374955399168,0.0054374955399174,0.0054374955397081,-0.0013554486594035,0.0013554486592318,4.3525968311546e-11,-4.3712317265772e-11,-7.820142276492e-13,6.4299765098078e-13,-0.0013890021983096,0.0013890022261729,-0.0013890022268583,0.0013890021976096,-0.0013890021992192,0.0013890022283957,-0.0013890022280831,0.0013890021995786,-0.0013274944566387,0.0013274945439988,-0.0013274945435493,0.0013274944570775,-2.7827705176826e-12,-4.2346398111311e-12,-1.4096407893827e-12,-1.4250790236376e-12,-0.0013554486615345,0.0013554486570972,-0.0013890022137698,0.0013890022120348,-0.0013890022141766,0.0013890022121663,-0.0013890022146541,0.0013890022116804,-0.001389002214226,0.0013890022115867,-0.0013274945028333,0.0013274944968318,-0.0013274944980536,0.0013274944925843,-0.0013274945033703,0.0013274944924754,-0.001327494503355,0.0013274944908207,-4.3668682892889e-11,4.3646165551367e-11,-0.0013554486592886,0.0013554486592399,-4.4406349298864e-14,-1.5599552856133e-14,-0.0013890022281078,0.0013890021983203,-0.0013890022277763,0.0013890021979374,-0.0013890021983851,0.0013890022281235,-0.0013890021980218,0.001389002227678,-0.0013274944518154,-0.0013274944518154,0.0013274944518715,0.0013274945389513,0.0039206975698611,0.0036888341995191,0.7015543001475,0.59448294252411,43648,1000,0.0056317402869617,0.0056317402869544,0.0056317402867404,36.886887101926,36.883633341498,0.00021029509681541,0.00021029509681541,0.00021029509681541,618598.31629133,0.017039058572373
12355200,0.99613171302646,0.016315906010695,0.0054386353369678,0.0054386353369683,0.005438635336759,-0.001355943722466,0.0013559437222623,4.3497829759394e-11,-4.3742600693575e-11,-7.922196805855e-13,6.2893725698675e-13,-0.001389427768314,0.0013894277961872,-0.0013894277968641,0.001389427767608,-0.0013894277692838,0.0013894277984219,-0.0013894277981006,0.0013894277695737,-0.0013279851191741,0.0013279852066137,-0.0013279852062216,0.0013279851195761,-2.7662920210894e-12,-4.2165452462606e-12,-1.4207688023707e-12,-1.3979645284374e-12,-0.0013559437245705,0.0013559437201602,-0.0013894277837597,0.0013894277820342,-0.0013894277841494,0.001389427782173,-0.001389427784637,0.0013894277817009,-0.001389427784206,0.0013894277815999,-0.0013279851656145,0.001327985159461,-0.0013279851606206,0.0013279851552479,-0.0013279851659899,0.0013279851551829,-0.001327985165938,0.0013279851534594,-4.3680343007269e-11,4.3634867278874e-11,-0.0013559437223463,0.001355943722268,-4.6061857547752e-14,-5.6511861836706e-14,-0.001389427798109,0.0013894277683233,-0.0013894277977914,0.0013894277679212,-0.0013894277684151,0.0013894277981004,-0.0013894277680408,0.0013894277976756,-0.0013279851145313,-0.0013279851145313,0.0013279851144504,0.001327985201655,0.0039182431875763,0.0036854653916075,0.69419267590497,0.5528617812204,43648,1000,0.0056337915058523,0.0056337915058571,0.0056337915056162,36.838528255396,36.835276033215,0.00020990822604317,0.00020990822604317,0.00020990822604317,609735.94086197,0.017045316925494
12441600,0.99634513510326,0.016318980485844,0.0054396601620173,0.0054396601620179,0.0054396601618086,-0.0013556679000993,0.0013556678999282,4.3523211042837e-11,-4.3708161333909e-11,-7.7340107901027e-13,6.3487642849032e-13,-0.0013892756967996,0.0013892757246825,-0.0013892757253635,0.0013892756961067,-0.0013892756977245,0.0013892757269164,-0.0013892757265929,0.0013892756980818,-0.0013276913820828,0.00132769146943,-0.0013276914689938,0.0013276913825454,-2.7767974060394e-12,-4.2120347369947e-12,-1.4144156435142e-12,-1.4090769242554e-12,-0.0013556679022299,0.0013556678977993,-0.0013892757123013,0.0013892757105505,-0.0013892757127123,0.0013892757106994,-0.0013892757131777,0.0013892757101912,-0.0013892757127609,0.0013892757101175,-0.0013276914283633,0.0013276914223231,-0.0013276914234715,0.0013276914180678,-0.0013276914287279,0.0013276914178969,-0.0013276914287465,0.0013276914162688,-4.3658727961712e-11,4.3649340719074e-11,-0.0013556678999873,0.0013556678999441,-2.3366521462926e-14,-1.478607770724e-14,-0.0013892757266593,0.0013892756968573,-0.0013892757263335,0.0013892756964748,-0.0013892756969303,0.0013892757266657,-0.0013892756965684,0.0013892757262312,-0.0013276913772823,-0.0013276913772823,0.0013276913773069,0.0013276914643704,0.0039126627182557,0.0036820665063457,0.66237811846978,0.38766121643206,43648,1000,0.0056326485022386,0.0056326485022422,0.0056326485020394,36.790170821598,36.786918724933,0.00020952136657278,0.00020952136657278,0.00020952136657278,615695.25204475,0.017041830328447
12528000,0.99654629178955,0.016321923362452,0.0054406411208866,0.0054406411208872,0.0054406411206779,-0.0013540316693569,0.0013540316691869,4.3511565516247e-11,-4.3701018375651e-11,-7.7152137172816e-13,6.4468301125889e-13,-0.0013881188406401,0.001388118868504,-0.0013881188691786,0.00138811883993,-0.0013881188415491,0.0013881188707235,-0.0013881188704069,0.0013881188419046,-0.0013260052770784,0.0013260053644026,-0.0013260053640051,0.0013260052775361,-2.7694193373167e-12,-4.2127808906709e-12,-1.4061066620537e-12,-1.4060377229833e-12,-0.001354031671479,0.001354031667061,-0.001388118856093,0.0013881188543598,-0.0013881188564996,0.0013881188544941,-0.0013881188569654,0.0013881188540151,-0.0013881188565518,0.0013881188539236,-0.0013260053233023,0.0013260053172624,-0.001326005318443,0.0013260053130232,-0.0013260053237691,0.0013260053129163,-0.0013260053237223,0.0013260053112546,-4.3660732900462e-11,4.362763923498e-11,-0.0013540316692456,0.0013540316691939,-3.3743792679708e-14,-2.0812952413884e-14,-0.0013881188704387,0.0013881188406583,-0.0013881188701164,0.0013881188402818,-0.0013881188407261,0.0013881188704506,-0.0013881188403621,0.0013881188700093,-0.0013260052722746,-0.0013260052722746,0.0013260052722736,0.0013260053593517,0.0039014890563087,0.0036786981721153,0.67269686887604,0.4441656832706,43648,1000,0.0056258686801545,0.0056258686801466,0.0056258686799384,36.741812941955,36.73856141665,0.00020913450353564,0.00020913450353564,0.00020913450353564,650033.24702845,0.017021146588497
12614400,0.99673591318685,0.01632461160646,0.0054415372022228,0.0054415372022234,0.0054415372020141,-0.0013547699505165,0.0013547699503387,4.3511733922867e-11,-4.371035709036e-11,-7.704841681199e-13,6.2713460617415e-13,-0.0013887082160149,0.0013887082438874,-0.0013887082445639,0.0013887082153234,-0.0013887082169379,0.0013887082461038,-0.0013887082457986,0.0013887082172828,-0.0013267451829834,0.0013267452703127,-0.0013267452699026,0.0013267451834318,-2.7834874957794e-12,-4.2082596758497e-12,-1.37049566171e-12,-1.4396035505115e-12,-0.0013547699526343,0.0013547699482176,-0.0013887082314615,0.0013887082297528,-0.0013887082318913,0.0013887082298679,-0.0013887082323313,0.0013887082294102,-0.0013887082319331,0.0013887082293024,-0.0013267452291878,0.0013267452232398,-0.0013267452244081,0.0013267452189244,-0.001326745229719,0.001326745218804,-0.0013267452296715,0.0013267452171769,-4.364753530364e-11,4.3651315276399e-11,-0.001354769950386,0.0013547699503631,-5.2207052169216e-14,2.9442806424827e-14,-0.0013887082458231,0.0013887082160375,-0.0013887082454707,0.0013887082156744,-0.0013887082161017,0.0013887082458312,-0.0013887082157117,0.0013887082454121,-0.0013267451781783,-0.0013267451781783,0.001326745178254,0.0013267452653162,0.0039002817630275,0.0036753244316253,0.65243102720322,0.34134742341345,43648,1000,0.005628927665901,0.0056289276658941,0.0056289276656813,36.693455209043,36.690204108367,0.00020874764167235,0.00020874764167235,0.00020874764167235,634916.96394636,0.017030479417577
12700800,0.99691468479613,0.016327164228212,0.00544238807614,0.0054423880761406,0.0054423880759313,-0.0013537133481748,0.0013537133479971,4.3517785267414e-11,-4.3716602193694e-11,-7.7135125927792e-13,6.2543489339332e-13,-0.0013879699495217,0.0013879699773986,-0.0013879699780729,0.0013879699488325,-0.0013879699504455,0.0013879699796149,-0.0013879699793099,0.0013879699507927,-0.0013256478981978,0.0013256479855444,-0.0013256479851322,0.0013256478986422,-2.7806833461502e-12,-4.2058270442826e-12,-1.3655426071401e-12,-1.4438740376981e-12,-0.0013537133502925,0.0013537133458762,-0.001387969964973,0.0013879699632636,-0.001387969965404,0.0013879699633757,-0.0013879699658406,0.0013879699629214,-0.0013879699654441,0.0013879699628093,-0.0013256479443871,0.00132564793845,-0.0013256479396229,0.0013256479341294,-0.0013256479449292,0.001325647934026,-0.001325647944888,0.0013256479324003,-4.3652011696301e-11,4.3659886455732e-11,-0.0013537133480427,0.0013537133480235,-5.6188636416903e-14,3.5765083871826e-14,-0.0013879699793329,0.0013879699495483,-0.0013879699789812,0.0013879699491892,-0.0013879699496098,0.0013879699793431,-0.0013879699492199,0.0013879699789287,-0.0013256478933655,-0.0013256478933655,0.001325647893453,0.0013256479805345,0.0038916698091111,0.0036719790276216,0.65688597664258,0.36632788116199,43648,1000,0.0056245495649515,0.0056245495649448,0.0056245495647326,36.645097405519,36.641846800084,0.00020836077924415,0.00020836077924415,0.00020836077924415,657130.03613032,0.01701712289243
12787200,0.99708234652446,0.016329561859415,0.0054431872865411,0.0054431872865417,0.0054431872863324,-0.0013538913390975,0.0013538913389203,4.3518263605743e-11,-4.3716581959018e-11,-7.7092374292648e-13,6.2630651382474e-13,-0.0013881017176457,0.001388101745525,-0.0013881017461996,0.0013881017169568,-0.0013881017185697,0.0013881017477401,-0.0013881017474343,0.0013881017189171,-0.001325815367163,0.001325815454507,-0.0013258154540973,0.0013258153676098,-2.7805872314393e-12,-4.205015245553e-12,-1.3663021721712e-12,-1.4435334598672e-12,-0.0013538913412153,0.0013538913367999,-0.0013881017330974,0.0013881017313892,-0.0013881017335278,0.0013881017315025,-0.0013881017339652,0.0013881017310465,-0.0013881017335689,0.0013881017309363,-0.0013258154133519,0.0013258154074114,-0.0013258154085863,0.0013258154030914,-0.0013258154138976,0.001325815402991,-0.0013258154138509,0.0013258154013645,-4.3652111546192e-11,4.3659459880529e-11,-0.0013538913389657,0.0013538913389466,-5.4582567834137e-14,3.501051868798e-14,-0.0013881017474584,0.0013881017176727,-0.0013881017471075,0.0013881017173133,-0.0013881017177348,0.00138810174747,-0.0013881017173435,0.0013881017470532,-0.0013258153623343,-0.0013258153623343,0.0013258153624167,0.0013258154494954,0.0038882725378322,0.0036686550563338,0.6581286377664,0.37449136351,43648,1000,0.0056252870412655,0.0056252870412599,0.005625287041047,36.495818742881,36.486035990742,0.00020716654994305,0.00020716654994305,0.00020716654994305,649225.98306499,0.017019372986051
12873600,0.99723900131504,0.016331806833927,0.0054439356113784,0.005443935611379,0.0054439356111697,-0.0013537114692854,0.0013537114691074,4.3517787267353e-11,-4.3716985181994e-11,-7.7111244304418e-13,6.2601864026614e-13,-0.0013879078973818,0.0013879079252589,-0.0013879079259346,0.0013879078966923,-0.001387907898305,0.0013879079274744,-0.0013879079271702,0.0013879078986507,-0.0013256297332725,0.0013256298206169,-0.001325629820208,0.0013256297337223,-2.7814282057482e-12,-4.2056511084808e-12,-1.3682180842297e-12,-1.4437467768799e-12,-0.0013537114714031,0.0013537114669861,-0.0013879079128343,0.0013879079111241,-0.0013879079132637,0.001387907911237,-0.001387907913703,0.0013879079107806,-0.001387907913306,0.0013879079106719,-0.0013256297794653,0.0013256297735199,-0.001325629774697,0.0013256297691992,-0.0013256297800086,0.001325629769101,-0.0013256297799591,0.0013256297674746,-4.3653540649592e-11,4.3657972220093e-11,-0.0013537114691545,0.0013537114691326,-5.4913881242152e-14,3.3119311757172e-14,-0.0013879079271962,0.0013879078974069,-0.0013879079268434,0.0013879078970471,-0.0013879078974709,0.001387907927204,-0.0013879078970809,0.0013879079267887,-0.0013256297284494,-0.0013256297284494,0.0013256297285253,0.0013256298156034,0.0038834515062649,0.0036653522561954,0.65938418042597,0.38265484585806,43648,1000,0.0056245417455357,0.0056245417455282,0.0056245417453166,36.268280611296,36.253207686584,0.00020534624489036,0.00020534624489036,0.00020534624489036,645357.17997563,0.017017099209281
12960000,0.99738542987085,0.016333909484841,0.0054446364950162,0.0054446364950168,0.0054446364948075,-0.0013535103845726,0.0013535103843938,4.3517331045996e-11,-4.3717387699109e-11,-7.7110991370968e-13,6.2563918127012e-13,-0.0013876947120058,0.0013876947398816,-0.0013876947405585,0.0013876947113139,-0.0013876947129288,0.0013876947420976,-0.0013876947417939,0.0013876947132743,-0.0013254222296219,0.0013254223169644,-0.0013254223165571,0.0013254222300714,-2.7809515144284e-12,-4.2051048898733e-12,-1.3688198305526e-12,-1.442731043204e-12,-0.0013535103866899,0.0013535103822738,-0.001387694727455,0.0013876947257473,-0.001387694727886,0.0013876947258605,-0.0013876947283245,0.0013876947254036,-0.0013876947279253,0.0013876947252941,-0.0013254222758131,0.0013254222698656,-0.0013254222710425,0.0013254222655462,-0.001325422276357,0.0013254222654505,-0.0013254222763087,0.0013254222638256,-4.3653364478504e-11,4.3658069040665e-11,-0.0013535103844412,0.0013535103844196,-5.3677771945619e-14,3.2721706256688e-14,-0.0013876947418173,0.0013876947120296,-0.001387694741464,0.0013876947116683,-0.0013876947120926,0.0013876947418263,-0.0013876947117032,0.0013876947414084,-0.0013254222247982,-0.0013254222247982,0.001325422224876,0.001325422311953,0.0038786120134545,0.0036620730595902,0.66065191916651,0.39081832820609,43648,1000,0.0056237085646345,0.0056237085646288,0.0056237085644158,36.035944912627,36.020379382434,0.00020348755930102,0.00020348755930102,0.00020348755930102,641510.41392969,0.017014557244826
13046400,0.99752238694604,0.016335880107065,0.005445293369091,0.0054452933690916,0.0054452933688823,-0.001353297724522,0.0013532977243455,4.3518211666153e-11,-4.3716401964516e-11,-7.7014170799359e-13,6.2659256390964e-13,-0.001387470022152,0.0013874700500309,-0.0013874700507049,0.0013874700214635,-0.0013874700230741,0.0013874700522483,-0.0013874700519395,0.0013874700234208,-0.0013252033786553,0.0013252034659983,-0.0013252034655879,0.0013252033791065,-2.7809765724864e-12,-4.2048644854528e-12,-1.3696625401025e-12,-1.4420135063008e-12,-0.0013532977266401,0.0013532977222242,-0.0013874700376073,0.0013874700358986,-0.001387470038038,0.0013874700360137,-0.0013874700384753,0.0013874700355559,-0.0013874700380771,0.0013874700354462,-0.0013252034248489,0.0013252034188981,-0.0013252034200744,0.0013252034145799,-0.0013252034253911,0.0013252034144812,-0.0013252034253418,0.0013252034128559,-4.3653810817809e-11,4.3657569555924e-11,-0.0013532977243923,0.0013532977243697,-5.3241520566917e-14,3.15778588475e-14,-0.0013874700519675,0.0013874700221804,-0.0013874700516172,0.0013874700218213,-0.0013874700222456,0.0013874700519782,-0.0013874700218556,0.0013874700515613,-0.0013252033738315,-0.0013252033738315,0.001325203373903,0.0013252034609841,0.0038737943105898,0.0036588199019613,0.66193118762185,0.39898181055407,43648,1000,0.0056228274287203,0.0056228274287139,0.0056228274285018,35.803155663028,35.787551078283,0.00020162524530423,0.00020162524530423,0.00020162524530423,637715.7373403,0.017011868952994
13132800,0.99765056891069,0.016337728218226,0.0054459094061447,0.0054459094061453,0.005445909405936,-0.001353075075859,0.0013530750756812,4.3517381338578e-11,-4.3717151647496e-11,-7.7079245281966e-13,6.2571917882625e-13,-0.0013872348371369,0.0013872348650149,-0.0013872348656883,0.0013872348364478,-0.0013872348380609,0.0013872348672295,-0.0013872348669249,0.001387234838405,-0.0013249750661771,0.001324975153519,-0.0013249751531117,0.0013249750666269,-2.7795182052738e-12,-4.203558290062e-12,-1.3692451704999e-12,-1.4400593601162e-12,-0.0013530750779753,0.0013530750735619,-0.0013872348525852,0.0013872348508789,-0.0013872348530168,0.001387234850994,-0.0013872348534556,0.0013872348505357,-0.0013872348530553,0.0013872348504281,-0.0013249751123745,0.0013249751064257,-0.0013249751076004,0.0013249751021078,-0.0013249751129075,0.0013249751020051,-0.0013249751128585,0.0013249751003811,-4.3655038692063e-11,4.3656268860365e-11,-0.0013530750757295,0.001353075075705,-5.3904706189404e-14,2.9647770751543e-14,-0.0013872348669487,0.001387234837159,-0.0013872348665996,0.0013872348367982,-0.0013872348372244,0.0013872348669573,-0.0013872348368369,0.0013872348665399,-0.0013249750613515,-0.0013249750613515,0.0013249750614248,0.0013249751485055,0.0038690041906456,0.0036555949626871,0.6632213553448,0.40714529290213,43648,1000,0.005621904909765,0.0056219049097586,0.0056219049095461,35.570320934864,35.554722774128,0.00019976256747891,0.00019976256747891,0.00019976256747891,633975.7428433,0.017009054392861
13219200,0.99777061588414,0.016339462577874,0.0054464875260274,0.005446487526028,0.0054464875258187,-0.0013528432045041,0.001352843204325,4.3516850884194e-11,-4.3717631809298e-11,-7.7129826089698e-13,6.2526854553396e-13,-0.0013869897990723,0.0013869898269488,-0.0013869898276258,0.0013869897983812,-0.0013869897999958,0.0013869898291657,-0.0013869898288608,0.0013869898003394,-0.0013247381116418,0.0013247381989856,-0.0013247381985799,0.0013247381120935,-2.7816924329703e-12,-4.2053089424632e-12,-1.3718646493002e-12,-1.4412781758234e-12,-0.0013528432066217,0.0013528432022044,-0.0013869898145267,0.001386989812815,-0.0013869898149558,0.0013869898129308,-0.0013869898153951,0.0013869898124733,-0.0013869898149949,0.0013869898123634,-0.0013247381578332,0.0013247381518764,-0.0013247381530567,0.0013247381475602,-0.0013247381583712,0.0013247381474666,-0.0013247381583228,0.0013247381458393,-4.3654795317145e-11,4.3656394827105e-11,-0.001352843204374,0.0013528432043499,-5.2766505666531e-14,2.9092846527626e-14,-0.0013869898288873,0.0013869897990985,-0.0013869898285376,0.0013869897987366,-0.0013869897991628,0.0013869898288962,-0.0013869897987736,0.0013869898284765,-0.0013247381068144,-0.0013247381068144,0.0013247381068866,0.0013247381939642,0.0038642438648252,0.0036524001711311,0.6645218253002,0.41530877525014,43648,1000,0.005620944180524,0.0056209441805179,0.0056209441803061,35.337481576202,35.321894469978,0.00019789985260961,0.00019789985260961,0.00019789985260961,630287.90900073,0.017006123247267
13305600,0.99788311640283,0.016341084893471,0.0054470282978931,0.0054470282978937,0.0054470282976844,-0.0013526022668018,0.0013526022666239,4.3517471865224e-11,-4.3716900008125e-11,-7.7051528481636e-13,6.2589011478074e-13,-0.0013867352644613,0.0013867352923391,-0.0013867352930138,0.0013867352637716,-0.0013867352653854,0.0013867352945542,-0.001386735294249,0.0013867352657297,-0.0013244923890322,0.0013244924763772,-0.0013244924759693,0.0013244923894858,-2.7809483380548e-12,-4.2045586712658e-12,-1.3719562641485e-12,-1.4399103352571e-12,-0.0013526022689195,0.0013526022645039,-0.0013867352799166,0.0013867352782055,-0.0013867352803449,0.0013867352783224,-0.001386735280786,0.0013867352778636,-0.0013867352803861,0.0013867352777556,-0.0013244924352304,0.0013244924292787,-0.0013244924304558,0.0013244924249625,-0.0013244924357646,0.0013244924248614,-0.0013244924357157,0.0013244924232361,-4.3654778052967e-11,4.365635426952e-11,-0.001352602266672,0.0013526022666484,-5.2103320044044e-14,2.8423278747168e-14,-0.0013867352942768,0.0013867352644891,-0.0013867352939269,0.0013867352641262,-0.0013867352645526,0.0013867352942866,-0.0013867352641652,0.0013867352938668,-0.0013244923842111,-0.0013244923842111,0.0013244923842826,0.0013244924713582,0.003859513098184,0.0036492354097427,0.66324876301173,0.40983348306016,43648,1000,0.0056199458873155,0.0056199458873107,0.0056199458870973,35.10464183252,35.089066165825,0.00019603713466016,0.00019603713466016,0.00019603713466016,626657.7704162,0.017003077494358
13392000,0.99798861190307,0.01634259626755,0.0054475320892527,0.0054475320892533,0.005447532089044,-0.001352200214234,0.0013522002140457,4.352935050234e-11,-4.3744266525038e-11,-7.6053270742431e-13,6.0347668184867e-13,-0.0013863550897798,0.0013863551176406,-0.0013863551183076,0.0013863550890479,-0.0013863550906742,0.0013863551198592,-0.0013863551195438,0.0013863550910209,-0.0013240829378421,0.0013240830251898,-0.0013240830248403,0.0013240829382962,-2.8103697921908e-12,-4.2063427932327e-12,-1.3977538584026e-12,-1.4399805095839e-12,-0.001352200216356,0.0013522002119234,-0.0013863551052267,0.0013863551035171,-0.0013863551056406,0.001386355103639,-0.0013863551060897,0.0013863551031456,-0.0013863551056876,0.0013863551030675,-0.0013240829841195,0.0013240829781245,-0.0013240829792799,0.0013240829737917,-0.0013240829845756,0.0013240829736112,-0.0013240829845559,0.0013240829720464,-4.3685767576846e-11,4.3663306233613e-11,-0.0013522002141134,0.0013522002140741,-4.6803981935185e-14,7.5501222901231e-15,-0.0013863551195965,0.0013863550898169,-0.0013863551192682,0.0013863550894426,-0.0013863550898943,0.0013863551196234,-0.0013863550894982,0.0013863551191798,-0.0013240829330604,-0.0013240829330604,0.0013240829330374,0.0013240830201744,0.0038541769737758,0.0036461003598838,0.65890049772651,0.38837101080074,43648,1000,0.005618280008696,0.0056182800086953,0.005618280008505,34.871802115395,34.856237861673,0.00019417441692316,0.00019417441692316,0.00019417441692316,626105.56024527,0.016997995077464
13478400,0.99808760080716,0.016344004897403,0.0054480016325372,0.0054480016325378,0.0054480016323285,-0.0013516154535008,0.001351615453323,4.3506289971529e-11,-4.370339642065e-11,-7.5719592700772e-13,6.1812252854576e-13,-0.0013858418518547,0.0013858418797139,-0.0013858418803998,0.0013858418511595,-0.0013858418527668,0.0013858418819237,-0.0013858418816267,0.0013858418531094,-0.0013234857876797,0.0013234858750101,-0.001323485874562,0.0013234857881525,-2.7950275550033e-12,-4.1973630675571e-12,-1.3693143448573e-12,-1.4531915177613e-12,-0.0013516154556212,0.0013516154512003,-0.0013858418672952,0.0013858418655888,-0.001385841867725,0.0013858418657039,-0.0013858418681654,0.0013858418652419,-0.001385841867769,0.0013858418651377,-0.001323485833867,0.0013234858279442,-0.0013234858291218,0.0013234858235471,-0.0013234858344642,0.0013234858234625,-0.0013234858343002,0.0013234858218735,-4.3636591402674e-11,4.3647803089577e-11,-0.0013516154533664,0.0013516154533525,-5.1775565350842e-14,4.7272173514607e-14,-0.0013858418816448,0.0013858418518731,-0.0013858418813003,0.0013858418515096,-0.0013858418519372,0.0013858418816605,-0.0013858418515538,0.0013858418812464,-0.0013234857828285,-0.0013234857828285,0.0013234857829514,0.0013234858699538,0.0038481457742417,0.0036429967060529,0.65449373985629,0.36690853854131,43648,1000,0.0056158570723139,0.0056158570723093,0.0056158570720967,34.638962351289,34.62340955752,0.00019231169881032,0.00019231169881032,0.00019231169881032,629319.41181621,0.016990603114241
13564800,0.9981807764064,0.016345325993009,0.0054484419977389,0.0054484419977395,0.0054484419975302,-0.0013511096403506,0.0013511096399715,4.3344793022797e-11,-4.3849415901032e-11,-8.7303662344808e-13,4.9712387203048e-13,-0.0013853994456804,0.0013853994734707,-0.0013853994742707,0.0013853994447259,-0.001385399446636,0.0013853994758385,-0.001385399475596,0.0013853994468988,-0.0013229727332487,0.0013229728201127,-0.0013229728207608,0.0013229727337833,-2.6608030672339e-12,-4.0122320173013e-12,-1.2041798896015e-12,-1.2897931859388e-12,-0.0013511096421539,0.0013511096380757,-0.0013853994610477,0.001385399459503,-0.0013853994614157,0.0013853994596034,-0.0013853994617286,0.0013853994593083,-0.0013853994615108,0.0013853994591643,-0.0013229727798334,0.0013229727739347,-0.0013229727745745,0.0013229727695504,-0.0013229727801168,0.0013229727690062,-0.0013229727799389,0.0013229727680247,-4.3577267362042e-11,4.3710799870951e-11,-0.0013511096401074,0.0013511096402173,1.5349531082362e-15,1.3334689693207e-13,-0.001385399475544,0.0013853994458467,-0.0013853994750731,0.0013853994455172,-0.0013853994458252,0.0013853994755354,-0.0013853994451062,0.0013853994751951,-0.001322972728758,-0.001322972728758,0.0013229727287286,0.0013229728159118,0.0038425094096009,0.003639928288094,0.65218997303565,0.35653166287174,43648,1000,0.0056137612367871,0.0056137612365956,0.0056137612367926,34.452455565797,34.439893036298,0.00019081964452638,0.00019081964452638,0.00019081964452638,632583.91425291,0.016984209135173
13651200,0.99826868163747,0.016346573237011,0.0054488577457397,0.0054488577457403,0.005448857745531,-0.0013507850183269,0.001350785018114,4.3456411377639e-11,-4.3744445637213e-11,-7.7209964817986e-13,5.788547281501e-13,-0.0013851121812701,0.0013851122091419,-0.0013851122098008,0.0013851121805239,-0.0013851121822174,0.0013851122114326,-0.0013851122110629,0.0013851121825551,-0.0013226413813488,0.0013226414684996,-0.0013226414684582,0.0013226413818124,-2.7316479617946e-12,-4.1073931690169e-12,-1.2900473252339e-12,-1.3875198475152e-12,-0.0013507850203677,0.0013507850160631,-0.0013851121967327,0.0013851121950671,-0.0013851121971755,0.0013851121951791,-0.0013851121975351,0.0013851121947607,-0.0013851121971811,0.0013851121946356,-0.0013226414276217,0.0013226414217061,-0.001322641422758,0.0013226414174352,-0.0013226414280506,0.0013226414171735,-0.0013226414280106,0.0013226414156623,-4.3606136009536e-11,4.3675037934041e-11,-0.0013507850181528,0.0013507850181971,-3.3467036428539e-14,8.0363162607605e-14,-0.0013851122110683,0.0013851121813283,-0.0013851122106674,0.0013851121809872,-0.0013851121813715,0.0013851122111097,-0.00138511218087,0.001385112210715,-0.0013226413766287,-0.0013226413766287,0.0013226413766064,0.0013226414638037,0.003837693121122,0.0036368984212926,0.65269855215028,0.36076519790321,43648,1000,0.0056124161719082,0.0056124161718874,0.0056124161717199,34.29901298031,34.288689082349,0.00018959210384248,0.00018959210384248,0.00018959210384248,633391.32635533,0.016980105623238
13737600,0.99835165754323,0.016347751460404,0.0054492504868708,0.0054492504868714,0.0054492504866621,-0.0013506218067716,0.0013506218065731,4.347697433769e-11,-4.372465535944e-11,-7.6173467070516e-13,5.9126911360503e-13,-0.0013849525986952,0.0013849526265634,-0.0013849526272264,0.001384952597984,-0.0013849525996393,0.0013849526288034,-0.0013849526284788,0.0013849525999673,-0.0013224697283158,0.0013224698155309,-0.0013224698153079,0.0013224697287212,-2.764172732891e-12,-4.1423592772969e-12,-1.3257891745214e-12,-1.4217183615976e-12,-0.001350621808854,0.0013506218044912,-0.0013849526141568,0.0013849526124671,-0.0013849526146023,0.0013849526125768,-0.0013849526149887,0.0013849526121408,-0.0013849526146119,0.0013849526120201,-0.001322469774487,0.0013224697685686,-0.0013224697697077,0.0013224697642953,-0.0013224697749826,0.0013224697641297,-0.0013224697749389,0.001322469762522,-4.3621152639024e-11,4.3659117743922e-11,-0.0013506218066145,0.0013506218066252,-5.008658753619e-14,5.9955844860683e-14,-0.0013849526284849,0.001384952598722,-0.0013849526281101,0.0013849525983783,-0.0013849525987832,0.0013849526285153,-0.001384952598344,0.0013849526281102,-0.0013224697235184,-0.0013224697235184,0.0013224697235199,0.0013224698106862,0.0038336125567062,0.0036339077523717,0.65321556807935,0.3649987329347,43648,1000,0.0056117399219422,0.0056117399219433,0.0056117399217247,34.147592834777,34.137485128398,0.00018838074267821,0.00018838074267821,0.00018838074267821,630895.66167286,0.016978042496752
13824000,0.9984300126218,0.016348865026838,0.0054496216756821,0.0054496216756827,0.0054496216754734,-0.0013504538986159,0.0013504538984204,4.348517638124e-11,-4.3716855303608e-11,-7.5958897154891e-13,5.9513417200074e-13,-0.0013847825716167,0.0013847825994824,-0.0013847826001526,0.0013847825709165,-0.0013847825725575,0.0013847826017019,-0.0013847826014023,0.0013847825728793,-0.0013222964290509,0.0013222965162969,-0.0013222965159971,0.001322296429449,-2.7785745282202e-12,-4.1592295266283e-12,-1.3409358588594e-12,-1.4349696920727e-12,-0.0013504539007105,0.0013504538963262,-0.0013847825870714,0.0013847825853742,-0.0013847825875137,0.0013847825854835,-0.001384782587916,0.0013847825850452,-0.0013847825875313,0.0013847825849256,-0.0013222964752006,0.0013222964692867,-0.0013222964704439,0.001322296464992,-0.0013222964757257,0.0013222964648523,-0.0013222964756688,0.0013222964632372,-4.3627615323946e-11,4.3652124986957e-11,-0.0013504538984664,0.0013504538984633,-5.5838029480646e-14,5.136813662104e-14,-0.0013847826014094,0.0013847825716387,-0.001384782601045,0.0013847825712913,-0.0013847825717028,0.00138478260143,-0.0013847825712881,0.0013847826010224,-0.0013222964242288,-0.0013222964242288,0.0013222964242604,0.001322296511384,0.0038295737370525,0.0036309567766457,0.65374070429802,0.36923226796618,43648,1000,0.0056110442088108,0.0056110442088116,0.00561104420859,33.996362922887,33.986281174452,0.0001871709033831,0.0001871709033831,0.0001871709033831,628392.15081085,0.01697591998233
13910400,0.9985040335856,0.016349917913765,0.0054499726379912,0.0054499726379918,0.0054499726377825,-0.0013502812753544,0.0013502812751592,4.3488743095809e-11,-4.3713453995751e-11,-7.5968879202888e-13,5.9671282965618e-13,-0.0013846060378171,0.0013846060656808,-0.0013846060663555,0.0013846060371197,-0.0013846060387547,0.0013846060678912,-0.0013846060676039,0.0013846060390741,-0.001322119562987,0.001322119650249,-0.0013221196499114,0.0013221195633901,-2.7850690356998e-12,-4.1679643774316e-12,-1.347866764772e-12,-1.4399093058767e-12,-0.001350281277453,0.0013502812730596,-0.0013846060532655,0.0013846060515644,-0.0013846060537049,0.0013846060516744,-0.0013846060541158,0.0013846060512347,-0.0013846060537262,0.0013846060511179,-0.0013221196091288,0.0013221196032179,-0.0013221196043764,0.0013221195989076,-0.0013221196096753,0.0013221195987816,-0.0013221196096062,0.0013221195971733,-4.3630615349944e-11,4.3648829558219e-11,-0.0013502812752082,0.0013502812751994,-5.7365747515791e-14,4.740355185403e-14,-0.0013846060676117,0.0013846060378377,-0.0013846060672507,0.0013846060374877,-0.0013846060379011,0.0013846060676274,-0.001384606037497,0.0013846060672181,-0.0013221195581533,-0.0013221195581533,0.0013221195582082,0.0013221196453005,0.0038255756704366,0.0036280458678299,0.65427366112662,0.37346580299767,43648,1000,0.0056103289591436,0.0056103289591418,0.0056103289589241,33.845151981179,33.835077220501,0.00018596121584943,0.00018596121584943,0.00018596121584943,625903.65806343,0.016973737859402
13996800,0.99857398768806,0.016350913829581,0.0054503046099298,0.0054503046099304,0.0054503046097211,-0.0013501041979357,0.0013501041977419,4.3491215608511e-11,-4.3711022364154e-11,-7.5961908827592e-13,5.9846471731369e-13,-0.0013844243015017,0.0013844243293659,-0.0013844243300424,0.0013844243008076,-0.0013844243024383,0.0013844243315735,-0.0013844243312899,0.001384424302758,-0.001321938786313,0.0013219388735854,-0.0013219388732281,0.001321938786725,-2.7876979553881e-12,-4.1726086473171e-12,-1.3512001923499e-12,-1.4412452356532e-12,-0.0013501042000365,0.0013501041956393,-0.0013844243169477,0.0013844243152459,-0.0013844243173852,0.0013844243153558,-0.0013844243178014,0.001384424314916,-0.0013844243174102,0.0013844243148004,-0.00132193883246,0.0013219388265496,-0.0013219388277049,0.001321938822229,-0.0013219388330132,0.0013219388221062,-0.0013219388329388,0.0013219388205056,-4.3632640993945e-11,4.3646633213551e-11,-0.0013501041977924,0.0013501041977796,-5.7957288268156e-14,4.4700163852442e-14,-0.0013844243312998,0.0013844243015249,-0.0013844243309416,0.0013844243011714,-0.001384424301588,0.0013844243313127,-0.0013844243011888,0.0013844243309014,-0.0013219387814777,-0.0013219387814777,0.0013219387815453,0.0013219388686176,0.0038216185313069,0.003625175318131,0.65481415475129,0.37769933802916,43648,1000,0.0056095952548305,0.0056095952548268,0.0056095952546119,33.693942956683,33.683873266553,0.00018475154365346,0.00018475154365346,0.00018475154365346,623437.58325688,0.016971499430912
14083200,0.99864012420559,0.016351852543322,0.0054506175145099,0.0054506175145105,0.0054506175143012,-0.0013499226256462,0.0013499226254533,4.3492695680943e-11,-4.3709533880214e-11,-7.5986937474749e-13,5.999169670661e-13,-0.0013842377066461,0.0013842377345102,-0.0013842377351872,0.0013842377059515,-0.0013842377075819,0.0013842377367167,-0.0013842377364346,0.0013842377079017,-0.0013217537397258,0.0013217538270032,-0.0013217538266366,0.0013217537401425,-2.7887272180625e-12,-4.1754123851942e-12,-1.3531916315128e-12,-1.4413048808899e-12,-0.001349922627748,0.0013499226233491,-0.0013842377220916,0.0013842377203899,-0.0013842377225271,0.0013842377204997,-0.0013842377229473,0.0013842377200594,-0.0013842377225551,0.0013842377199447,-0.0013217537858746,0.0013217537799646,-0.0013217537811188,0.001321753775638,-0.0013217537864314,0.0013217537755152,-0.0013217537863522,0.0013217537739196,-4.3633755459899e-11,4.3645399045372e-11,-0.0013499226255043,0.0013499226254897,-5.7736383251947e-14,4.2948246784071e-14,-0.0013842377364468,0.0013842377066711,-0.0013842377360893,0.0013842377063166,-0.0013842377067342,0.0013842377364583,-0.0013842377063376,0.0013842377360463,-0.0013217537348863,-0.0013217537348863,0.0013217537349632,0.0013217538220223,0.0038177012828652,0.003622344289682,0.65281092714683,0.36864124454677,43648,1000,0.0056088429266817,0.0056088429266769,0.0056088429264633,33.54273414136,33.532669312605,0.00018354187313088,0.00018354187313088,0.00018354187313088,621000.04367986,0.016969204184227
14169600,0.99870267574267,0.016352728272574,0.0054509094242607,0.0054509094242613,0.005450909424052,-0.0013495873699076,0.0013495873697269,4.3489404075617e-11,-4.3728324423823e-11,-6.643244112276e-13,6.6219441747392e-13,-0.0013839336361827,0.0013839336638242,-0.0013839336644554,0.0013839336353635,-0.0013839336370713,0.0013839336660503,-0.0013839336658774,0.0013839336371776,-0.0013214115830354,0.0013214116705714,-0.0013214116706293,0.0013214115838473,-2.8617644574132e-12,-4.2121164992029e-12,-1.4941511488257e-12,-1.5233403453511e-12,-0.0013495873721338,0.0013495873676068,-0.0013839336515457,0.0013839336496455,-0.0013839336521783,0.0013839336497161,-0.0013839336523847,0.0013839336494957,-0.0013839336520908,0.001383933649524,-0.0013214116295936,0.0013214116231752,-0.0013214116248996,0.0013214116190554,-0.001321411630202,0.0013214116193446,-0.0013214116297198,0.0013214116172057,-4.3671213550874e-11,4.3624262102855e-11,-0.0013495873697931,0.0013495873697631,-3.9830077336125e-14,-7.2940418779098e-15,-0.0013839336659967,0.0013839336361039,-0.0013839336657874,0.0013839336358503,-0.0013839336361498,0.0013839336658351,-0.0013839336357164,0.0013839336655763,-0.0013214115784197,-0.0013214115784197,0.0013214115781347,0.001321411665468,0.0038132011455047,0.0036195503498851,0.6439354981371,0.32446844578257,43648,1000,0.0056074537987395,0.0056074537989595,0.0056074537985776,33.391525301955,33.381465358655,0.00018233220241564,0.00018233220241564,0.00018233220241564,621610.93001583,0.016964966263167
14256000,0.99876185943033,0.016353545156639,0.0054511817189491,0.0054511817189498,0.0054511817187405,-0.0013488521422698,0.0013488521420581,4.348285739326e-11,-4.3707129777187e-11,-7.3419333560345e-13,5.7461574000122e-13,-0.0013833375355614,0.0013833375634112,-0.0013833375640662,0.0013833375348177,-0.0013833375365278,0.0013833375655934,-0.0013833375653334,0.0013833375367534,-0.0013206573701078,0.0013206574573752,-0.0013206574569585,0.0013206573704911,-2.8089569529991e-12,-4.1473870648779e-12,-1.356338094214e-12,-1.4242851949473e-12,-0.0013488521443551,0.0013488521399723,-0.0013833375510057,0.0013833375492794,-0.0013833375514398,0.0013833375494136,-0.0013833375518578,0.0013833375489981,-0.0013833375514804,0.0013833375488932,-0.0013206574161289,0.0013206574102276,-0.0013206574113823,0.0013206574059801,-0.00132065741672,0.0013206574058616,-0.001320657416622,0.0013206574042409,-4.36334390578e-11,4.3638140914161e-11,-0.001348852142126,0.0013488521421068,-5.4607214140033e-14,2.2500989080817e-14,-0.0013833375653175,0.0013833375355824,-0.0013833375650006,0.0013833375352135,-0.0013833375356339,0.0013833375653617,-0.0013833375352549,0.0013833375649517,-0.0013206573651433,-0.0013206573651433,0.001320657365259,0.001320657452281,0.0038070912841778,0.0036167939020812,0.63490876819506,0.28029564701839,43648,1000,0.0056044073630718,0.0056044073630707,0.0056044073628747,33.240316330688,33.230261404706,0.00018112253064551,0.00018112253064551,0.00018112253064551,630617.49925083,0.016955672497264
14342400,0.9988175045856,0.016354324442121,0.0054514414807765,0.0054514414807771,0.0054514414805678,-0.0013478620578887,0.001347862057684,4.3507185120653e-11,-4.3693636718803e-11,-7.3209410561584e-13,6.1642899204684e-13,-0.0013824906030417,0.0013824906307837,-0.0013824906315346,0.0013824906022763,-0.0013824906039654,0.0013824906329996,-0.0013824906327602,0.0013824906041581,-0.0013196469996389,0.0013196470870409,-0.0013196470867825,0.001319647000224,-2.797464657022e-12,-4.1665397738935e-12,-1.3740265832546e-12,-1.3798535228926e-12,-0.0013478620599686,0.0013478620555947,-0.0013824906184009,0.0013824906166828,-0.0013824906187474,0.0013824906167649,-0.0013824906192883,0.0013824906163719,-0.0013824906188482,0.0013824906162469,-0.0013196470457166,0.0013196470399712,-0.0013196470406394,0.0013196470357245,-0.0013196470464514,0.0013196470356825,-0.0013196470464926,0.0013196470339573,-4.3687264619348e-11,4.3626828024468e-11,-0.0013478620577573,0.0013478620577032,-3.814042307155e-14,-1.4914838479569e-14,-0.0013824906327429,0.0013824906029838,-0.0013824906323992,0.0013824906025995,-0.0013824906030675,0.001382490632723,-0.0013824906026987,0.0013824906323435,-0.0013196469949209,-0.0013196469949209,0.001319646994906,0.0013196470819718,0.0037999691355742,0.0036140799893281,0.6442132365116,0.33016534651402,43648,1000,0.0056003049428071,0.0056003049427876,0.0056003049425748,32.967511186037,32.94967694497,0.00017894008948829,0.00017894008948829,0.00017894008948829,640171.39139843,0.016943157196945
14428800,0.99886962771796,0.01635505624534,0.0054516854151825,0.0054516854151832,0.0054516854149738,-0.0013478044369226,0.0013478044367284,4.3513324344869e-11,-4.3706420092985e-11,-7.4330905712442e-13,6.04806053002e-13,-0.001382315680015,0.0013823157078394,-0.0013823157085403,0.0013823156793008,-0.0013823156809543,0.0013823157100449,-0.0013823157097858,0.0013823156812138,-0.0013195899728921,0.0013195900602506,-0.0013195900599244,0.00131958997339,-2.7960238775075e-12,-4.1707624684225e-12,-1.3827790217559e-12,-1.3910939148005e-12,-0.0013478044390159,0.0013478044346288,-0.0013823156954335,0.0013823156937146,-0.0013823156958224,0.001382315693831,-0.0013823156963074,0.0013823156934001,-0.0013823156958793,0.0013823156933025,-0.001319590019046,0.0013195900131453,-0.0013195900140823,0.0013195900089101,-0.0013195900196577,0.0013195900088109,-0.0013195900196249,0.0013195900071564,-4.36701748179e-11,4.3624927200184e-11,-0.0013478044367958,0.0013478044367453,-3.7374740580272e-14,-1.5450969159969e-14,-0.0013823157097806,0.00138231568002,-0.0013823157094445,0.0013823156796329,-0.0013823156800863,0.001382315709775,-0.0013823156797138,0.0013823157093678,-0.0013195899681126,-0.0013195899681126,0.0013195899681109,0.001319590055177,0.0037967864685029,0.0036114048776775,0.64592102542649,0.34057045049574,43648,1000,0.0056000663004709,0.005600066300458,0.0056000663002434,32.614912851864,32.591717266089,0.00017611930281491,0.00017611930281491,0.00017611930281491,627056.80885839,0.01694242878696
14515200,0.99891847951127,0.01635574413847,0.0054519147128928,0.0054519147128934,0.0054519147126841,-0.0013472736955071,0.0013472736953186,4.3510959711224e-11,-4.370794169356e-11,-7.4805550035913e-13,6.0242624335061e-13,-0.0013817467413242,0.001381746769175,-0.0013817467698553,0.0013817467406234,-0.0013817467422618,0.0013817467713785,-0.0013817467711076,0.0013817467425554,-0.0013190655219152,0.0013190656092457,-0.0013190656088905,0.0013190655223807,-2.7935613645002e-12,-4.1711252808682e-12,-1.3865063490651e-12,-1.395020794837e-12,-0.0013472736976057,0.0013472736932151,-0.0013817467567591,0.001381746755038,-0.0013817467571592,0.0013817467551646,-0.0013817467576257,0.0013817467547187,-0.0013817467572046,0.0013817467546299,-0.0013190655680819,0.0013190655621481,-0.0013190655631894,0.0013190655579038,-0.0013190655686525,0.0013190655577774,-0.0013190655685948,0.001319065556163,-4.3664491785631e-11,4.3631064865624e-11,-0.001347273695383,0.0013472736953356,-3.5851522407659e-14,-1.3642465584982e-14,-0.0013817467711124,0.0013817467413378,-0.0013817467707747,0.0013817467409566,-0.001381746741401,0.0013817467711136,-0.0013817467410298,0.0013817467706911,-0.0013190655171131,-0.0013190655171131,0.0013190655171287,0.0013190656041929,0.0037916825284825,0.0036087688805872,0.64764135182845,0.35097555447739,43648,1000,0.0055978672219512,0.0055978672219411,0.0055978672217294,32.257433949205,32.233757587206,0.00017325947159364,0.00017325947159364,0.00017325947159364,623205.67799416,0.016935719746668
14601600,0.99896430235224,0.016356391160887,0.0054521303870318,0.0054521303870324,0.0054521303868231,-0.0013467383200218,0.0013467383198311,4.3506883718096e-11,-4.3711771517738e-11,-7.5334133888039e-13,5.9967262158951e-13,-0.0013811833184717,0.001381183346334,-0.0013811833470121,0.0013811833177736,-0.0013811833194089,0.001381183348537,-0.0013811833482616,0.0013811833197106,-0.0013185317552348,0.00131853184255,-0.001318531842189,0.0013185317556803,-2.7929520889955e-12,-4.1728276994487e-12,-1.3895172864948e-12,-1.3981770513567e-12,-0.0013467383221224,0.0013467383177267,-0.0013811833339208,0.0013811833321909,-0.0013811833343242,0.0013811833323232,-0.0013811833347772,0.0013811833318705,-0.0013811833343562,0.0013811833317799,-0.0013185318014071,0.0013185317954465,-0.0013185317965456,0.0013185317911966,-0.0013185318019562,0.0013185317910666,-0.001318531801888,0.0013185317894723,-4.3661595462347e-11,4.3633803840774e-11,-0.0013467383198977,0.0013467383198497,-3.5411006453354e-14,-1.3144569030674e-14,-0.0013811833482707,0.0013811833184894,-0.0013811833479385,0.0013811833181081,-0.0013811833185572,0.0013811833482723,-0.0013811833181845,0.0013811833478413,-0.0013185317504228,-0.0013185317504228,0.0013185317504484,0.0013185318375076,0.003786612262623,0.0036061721434875,0.64937329017523,0.36138065845908,43648,1000,0.0055956489494081,0.0055956489494002,0.0055956489491898,31.899497728374,31.875797908312,0.00017039598182699,0.00017039598182699,0.00017039598182699,619438.17893089,0.016928952188042
14688000,0.9990073192187,0.016357000243815,0.0054523334146744,0.005452333414675,0.0054523334144657,-0.0013461993831592,0.0013461993829655,4.3503834340664e-11,-4.3714555785622e-11,-7.5687076047075e-13,5.9814460944571e-13,-0.0013806187765609,0.0013806188044269,-0.0013806188051069,0.001380618775864,-0.0013806187775013,0.001380618806632,-0.0013806188063549,0.001380618777808,-0.0013179931421593,0.001317993229465,-0.0013179932290954,0.0013179931425913,-2.7919960005563e-12,-4.1740860139492e-12,-1.3910086526993e-12,-1.3998579117723e-12,-0.0013461993852594,0.0013461993808621,-0.0013806187920214,0.0013806187902957,-0.0013806187924297,0.0013806187904298,-0.001380618792877,0.0013806187899704,-0.0013806187924596,0.0013806187898804,-0.0013179931883481,0.0013179931823721,-0.0013179931835016,0.0013179931781224,-0.0013179931888704,0.001317993177971,-0.00131799318879,0.0013179931763844,-4.3658998688735e-11,4.363626294212e-11,-0.0013461993830324,0.0013461993829867,-3.4067635727702e-14,-1.1704642431208e-14,-0.0013806188063738,0.0013806187765924,-0.0013806188060423,0.0013806187762123,-0.0013806187766561,0.0013806188063799,-0.0013806187762865,0.001380618805942,-0.0013179931373373,-0.0013179931373373,0.0013179931373656,0.0013179932244262,0.0037815794548763,0.003603614785166,0.65111595590002,0.37178576244076,43648,1000,0.0055934159188176,0.005593415918811,0.0055934159185987,31.541516115529,31.517838229433,0.00016753212892423,0.00016753212892423,0.00016753212892423,615727.60278474,0.016922139649696
14774400,0.99904773446636,0.016357574077923,0.0054525246927102,0.0054525246927108,0.0054525246925015,-0.0013456571679126,0.0013456571677194,4.3503097598465e-11,-4.3715084887105e-11,-7.5793631615405e-13,5.9891917401858e-13,-0.0013800514504583,0.0013800514783267,-0.0013800514790045,0.0013800514497641,-0.0013800514513957,0.001380051480531,-0.0013800514802528,0.001380051451711,-0.0013174510510884,0.0013174511383889,-0.0013174511380221,0.0013174510515232,-2.7918734160659e-12,-4.1758590774304e-12,-1.3925428117142e-12,-1.4014007764035e-12,-0.0013456571700146,0.0013456571656156,-0.0013800514659154,0.0013800514641867,-0.0013800514663274,0.0013800514643238,-0.0013800514667735,0.00138005146386,-0.001380051466355,0.0013800514637761,-0.0013174510972748,0.0013174510912966,-0.0013174510924299,0.001317451087044,-0.0013174510978065,0.0013174510869068,-0.001317451097721,0.0013174510853189,-4.365912550839e-11,4.3635952216319e-11,-0.0013456571677871,0.0013456571677403,-3.509581020003e-14,-1.2612320584617e-14,-0.0013800514802667,0.0013800514504842,-0.0013800514799368,0.0013800514501015,-0.0013800514505502,0.0013800514802739,-0.0013800514501832,0.0013800514798386,-0.0013174510462762,-0.0013174510462762,0.0013174510463002,0.0013174511333636,0.0037765843800365,0.0036010968526018,0.65286850245359,0.38219086642245,43648,1000,0.0055911693009693,0.0055911693009656,0.0055911693007527,31.183529929933,31.159878550547,0.00016466823943946,0.00016466823943946,0.00016466823943946,612059.85423381,0.016915285702701
14860800,0.99908573546759,0.016358115133863,0.0054527050446905,0.0054527050446911,0.0054527050444818,-0.0013451118666295,0.001345111866436,4.3502192508468e-11,-4.3715780571735e-11,-7.5955273736172e-13,5.9932486750728e-13,-0.0013794810658375,0.001379481093706,-0.0013794810943832,0.001379481065143,-0.0013794810667748,0.0013794810959085,-0.0013794810956305,0.0013794810670883,-0.0013169059472337,0.001316906034531,-0.0013169060341599,0.0013169059476622,-2.7938060040855e-12,-4.1791029195098e-12,-1.3951991129189e-12,-1.4041833972787e-12,-0.0013451118687341,0.0013451118643289,-0.0013794810812956,0.0013794810795623,-0.0013794810817019,0.0013794810796947,-0.0013794810821516,0.0013794810792334,-0.0013794810817314,0.0013794810791438,-0.0013169059934271,0.0013169059874468,-0.001316905988591,0.0013169059831868,-0.0013169059939494,0.0013169059830435,-0.0013169059938674,0.0013169059814539,-4.3659641080875e-11,4.3635264296158e-11,-0.0013451118665055,0.0013451118664562,-3.6226834471545e-14,-1.3484764520288e-14,-0.0013794810956462,0.0013794810658561,-0.0013794810953139,0.001379481065474,-0.0013794810659251,0.0013794810956478,-0.0013794810655565,0.0013794810952093,-0.0013169059424191,-0.0013169059424191,0.0013169059424434,0.0013169060295081,0.0037716269690112,0.0035986183280239,0.65463011852247,0.39259597040421,43648,1000,0.0055889098922767,0.0055889098922715,0.0055889098920616,30.825543277299,30.801918871663,0.00016180434621839,0.00016180434621839,0.00016180434621839,608429.83010855,0.016908392777032
14947200,0.9991213606298,0.016358623792442,0.0054528745975501,0.0054528745975507,0.0054528745973414,-0.0013444356451241,0.0013444356449333,4.350320606574e-11,-4.3714563491269e-11,-7.5900110715482e-13,6.0154221153365e-13,-0.0013787810968249,0.0013787811246961,-0.0013787811253726,0.0013787810961301,-0.001378781097763,0.0013787811269011,-0.0013787811266174,0.0013787810980804,-0.001316229481847,0.0013162295691449,-0.0013162295687705,0.0013162294822737,-2.7928285633574e-12,-4.1799435408882e-12,-1.3953319618017e-12,-1.4044950348172e-12,-0.0013444356472298,0.0013444356428244,-0.001378781112285,0.0013787811105504,-0.0013787811126913,0.0013787811106865,-0.0013787811131408,0.0013787811102219,-0.0013787811127234,0.001378781110132,-0.0013162295280393,0.001316229522051,-0.0013162295232054,0.0013162295178014,-0.0013162295285578,0.0013162295176513,-0.001316229528478,0.0013162295160564,-4.365756805597e-11,4.3637041006586e-11,-0.0013444356449985,0.001344435644953,-3.4435183322904e-14,-1.1652055802399e-14,-0.0013787811266326,0.0013787810968494,-0.0013787811263011,0.0013787810964673,-0.0013787810969121,0.0013787811266383,-0.0013787810965432,0.0013787811262021,-0.0013162294770292,-0.0013162294770292,0.0013162294770607,0.0013162295641188,0.0037661713018843,0.0035961785012671,0.65640054994015,0.40300107438578,43648,1000,0.0055861080106154,0.0055861080106087,0.0055861080103963,30.401105245418,30.373290101474,0.00015840884196334,0.00015840884196334,0.00015840884196334,604892.5257808,0.016899845005167
15033600,0.99915445902404,0.016359092345453,0.0054530307818871,0.0054530307818878,0.0054530307816785,-0.0013434126296151,0.001343412629426,4.3503440411522e-11,-4.3713970803493e-11,-7.6079711111166e-13,6.0493587256551e-13,-0.0013777329588495,0.0013777329867197,-0.0013777329873959,0.0013777329581568,-0.0013777329597829,0.0013777329889265,-0.0013777329886419,0.0013777329601065,-0.0013152034345321,0.0013152035218364,-0.0013152035214546,0.0013152034349641,-2.788536929758e-12,-4.1812988524255e-12,-1.3940716473622e-12,-1.4034234793172e-12,-0.0013434126317202,0.0013434126273182,-0.0013777329743069,0.0013777329725789,-0.0013777329747172,0.0013777329727144,-0.0013777329751659,0.0013777329722475,-0.0013777329747478,0.0013777329721596,-0.0013152034807297,0.0013152034747415,-0.0013152034758938,0.0013152034704861,-0.0013152034812435,0.0013152034703461,-0.0013152034811652,0.0013152034687522,-4.365701904333e-11,4.3637289763693e-11,-0.0013434126294904,0.0013434126294455,-3.4302363851036e-14,-1.1402092850361e-14,-0.0013777329886578,0.0013777329588738,-0.0013777329883266,0.0013777329584921,-0.0013777329589391,0.0013777329886644,-0.0013777329585691,0.001377732988227,-0.0013152034297209,-0.0013152034297209,0.0013152034297507,0.0013152035168113,0.0037593104444815,0.0035937742264321,0.65073367647095,0.37427876945462,43648,1000,0.0055818691792714,0.0055818691792658,0.0055818691790535,29.801790840345,29.762787355813,0.00015361432672276,0.00015361432672276,0.00015361432672276,601386.14633914,0.016886913651196
15120000,0.9991852278085,0.016359520127245,0.0054531733758176,0.0054531733758182,0.0054531733756089,-0.0013419516156426,0.001341951615407,4.3545712884833e-11,-4.3777018230378e-11,-6.5836847553029e-13,5.5503710282103e-13,-0.0013763550562192,0.0013763550839474,-0.0013763550847728,0.0013763550555243,-0.0013763550572846,0.0013763550865884,-0.0013763550863363,0.001376355057467,-0.0013137337527689,0.001313733840485,-0.0013137338397492,0.0013137337532971,-2.9962308201463e-12,-4.2316877836665e-12,-1.4434326688287e-12,-1.570773366893e-12,-0.0013419516178064,0.0013419516132012,-0.0013763550717219,0.0013763550698182,-0.0013763550722567,0.001376355070018,-0.0013763550725345,0.0013763550695114,-0.0013763550720668,0.0013763550694971,-0.0013137337989677,0.0013137337928779,-0.0013137337944816,0.0013137337887331,-0.001313733800103,0.0013137337887407,-0.0013137337994233,0.0013137337867008,-4.3727155959519e-11,4.3671207815755e-11,-0.0013419516154705,0.0013419516153931,-1.3036375277096e-13,8.624530644156e-15,-0.001376355085879,0.0013763550560735,-0.0013763550856919,0.0013763550558728,-0.0013763550562712,0.0013763550859751,-0.0013763550558905,0.0013763550856615,-0.0013137337477551,-0.0013137337477551,0.0013137337482685,0.0013137338350848,0.0037506725179544,0.0035914046175994,0.63910115474378,0.31554913324883,43648,1000,0.0055758154098741,0.0055758154097871,0.0055758154094889,29.19225662185,29.152284610153,0.0001487380529748,0.0001487380529748,0.0001487380529748,606485.06652541,0.016868446178084
15206400,0.99921386211449,0.0163599105054,0.0054533035018692,0.0054533035018698,0.0054533035016605,-0.0013401447799378,0.0013401447795872,4.3403743457196e-11,-4.3823111292855e-11,-6.7530495813237e-13,5.1771100781349e-13,-0.0013747231814107,0.0013747232091103,-0.0013747232100937,0.0013747231808479,-0.0013747231824404,0.0013747232114043,-0.0013747232115674,0.0013747231827162,-0.0013119069460313,0.0013119070329549,-0.0013119070334992,0.0013119069460569,-2.795651771228e-12,-4.0019643897938e-12,-1.3507014134696e-12,-1.444584839513e-12,-0.0013401447819026,0.0013401447775818,-0.0013747231967117,0.0013747231950536,-0.0013747231974464,0.0013747231950196,-0.0013747231975972,0.0013747231950429,-0.0013747231969181,0.0013747231947364,-0.0013119069923818,0.0013119069860318,-0.0013119069875979,0.0013119069817929,-0.0013119069934903,0.0013119069828673,-0.0013119069926759,0.001311906980721,-4.3663014566053e-11,4.3646835707365e-11,-0.0013401447797043,0.0013401447797011,-2.9999465889851e-14,8.6420036397797e-14,-0.0013747232111173,0.0013747231810652,-0.0013747232108943,0.0013747231810714,-0.0013747231814438,0.0013747232111769,-0.0013747231807969,0.001374723210709,-0.0013119069414133,-0.0013119069414133,0.0013119069411045,0.0013119070285212,0.0037406402057889,0.0035890699545301,0.62681933084484,0.25467942007145,43648,1000,0.005568328628603,0.0055683286285187,0.005568328628355,28.581777629989,28.541781864492,0.00014385422103991,0.00014385422103991,0.00014385422103991,618817.5498694,0.016845607858674
15292800,0.99924053932765,0.016360296497947,0.0054534321660518,0.0054534321660524,0.0054534321658431,-0.0013382838328555,0.0013382838326086,4.3459454872897e-11,-4.3770248790121e-11,-7.1972354235158e-13,5.2338730499475e-13,-0.0013730522062993,0.0013730522341378,-0.0013730522347987,0.0013730522056056,-0.0013730522072669,0.0013730522362832,-0.0013730522360649,0.0013730522074842,-0.0013100225836379,0.0013100226707406,-0.0013100226707421,0.0013100225840579,-2.8390700918869e-12,-4.1100737341863e-12,-1.3573824740736e-12,-1.4547813809568e-12,-0.0013382838349263,0.001338283830551,-0.0013730522217632,0.0013730522200709,-0.001373052222178,0.0013730522201631,-0.0013730522225485,0.0013730522197716,-0.0013730522221663,0.001373052219645,-0.0013100226296976,0.0013100226238516,-0.001310022625,0.0013100226194889,-0.0013100226303847,0.0013100226193378,-0.0013100226300363,0.0013100226178499,-4.3677592826579e-11,4.3627946754998e-11,-0.0013382838326995,0.0013382838326697,-7.4691541754082e-14,3.5855728161529e-14,-0.0013730522360752,0.0013730522063471,-0.0013730522357214,0.0013730522059998,-0.0013730522064129,0.0013730522360836,-0.0013730522059872,0.0013730522356982,-0.0013100225787936,-0.0013100225787936,0.0013100225785919,0.0013100226657409,0.0037304269022574,0.0035867789576732,0.66519817569871,0.46598060193548,43648,1000,0.005560617591614,0.0055606175916412,0.0055606175914173,27.971207286723,27.931279118832,0.00013896965829379,0.00013896965829379,0.00013896965829379,632506.68971686,0.016822085938146
15379200,0.99926541969541,0.016360667088151,0.0054535556961198,0.0054535556961204,0.0054535556959111,-0.0013394456714378,0.0013394456710591,4.3412843061562e-11,-4.3814621787498e-11,-8.8447297995759e-13,4.5324515367168e-13,-0.0013736148827558,0.0013736149098941,-0.0013736149106907,0.0013736148814409,-0.0013736148839321,0.0013736149124787,-0.0013736149117103,0.0013736148838941,-0.0013112357087197,0.0013112357958001,-0.001311235795284,0.0013112357082883,-2.670183898303e-12,-4.0325357499774e-12,-1.3834821473348e-12,-1.2818668986697e-12,-0.001339445673381,0.0013394456691383,-0.0013736148979405,0.001373614896063,-0.0013736148983584,0.0013736148964991,-0.0013736148985588,0.0013736148959973,-0.0013736148978713,0.0013736148958092,-0.0013112357545741,0.0013112357484913,-0.0013112357494451,0.0013112357449944,-0.001311235754368,0.0013112357443447,-0.0013112357548615,0.0013112357430264,-4.3579701022989e-11,4.37251765494e-11,-0.0013394456712035,0.0013394456712285,1.8158327628497e-14,-6.9273707265206e-14,-0.001373614911947,0.0013736148829472,-0.0013736149119215,0.0013736148824806,-0.0013736148826293,0.0013736149125941,-0.0013736148823155,0.0013736149118624,-0.001311235703215,-0.001311235703215,0.0013112357031441,0.0013112357903979,0.0037328477606186,0.0035845277985959,0.68483225404994,0.58118402251395,43648,1000,0.0055654322443844,0.0055654322444309,0.0055654322442502,27.360623715641,27.320776373174,0.00013408498972513,0.00013408498972513,0.00013408498972513,584069.8801782,0.016836770634196
15465600,0.99928864810763,0.016361017897162,0.0054536726324567,0.0054536726324574,0.005453672632248,-0.0013394324212442,0.0013394324208713,4.3402630314731e-11,-4.3879689505606e-11,-7.0565050168508e-13,4.2714453926282e-13,-0.0013732882168338,0.0013732882443634,-0.0013732882452844,0.0013732882158745,-0.0013732882178662,0.0013732882468697,-0.0013732882465739,0.0013732882179133,-0.0013112492052448,0.0013112492923406,-0.0013112492920767,0.0013112492051884,-2.9124863196598e-12,-4.0713155064589e-12,-1.4228347098469e-12,-1.272270515362e-12,-0.0013394324232097,0.0013394324188924,-0.0013732882322502,0.0013732882302563,-0.0013732882324755,0.0013732882308037,-0.0013732882328871,0.0013732882298761,-0.0013732882321682,0.0013732882301504,-0.0013112492515902,0.0013112492460212,-0.0013112492472575,0.0013112492416183,-0.001311249251841,0.0013112492408967,-0.0013112492512701,0.0013112492394873,-4.3850715920141e-11,4.3504831163153e-11,-0.001339432421213,0.0013394324207841,-2.0265933830809e-13,-3.3708781984555e-13,-0.0013732882465817,0.0013732882167597,-0.0013732882465342,0.0013732882161357,-0.0013732882169955,0.00137328824656,-0.0013732882167271,0.001373288245751,-0.0013112492009046,-0.0013112492009046,0.0013112492004408,0.0013112492877248,0.0037304114412697,0.0035823145897531,0.69372073440095,0.63479025455407,43648,1000,0.0055653776597999,0.0055653776597721,0.0055653776595547,26.750039945385,26.710273627511,0.00012920031956308,0.00012920031956308,0.00012920031956308,560623.11193805,0.016836602646625
15552000,0.99931035573893,0.016361347337568,0.0054537824459254,0.005453782445926,0.0054537824457167,-0.0013387833468465,0.0013387833465857,4.3492595213424e-11,-4.3787517615511e-11,-6.9956851101513e-13,4.7980910686702e-13,-0.0013725013573759,0.0013725013852508,-0.0013725013859347,0.0013725013566647,-0.0013725013583705,0.001372501387402,-0.0013725013872377,0.001372501358563,-0.0013106093349217,0.0013106094221207,-0.0013106094218675,0.0013106093351727,-2.8525139164814e-12,-4.0585208385037e-12,-1.4314245650798e-12,-1.2975088914058e-12,-0.0013387833488824,0.0013387833445453,-0.0013725013728504,0.001372501371071,-0.0013725013732084,0.0013725013712688,-0.0013725013736434,0.0013725013707988,-0.0013725013731769,0.0013725013707661,-0.0013106093811262,0.0013106093751561,-0.0013106093762117,0.001310609371043,-0.0013106093816235,0.0013106093706391,-0.0013106093813364,0.0013106093692102,-4.3711074097867e-11,4.3646125199659e-11,-0.0013387833467122,0.0013387833466148,2.8687358914995e-15,-1.1553020592563e-13,-0.0013725013871921,0.0013725013573974,-0.0013725013869145,0.0013725013569578,-0.0013725013574617,0.0013725013872112,-0.0013725013571396,0.0013725013867136,-0.0013106093301549,-0.0013106093301549,0.0013106093300763,0.0013106094172188,0.0037253759662834,0.003580138205798,0.69679798514796,0.65271059529583,43648,1000,0.005562688344608,0.0055626883445987,0.0055626883443902,26.139457888267,26.09977088185,0.00012431566310614,0.00012431566310614,0.00012431566310614,549796.40047776,0.016828398197745
15638400,0.99933112531747,0.016361663966392,0.0054538879888667,0.0054538879888673,0.005453887988658,-0.0013385365190111,0.0013385365187321,4.3532844513247e-11,-4.3806392803593e-11,-6.9176986690542e-13,4.6295997453763e-13,-0.0013722003549678,0.001372200382817,-0.0013722003835574,0.0013722003542324,-0.0013722003559733,0.0013722003849629,-0.001372200384879,0.0013722003561021,-0.0013103719519686,0.0013103720393236,-0.0013103720388636,0.001310371952197,-2.8742014892351e-12,-4.0564850771654e-12,-1.3935190171859e-12,-1.2709086157906e-12,-0.0013385365210278,0.0013385365167119,-0.0013722003704133,0.0013722003686897,-0.0013722003708214,0.0013722003688706,-0.0013722003712166,0.0013722003684305,-0.0013722003707874,0.0013722003683933,-0.0013103719980144,0.0013103719921467,-0.0013103719930258,0.0013103719879764,-0.0013103719988083,0.0013103719876333,-0.0013103719984658,0.0013103719862548,-4.3715549637613e-11,4.3700893761811e-11,-0.001338536518857,0.0013385365187796,1.8818366288298e-14,-8.8490120216981e-14,-0.0013722003847835,0.0013722003549367,-0.001372200384485,0.0013722003545049,-0.0013722003550488,0.0013722003847889,-0.0013722003547144,0.0013722003843133,-0.0013103719469876,-0.0013103719469876,0.0013103719471967,0.001310372034248,0.0037220798406851,0.0035780007349475,0.69986102375389,0.67063093603758,43648,1000,0.0055616656835422,0.0055616656835351,0.0055616656833216,25.913916918896,25.898385426056,0.00012251133535116,0.00012251133535116,0.00012251133535116,545104.48592305,0.016825278204232
15724800,0.99935106255524,0.016361975594431,0.0054539918648796,0.0054539918648802,0.0054539918646709,-0.0013383823103114,0.001338382310073,4.3535281203514e-11,-4.3758704907485e-11,-6.7846797915131e-13,4.9259101050629e-13,-0.0013720001182988,0.0013720001461822,-0.0013720001469116,0.0013720001175693,-0.0013720001192427,0.0013720001483256,-0.0013720001481632,0.001372000119446,-0.0013102216233692,0.0013102217106753,-0.0013102217103998,0.001310221623727,-2.8753308076764e-12,-4.0726637005666e-12,-1.4124182339454e-12,-1.3278544055476e-12,-0.0013383823123705,0.0013383823080194,-0.0013720001337964,0.0013720001320116,-0.0013720001341416,0.0013720001321623,-0.0013720001345605,0.0013720001318125,-0.0013720001341612,0.0013720001317233,-0.0013102216695069,0.0013102216634956,-0.0013102216646518,0.0013102216593729,-0.0013102216701149,0.0013102216591159,-0.0013102216698563,0.0013102216576516,-4.3691988033875e-11,4.3679291804089e-11,-0.0013383823101702,0.0013383823101184,6.3441591314698e-15,-6.3239509252872e-14,-0.0013720001481438,0.0013720001183102,-0.0013720001478567,0.0013720001179489,-0.0013720001184316,0.0013720001481771,-0.0013720001180065,0.0013720001477253,-0.0013102216184005,-0.0013102216184005,0.0013102216184195,0.0013102217055313,0.0037192188653508,0.0035759036466061,0.71735877942072,0.79804980302726,43648,1000,0.0055610267660544,0.0055610267660657,0.0055610267658557,25.737557925979,25.725959157768,0.00012110046340783,0.00012110046340783,0.00012110046340783,540710.50531919,0.016823328956056
15811200,0.99937021060501,0.016362277692602,0.0054540925642701,0.0054540925642707,0.0054540925640614,-0.0013392219122889,0.0013392219120255,4.3532809573138e-11,-4.3768484785187e-11,-7.3183652524945e-13,4.8202562738914e-13,-0.0013725300791931,0.0013725301068279,-0.0013725301076043,0.0013725300782703,-0.001372530080135,0.0013725301092271,-0.001372530109161,0.0013725300802539,-0.0013110668187667,0.0013110669060556,-0.0013110669057928,0.0013110668193921,-2.8537937009143e-12,-4.0948361996826e-12,-1.4589290189552e-12,-1.4058294940504e-12,-0.0013392219143131,0.0013392219099383,-0.0013725300944244,0.0013725300929209,-0.0013725300949871,0.0013725300929875,-0.001372530095503,0.0013725300923978,-0.001372530094763,0.0013725300923858,-0.001311066864905,0.0013110668588,-0.0013110668600614,0.0013110668547405,-0.0013110668654809,0.0013110668546325,-0.0013110668654111,0.0013110668530367,-4.3712947393581e-11,4.366694450482e-11,-0.0013392219120959,0.00133922191204,-6.0827553524699e-15,-4.5326997644277e-14,-0.0013725301089396,0.0013725300791634,-0.0013725301084841,0.0013725300785658,-0.0013725300790132,0.001372530109063,-0.0013725300787911,0.0013725301084614,-0.0013110668138191,-0.0013110668138191,0.0013110668137603,0.0013110669007592,0.0037205133655852,0.0035738450086271,0.72397780400348,0.84262532356393,43648,1000,0.0055645061887131,0.0055645061885824,0.0055645061883431,25.56474986659,25.55353288948,0.00011971799893272,0.00011971799893272,0.00011971799893272,519951.27090324,0.016833940847488
15897600,0.99938860648515,0.016362567671724,0.0054541892239774,0.005454189223978,0.0054541892237687,-0.0013392931969045,0.0013392931966588,4.3541208022453e-11,-4.3798208818314e-11,-7.2551418898072e-13,4.9945862423481e-13,-0.0013724830003056,0.0013724830281874,-0.0013724830288708,0.0013724829996211,-0.0013724830012638,0.0013724830303171,-0.0013724830301847,0.0013724830014878,-0.0013111479785866,0.0013111480659025,-0.0013111480655801,0.0013111479788854,-2.8368877467914e-12,-4.0878090025939e-12,-1.4246153025098e-12,-1.3457544175381e-12,-0.0013392931989573,0.001339293194598,-0.0013724830158091,0.0013724830140225,-0.0013724830161626,0.0013724830141881,-0.0013724830166033,0.0013724830137446,-0.0013724830161433,0.0013724830136914,-0.0013111480247012,0.0013111480187297,-0.0013111480197323,0.001311148014469,-0.0013111480252053,0.0013111480142767,-0.0013111480250517,0.0013111480128777,-4.3718092295231e-11,4.369822299046e-11,-0.0013392931967586,0.001339293196695,5.5071847004642e-15,-5.8045403223364e-14,-0.0013724830301285,0.0013724830003427,-0.0013724830298819,0.001372482999917,-0.0013724830004041,0.0013724830301486,-0.0013724830001003,0.0013724830296904,-0.001311147973548,-0.001311147973548,0.0013111479735982,0.0013111480607378,0.0037186678393746,0.003571823435257,0.72311436724057,0.82628061128145,43648,1000,0.0055648017013064,0.0055648017012898,0.0055648017010792,25.39228172376,25.381106621192,0.00011833825379008,0.00011833825379008,0.00011833825379008,512032.09461624,0.016834841623545
15984000,0.99940628491768,0.016362845932968,0.0054542819777253,0.0054542819777259,0.0054542819775166,-0.0013388322494114,0.0013388322491454,4.351391515035e-11,-4.3801426131792e-11,-7.0463947374776e-13,4.8682989238684e-13,-0.0013720651171266,0.001372065144946,-0.0013720651457204,0.0013720651164091,-0.0013720651180522,0.0013720651470841,-0.0013720651469894,0.0013720651182894,-0.0013106879302175,0.0013106880175602,-0.0013106880172564,0.001310687930467,-2.8712155804525e-12,-4.0884442184826e-12,-1.415999271606e-12,-1.369902738647e-12,-0.0013388322514688,0.0013388322470909,-0.0013720651326242,0.0013720651308253,-0.0013720651329758,0.0013720651310278,-0.0013720651334263,0.0013720651305646,-0.0013720651329677,0.0013720651304841,-0.0013106879763322,0.0013106879702862,-0.0013106879714986,0.0013106879661153,-0.001310687976993,0.0013106879659313,-0.0013106879766388,0.0013106879643838,-4.3718888829721e-11,4.3672991967133e-11,-0.0013388322492739,0.0013388322491817,-4.395071615932e-14,-7.4794744483662e-14,-0.0013720651469222,0.0013720651171267,-0.0013720651466711,0.0013720651166872,-0.0013720651172416,0.0013720651469502,-0.0013720651169064,0.0013720651465227,-0.0013106879251334,-0.0013106879251334,0.0013106879251306,0.00131068801241,0.0037146641107319,0.0035698383342997,0.72197934248497,0.80993589899898,43648,1000,0.0055628916414555,0.0055628916414614,0.0055628916412459,25.219846748316,25.208680352904,0.00011695877398653,0.00011695877398653,0.00011695877398653,512783.46982648,0.016829015414898
16070400,0.99942327878189,0.016363112897309,0.0054543709658389,0.0054543709658395,0.0054543709656302,-0.0013383724229474,0.0013383724227681,4.3589527899256e-11,-4.371982556581e-11,-6.684089923288e-13,5.402080852491e-13,-0.0013716473350779,0.0013716473630008,-0.0013716473636221,0.0013716473343787,-0.0013716473360104,0.0013716473651348,-0.0013716473649941,0.0013716473363142,-0.0013102285059627,0.0013102285930287,-0.0013102285922695,0.0013102285063653,-2.8498969376048e-12,-4.0847514489412e-12,-1.3389420374163e-12,-1.3000733718862e-12,-0.00133837242502,0.0013383724206991,-0.0013716473505372,0.0013716473489248,-0.0013716473510199,0.0013716473489833,-0.0013716473514283,0.0013716473485616,-0.0013716473510519,0.0013716473485052,-0.0013102285519665,0.0013102285463628,-0.0013102285467447,0.0013102285419732,-0.00131022855261,0.0013102285412726,-0.0013102285522219,0.0013102285400745,-4.3641063177829e-11,4.3745936385789e-11,-0.0013383724227941,0.0013383724228236,9.0469000940004e-15,-1.7447878743987e-14,-0.0013716473649436,0.001371647335238,-0.0013716473646349,0.0013716473347797,-0.0013716473352466,0.001371647365036,-0.0013716473348143,0.0013716473645803,-0.0013102285007018,-0.0013102285007018,0.001310228501245,0.0013102285876836,0.0037107039198196,0.0035678891306047,0.7206019363336,0.79359118671651,43648,1000,0.0055609862311047,0.0055609862311124,0.0055609862309024,25.047414991614,25.036254084617,0.00011557931993291,0.00011557931993291,0.00011557931993291,513630.42810139,0.016823203392569
16156800,0.9994396192503,0.016363369019156,0.0054544563397882,0.0054544563397888,0.0054544563395795,-0.0013379132951888,0.0013379132949305,4.3517312223042e-11,-4.3842922746452e-11,-7.0179797231839e-13,4.9814789957067e-13,-0.0013712293243703,0.0013712293523076,-0.0013712293529564,0.0013712293236809,-0.0013712293253738,0.0013712293544371,-0.0013712293542428,0.0013712293255748,-0.0013097694852557,0.0013097695724836,-0.0013097695723676,0.0013097694854192,-2.8424545767285e-12,-4.0690754572438e-12,-1.3953582257052e-12,-1.3400324452816e-12,-0.0013379132972392,0.0013379132928889,-0.0013712293398534,0.0013712293380759,-0.0013712293402438,0.0013712293382861,-0.0013712293406648,0.0013712293378316,-0.0013712293402381,0.001371229337773,-0.0013097695314774,0.0013097695257164,-0.0013097695266035,0.0013097695214414,-0.0013097695321121,0.0013097695210411,-0.0013097695317704,0.0013097695195876,-4.3727747941434e-11,4.3708875841493e-11,-0.0013379132950275,0.0013379132949831,6.8215857228858e-15,-3.361432604659e-14,-0.0013712293542113,0.0013712293243882,-0.0013712293539042,0.0013712293239781,-0.0013712293244162,0.0013712293542083,-0.0013712293240819,0.0013712293537445,-0.0013097694805757,-0.0013097694805757,0.0013097694804679,0.0013097695678212,0.0037067848982691,0.0035659752706597,0.71901046198457,0.77724647443404,43648,1000,0.0055590837185062,0.0055590837185245,0.0055590837182809,24.8749834758,24.863827816329,0.0001141998678064,0.0001141998678064,0.0001141998678064,514563.14515042,0.016817400216275
16243200,0.99945533588884,0.016363614742703,0.005454538247637,0.0054545382476376,0.0054545382474283,-0.0013374544850444,0.0013374544847375,4.3515325283742e-11,-4.3847940181408e-11,-7.095987928322e-13,4.5572113685562e-13,-0.0013708109220184,0.0013708109499073,-0.0013708109505998,0.0013708109213008,-0.0013708109230528,0.0013708109520512,-0.0013708109519294,0.001370810923161,-0.0013093104941936,0.0013093105814127,-0.001309310581269,0.0013093104943354,-2.8665161357821e-12,-4.0596017466591e-12,-1.4444101683785e-12,-1.3053742099492e-12,-0.001337454487061,0.0013374544827244,-0.0013708109374964,0.0013708109357353,-0.0013708109378785,0.0013708109359292,-0.0013708109382757,0.0013708109354663,-0.0013708109378039,0.0013708109354144,-0.0013093105403733,0.0013093105342982,-0.0013093105353536,0.0013093105302852,-0.0013093105409323,0.0013093105298129,-0.0013093105406243,0.0013093105285738,-4.3785808785362e-11,4.3654955900475e-11,-0.0013374544849116,0.0013374544847676,1.0340537044868e-14,-1.1191872801851e-13,-0.0013708109519092,0.0013708109219859,-0.0013708109515575,0.0013708109215502,-0.0013708109220985,0.0013708109517974,-0.0013708109217584,0.0013708109513702,-0.0013093104893932,-0.0013093104893932,0.001309310489218,0.0013093105765688,0.003702904860064,0.0035640962077514,0.71723140731271,0.76090176215158,43648,1000,0.0055571825241787,0.0055571825241859,0.0055571825239659,24.702551895001,24.691401548041,0.00011282041516001,0.00011282041516001,0.00011282041516001,515576.09286928,0.01681160107134
16329600,0.9994704567486,0.016363850500562,0.0054546168335901,0.0054546168335907,0.0054546168333814,-0.0013369956522216,0.0013369956519678,4.3520248368639e-11,-4.3814441440066e-11,-6.7824745647636e-13,4.8294024650697e-13,-0.0013703919668684,0.0013703919947054,-0.0013703919954362,0.0013703919660765,-0.0013703919678524,0.0013703919969202,-0.0013703919967042,0.0013703919679986,-0.0013088512049313,0.0013088512921997,-0.0013088512918904,0.0013088512049844,-2.891786128507e-12,-4.0786953986553e-12,-1.3881911211259e-12,-1.3517519402002e-12,-0.0013369956542846,0.0013369956499216,-0.0013703919823956,0.001370391980561,-0.001370391982646,0.0013703919807051,-0.0013703919831218,0.0013703919803386,-0.001370391982697,0.0013703919801791,-0.0013088512509912,0.0013088512449386,-0.0013088512462382,0.0013088512410355,-0.0013088512518532,0.0013088512405204,-0.0013088512514073,0.0013088512391611,-4.3719734450947e-11,4.3692235996888e-11,-0.0013369956520936,0.0013369956520048,-4.5284028368723e-14,-6.8402792694578e-14,-0.0013703919966598,0.0013703919668466,-0.0013703919963186,0.0013703919664635,-0.0013703919668928,0.0013703919966761,-0.0013703919665675,0.0013703919962472,-0.0013088512000103,-0.0013088512000103,0.0013088511999837,0.0013088512872044,0.0036990617888344,0.0035622514014913,0.7152887121245,0.74455704986911,43648,1000,0.0055552812374959,0.0055552812375306,0.0055552812373075,24.530120216896,24.518975279753,0.00011144096173517,0.00011144096173517,0.00011144096173517,516664.14377318,0.016805801657883
16416000,0.99948505797006,0.016364065559348,0.0054546885198519,0.0054546885198526,0.0054546885196432,-0.0013366462419144,0.0013366462416579,4.3514498956044e-11,-4.3799472191484e-11,-6.3472478606407e-13,3.5262881566703e-13,-0.001370080799768,0.0013700808277824,-0.0013700808283462,0.0013700807991272,-0.0013700808007826,0.0013700808297913,-0.0013700808296304,0.0013700808010066,-0.0013085016742559,0.0013085017614261,-0.0013085017611964,0.0013085016745381,-2.9301012521239e-12,-3.9432158315807e-12,-1.6626182669767e-12,-1.1482103347271e-12,-0.0013366462439657,0.0013366462395897,-0.0013700808154549,0.0013700808133794,-0.0013700808155444,0.0013700808136447,-0.0013700808162013,0.0013700808132686,-0.0013700808156018,0.0013700808132183,-0.0013085017203391,0.0013085017141365,-0.001308501715308,0.0013085017105708,-0.0013085017208311,0.001308501709843,-0.0013085017204701,0.0013085017086438,-4.3862209274909e-11,4.3528374238046e-11,-0.0013366462418886,0.0013366462415814,6.3399004380406e-14,-4.3071581251582e-13,-0.0013700808296106,0.001370080799864,-0.0013700808295847,0.0013700807992216,-0.0013700807998828,0.0013700808296238,-0.0013700807996197,0.0013700808290914,-0.0013085016696209,-0.0013085016696209,0.0013085016692709,0.0013085017564238,0.0036957134353535,0.0035604371929198,0.67595028719407,0.52307539463865,43648,1000,0.0055538333570414,0.0055538333570066,0.0055538333568298,24.414958716558,24.407384628374,0.00011051966973246,0.00011051966973246,0.00011051966973246,517792.92159544,0.016801385312878
16502400,0.99949916499645,0.016364282890892,0.0054547609637,0.0054547609637006,0.0054547609634913,-0.0013344730873631,0.0013344730870247,4.3516682124644e-11,-4.3890086599746e-11,-6.7448786544693e-13,3.1606181511674e-13,-0.0013684341380349,0.0013684341659541,-0.0013684341666802,0.0013684341373624,-0.0013684341390386,0.0013684341680288,-0.0013684341679379,0.0013684341392119,-0.0013062997528582,0.0013062998401232,-0.0013062998399946,0.0013062997530821,-2.9115565833567e-12,-3.9295116031767e-12,-1.4930433885493e-12,-1.0971141015643e-12,-0.0013344730893161,0.0013344730850722,-0.0013684341535503,0.0013684341517603,-0.0013684341537919,0.0013684341519466,-0.001368434154291,0.0013684341514555,-0.0013684341537464,0.0013684341515119,-0.0013062997990163,0.0013062997930945,-0.0013062997939336,0.0013062997892767,-0.0013062997995241,0.0013062997883335,-0.0013062997992205,0.001306299787442,-4.3860450446287e-11,4.3623578182572e-11,-0.0013344730872496,0.0013344730870481,7.3389963869334e-14,-3.039090981386e-13,-0.0013684341679279,0.0013684341381282,-0.0013684341676982,0.0013684341375669,-0.0013684341381104,0.0013684341679102,-0.0013684341378799,0.0013684341674031,-0.0013062997479938,-0.0013062997479938,0.0013062997477291,0.0013062998350073,0.0036848263924965,0.0035586593699441,0.70679112580473,0.73248561102731,43648,1000,0.0055448280511928,0.0055448280511937,0.0055448280510063,24.305702490287,24.298625314242,0.00010964561992229,0.00010964561992229,0.00010964561992229,554593.80671965,0.016773918545116
16588800,0.99951279731821,0.01636449834698,0.0054548327823962,0.0054548327823968,0.0054548327821875,-0.0013362157340251,0.0013362157335437,4.343529472862e-11,-4.3942276123039e-11,-6.7922713243029e-13,1.8193297148437e-13,-0.0013696512264474,0.001369651254265,-0.0013696512549827,0.0013696512256377,-0.0013696512275171,0.0013696512561644,-0.0013696512564658,0.001369651227374,-0.001308065873118,0.001308065960079,-0.001308065960417,0.0013080658732204,-2.93447188331e-12,-3.8233513168888e-12,-1.3773008949913e-12,-1.2095189029689e-12,-0.0013362157358746,0.0013362157316733,-0.0013696512418138,0.0013696512401489,-0.0013696512422283,0.0013696512401995,-0.0013696512424568,0.0013696512399024,-0.001369651241937,0.0013696512398923,-0.0013080659189214,0.0013080659135267,-0.0013080659138008,0.001308065909271,-0.0013080659197969,0.0013080659086062,-0.0013080659194524,0.0013080659075892,-4.3755073665475e-11,4.370060785878e-11,-0.0013362157337663,0.0013362157337066,6.7002100190655e-14,-8.5354510125364e-14,-0.0013696512561433,0.0013696512263681,-0.0013696512559503,0.0013696512259701,-0.0013696512263732,0.0013696512562264,-0.0013696512261741,0.0013696512557463,-0.001308065868155,-0.001308065868155,0.0013080658678995,0.0013080659551671,0.0036902198335379,0.0035569160561718,0.72531970290506,0.90536956812686,43648,1000,0.0055520496232148,0.0055520496231718,0.0055520496230164,24.196886894283,24.189866000108,0.00010877509515426,0.00010877509515426,0.00010877509515426,518752.37432192,0.016795943800616
16675200,0.99952597325245,0.016364708006469,0.0054549026688925,0.0054549026688931,0.0054549026686838,-0.0013375394228975,0.001337539422556,4.3518042436029e-11,-4.3836834050105e-11,-6.0295187435177e-13,3.1635210036637e-13,-0.0013705374864109,0.0013705375143268,-0.0013705375150071,0.001370537485729,-0.0013705374874876,0.0013705375163398,-0.0013705375164383,0.0013705374874847,-0.0013093995481911,0.0013093996354569,-0.0013093996352837,0.0013093995483917,-2.9616556411002e-12,-3.907711916201e-12,-1.4206096307627e-12,-1.2799171052934e-12,-0.0013375394248683,0.0013375394205781,-0.0013705375019215,0.0013705375000765,-0.001370537502244,0.0013705375002782,-0.0013705375026295,0.0013705374999198,-0.0013705375021153,0.0013705374999024,-0.0013093995943027,0.0013093995885103,-0.0013093995893895,0.0013093995843938,-0.0013093995950917,0.0013093995839209,-0.001309399594609,0.0013093995827046,-4.3746681451264e-11,4.3685069098185e-11,-0.0013375394227142,0.0013375394226114,8.5402979232902e-15,-1.1513874729619e-13,-0.0013705375162261,0.0013705374864016,-0.0013705375159785,0.0013705374859559,-0.0013705374864774,0.0013705375162413,-0.0013705374861629,0.0013705375157584,-0.0013093995433471,-0.0013093995433471,0.0013093995433701,0.0013093996305111,0.0036938870177028,0.003555205659049,0.72979157444485,0.93026865924923,43648,1000,0.0055575352018418,0.0055575352018272,0.005557535201577,24.088118774442,24.081106685975,0.00010790495019554,0.00010790495019554,0.00010790495019554,494169.37193072,0.016812673834789
16761600,0.99953871029624,0.016364910951995,0.0054549703174011,0.0054549703174017,0.0054549703171924,-0.0013375383376412,0.0013375383373455,4.3531362029124e-11,-4.3834104780541e-11,-5.6356807749973e-13,3.3953968611919e-13,-0.0013704835520012,0.0013704835799584,-0.0013704835806126,0.0013704835513022,-0.0013704835530461,0.0013704835819923,-0.0013704835819956,0.0013704835530971,-0.0013094010033617,0.0013094010905877,-0.0013094010906736,0.0013094010037841,-2.9792803967936e-12,-3.909367395039e-12,-1.3686105134177e-12,-1.2661440848732e-12,-0.0013375383396163,0.0013375383353665,-0.0013704835674628,0.0013704835657402,-0.0013704835677975,0.0013704835658821,-0.0013704835682177,0.0013704835655365,-0.0013704835677266,0.0013704835655032,-0.0013094010493969,0.0013094010436891,-0.0013094010444845,0.001309401039622,-0.0013094010505173,0.0013094010391579,-0.0013094010498309,0.0013094010378043,-4.3771035501382e-11,4.3671852854873e-11,-0.0013375383374931,0.0013375383373986,-1.6364794184418e-15,-8.8515001809807e-14,-0.0013704835818695,0.0013704835520392,-0.0013704835815802,0.001370483551621,-0.0013704835520944,0.0013704835818707,-0.0013704835517511,0.0013704835814093,-0.0013094009986316,-0.0013094009986316,0.0013094009984425,0.0013094010855349,0.0036921240461314,0.0035535273307208,0.73049279028199,0.91509256745446,43648,1000,0.0055575307621635,0.0055575307621557,0.005557530761967,23.979356894777,23.972347371842,0.00010703485515822,0.00010703485515822,0.00010703485515822,489496.8310344,0.016812660030962
16848000,0.99955102519672,0.016365107277794,0.005455035759334,0.0054550357593346,0.0054550357591253,-0.0013371971293783,0.0013371971290008,4.3476984043275e-11,-4.3896681810032e-11,-5.9808308191357e-13,3.2433056251218e-13,-0.0013701880782397,0.0013701881059867,-0.0013701881068132,0.0013701880773295,-0.0013701880790612,0.0013701881080898,-0.0013701881079752,0.0013701880791091,-0.0013090619598082,0.0013090620464011,-0.0013090620467667,0.0013090619601172,-3.0904368245705e-12,-4.0358991766387e-12,-1.4397071355823e-12,-1.3720099389793e-12,-0.0013371971314013,0.0013371971270016,-0.0013701880936653,0.0013701880918835,-0.0013701880940016,0.0013701880920174,-0.0013701880944063,0.001370188091674,-0.0013701880938955,0.0013701880915256,-0.0013090620046701,0.0013090619998165,-0.0013090620004254,0.0013090619956954,-0.0013090620068598,0.0013090619950076,-0.0013090620060307,0.0013090619937536,-4.3753824674219e-11,4.3698002585428e-11,-0.0013371971292302,0.0013371971291213,-1.8623372245232e-14,-7.0063741953718e-14,-0.0013701881080577,0.0013701880782056,-0.0013701881076166,0.0013701880778234,-0.001370188078422,0.0013701881081225,-0.0013701880779562,0.0013701881075782,-0.0013090619545667,-0.0013090619545667,0.0013090619542675,0.0013090620411045,0.003688992945196,0.003551880479828,0.73085781816745,0.89991647565968,43648,1000,0.0055561168069569,0.005556116807006,0.0055561168068996,23.870595628047,23.863588057709,0.00010616476502438,0.00010616476502438,0.00010616476502438,489721.30484873,0.016808347398248
16934400,0.99956293399047,0.016365297134178,0.0054550990447955,0.0054550990447961,0.0054550990445868,-0.0013368589511538,0.001336858950804,4.3520622063105e-11,-4.3853525363726e-11,-6.4009138682398e-13,3.3433619802335e-13,-0.0013698941071442,0.0013698941350085,-0.0013698941357303,0.0013698941064501,-0.0013698941082389,0.0013698941370817,-0.0013698941372138,0.0013698941082218,-0.0013087254581845,0.0013087255452117,-0.0013087255453376,0.0013087254586504,-2.967986977094e-12,-3.9700713052821e-12,-1.3615850515701e-12,-1.3334722339268e-12,-0.0013368589531469,0.0013368589488308,-0.0013698941226601,0.0013698941208342,-0.001369894122983,0.0013698941210276,-0.001369894123394,0.0013698941206656,-0.0013698941228913,0.0013698941206002,-0.0013087255040766,0.0013087254986796,-0.0013087254995265,0.0013087254943106,-0.0013087255051517,0.001308725493883,-0.0013087255048673,0.0013087254930576,-4.3740427642313e-11,4.3711358206835e-11,-0.0013368589509514,0.0013368589508797,-6.7990128830588e-14,-8.0053760294927e-14,-0.0013698941369471,0.0013698941072033,-0.0013698941367102,0.0013698941067394,-0.0013698941072198,0.0013698941370244,-0.0013698941069227,0.0013698941365481,-0.0013087254534594,-0.0013087254534594,0.0013087254533046,0.001308725540341,0.0036859065366765,0.0035502645436938,0.73090369083885,0.88474038386491,43648,1000,0.0055547154153305,0.0055547154153718,0.005554715415068,23.76183446156,23.754828743576,0.00010529467569248,0.00010529467569248,0.00010529467569248,490056.14268151,0.01680407306943
17020800,0.99957445203835,0.016365478794215,0.005455159598141,0.0054551595981416,0.0054551595979323,-0.0013365232922449,0.0013365232919482,4.3539775477981e-11,-4.386322924375e-11,-6.4917546225289e-13,4.0683463030484e-13,-0.0013696016139576,0.0013696016418574,-0.0013696016425444,0.0013696016132391,-0.0013696016149846,0.0013696016439689,-0.0013696016438932,0.0013696016150785,-0.001308390767942,0.0013083908552032,-0.0013083908551285,0.0013083907682118,-2.8844675873775e-12,-3.9670366921051e-12,-1.3648447461063e-12,-1.3209268524737e-12,-0.0013365232942416,0.0013365232899472,-0.001369601629421,0.0013696016276719,-0.0013696016298122,0.0013696016278173,-0.0013696016301948,0.0013696016274542,-0.0013696016297414,0.0013696016273807,-0.001308390814002,0.0013083908082177,-0.0013083908091993,0.0013083908040722,-0.0013083908147562,0.0013083908037103,-0.0013083908143341,0.0013083908023803,-4.3772020824222e-11,4.3707801580193e-11,-0.00133652329208,0.0013365232920061,-3.1810792907995e-14,-6.1487151021508e-14,-0.0013696016437953,0.001369601613968,-0.0013696016434911,0.0013696016135738,-0.0013696016140232,0.0013696016438132,-0.0013696016136723,0.0013696016433631,-0.0013083907630714,-0.0013083907630714,0.001308390762983,0.0013083908502395,0.0036828622082069,0.0035486784562352,0.72315717073415,0.8168373588107,43648,1000,0.005553324470095,0.0055533244700861,0.0055533244698734,23.653075908046,23.646069429442,0.00010442460726437,0.00010442460726437,0.00010442460726437,490500.25812682,0.016799830590891
17107200,0.99958559405177,0.016365653620157,0.0054552178734549,0.0054552178734555,0.0054552178732462,-0.0013357602196672,0.0013357602192094,4.3464926999845e-11,-4.3944557347467e-11,-7.7006135750706e-13,3.1942141836552e-13,-0.0013689941565502,0.001368994184408,-0.0013689941852935,0.0013689941557593,-0.0013689941576807,0.0013689941865456,-0.001368994186686,0.0013689941576865,-0.0013076288280414,0.0013076289151292,-0.0013076289151285,0.0013076288280989,-2.9323922997811e-12,-4.0484332643192e-12,-1.4479261786138e-12,-1.3849107213399e-12,-0.0013357602216355,0.0013357602172261,-0.0013689941720942,0.0013689941701929,-0.0013689941724475,0.0013689941704637,-0.0013689941728699,0.0013689941700206,-0.0013689941724048,0.001368994169931,-0.0013076288740864,0.0013076288682281,-0.0013076288693797,0.001307628864111,-0.0013076288749936,0.0013076288635663,-0.0013076288745261,0.001307628862394,-4.3777765354613e-11,4.3709458470753e-11,-0.0013357602194296,0.0013357602193049,-6.4719699328199e-14,-1.1453882444695e-13,-0.0013689941864621,0.0013689941565576,-0.0013689941861009,0.0013689941560875,-0.0013689941566587,0.0013689941864809,-0.0013689941562865,0.0013689941859413,-0.0013076288231475,-0.0013076288231475,0.0013076288230903,0.0013076289103476,0.0036780805905958,0.0035471219992249,0.71948049197736,0.78518100685759,43648,1000,0.0055501623071731,0.005550162307142,0.0055501623068789,23.544315634687,23.537310115309,0.0001035545250775,0.0001035545250775,0.0001035545250775,498213.46194092,0.016790186000614
17193600,0.99959618095296,0.016365818134837,0.0054552727116817,0.0054552727116823,0.005455272711473,-0.0013347118160309,0.0013347118157224,4.345688371615e-11,-4.3926059500799e-11,-6.1442805317415e-13,4.9306481956116e-13,-0.0013680299485322,0.0013680299765299,-0.0013680299771785,0.0013680299479017,-0.0013680299498307,0.00136802997912,-0.0013680299785552,0.0013680299499294,-0.0013065729319587,0.0013065730186699,-0.0013065730174129,0.0013065729289408,-2.7829135133142e-12,-3.9152377451156e-12,-1.3251034307645e-12,-1.6822449026906e-12,-0.0013347118181743,0.0013347118137612,-0.0013680299647221,0.001368029962506,-0.0013680299646207,0.0013680299626311,-0.0013680299650899,0.0013680299623107,-0.0013680299647891,0.0013680299621051,-0.0013065729774994,0.0013065729715903,-0.0013065729731042,0.0013065729667996,-0.00130657297628,0.0013065729672484,-0.001306572975909,0.0013065729658988,-4.3697230932531e-11,4.3757986488255e-11,-0.0013347118159039,0.0013347118157748,-2.3958485731765e-13,1.2594356427527e-13,-0.0013680299784512,0.0013680299483967,-0.0013680299790006,0.0013680299486535,-0.0013680299487857,0.0013680299783939,-0.0013680299479639,0.001368029977931,-0.0013065729241841,-0.0013065729241841,0.0013065729258287,0.0013065730139631,0.0036721184672604,0.0035455934700933,0.71266218808271,0.73653500939556,43648,1000,0.0055458179657084,0.0055458179660858,0.0055458179655539,23.133510497792,23.107758060958,0.00010026808398234,0.00010026808398234,0.00010026808398234,501647.75845823,0.016776934947931
17280000,0.99960623149301,0.016365972348705,0.0054553241163043,0.0054553241163049,0.0054553241160956,-0.0013334740631248,0.0013334740625363,4.3369414505922e-11,-4.4060776208825e-11,-7.9171404897338e-13,3.7341076902791e-13,-0.0013669056538893,0.0013669056811553,-0.0013669056828176,0.001366905652735,-0.0013669056548175,0.0013669056838381,-0.0013669056841342,0.0013669056548013,-0.0013053313811939,0.0013053314678125,-0.0013053314675877,0.0013053313801725,-2.996874624008e-12,-4.1892977845342e-12,-1.4205544853885e-12,-1.7002595288267e-12,-0.001333474065216,0.001333474060482,-0.0013669056695669,0.0013669056671026,-0.0013669056702105,0.0013669056680752,-0.0013669056701949,0.0013669056671773,-0.0013669056700081,0.0013669056666039,-0.0013053314269027,0.0013053314209751,-0.0013053314225799,0.0013053314165575,-0.0013053314275416,0.0013053314161653,-0.0013053314267587,0.0013053314147369,-4.3786111276121e-11,4.3717211733896e-11,-0.0013334740628523,0.0013334740626293,-2.4404180939612e-13,4.0250329203601e-14,-0.0013669056835606,0.0013669056533817,-0.0013669056835248,0.0013669056531219,-0.0013669056538797,0.001366905683503,-0.0013669056533768,0.001366905682996,-0.0013053313756375,-0.0013053313756375,0.0013053313756438,0.0013053314633221,0.0036653952817281,0.0035440923035453,0.70377705325053,0.67931440928827,43648,1000,0.0055406889894893,0.0055406889895658,0.0055406889891174,22.698573037792,22.670708915564,9.6788584302333e-05,9.6788584302333e-05,9.6788584302333e-05,507627.25681252,0.016761290770259
17366400,0.99961577726533,0.016366116808478,0.0054553722695619,0.0054553722695625,0.0054553722693532,-0.0013321534940846,0.0013321534936563,4.3549400301597e-11,-4.3929799151261e-11,-7.4774974499386e-13,4.1302444121036e-13,-0.0013657168460015,0.0013657168731145,-0.0013657168747703,0.0013657168448587,-0.0013657168462579,0.0013657168756512,-0.0013657168756903,0.0013657168465985,-0.0013040057187285,0.0013040058063321,-0.0013040058059388,0.001304005718979,-2.94226476289e-12,-4.1212283345974e-12,-1.2795041179098e-12,-1.7076058044031e-12,-0.0013321534961614,0.0013321534916858,-0.0013657168614291,0.0013657168595418,-0.001365716861752,0.0013657168597785,-0.0013657168622128,0.001365716859291,-0.0013657168616317,0.0013657168591791,-0.0013040057649952,0.0013040057590042,-0.0013040057604694,0.0013040057545248,-0.0013040057658557,0.0013040057544977,-0.0013040057652601,0.0013040057528433,-4.3812266477098e-11,4.374072869194e-11,-0.0013321534938869,0.0013321534937237,-2.537593948835e-13,1.8363497831276e-13,-0.0013657168758995,0.0013657168456181,-0.0013657168753832,0.0013657168450814,-0.0013657168458075,0.0013657168752108,-0.0013657168455624,0.0013657168749705,-0.0013040057136287,-0.0013040057136287,0.0013040057141069,0.0013040058011912,0.0036583561115451,0.003542618107653,0.69424690358922,0.6219189719407,43648,1000,0.0055352168192819,0.0055352168195019,0.0055352168190119,22.261692275917,22.233659770169,9.3293538207332e-05,9.3293538207332e-05,9.3293538207332e-05,515329.91583666,0.01674460004123
17452800,0.99962484866333,0.016366252131428,0.0054554173772121,0.0054554173772127,0.0054554173770034,-0.0013308194624893,0.0013308194621407,4.360135489089e-11,-4.3926242965783e-11,-7.9107695078923e-13,4.669712637602e-13,-0.0013645170655355,0.0013645170935589,-0.0013645170943077,0.0013645170646866,-0.0013645170662984,0.0013645170952241,-0.0013645170952564,0.0013645170662878,-0.0013026647417917,0.0013026648289122,-0.0013026648296179,0.0013026647426856,-2.7011774220604e-12,-3.9851893728473e-12,-1.1185788870064e-12,-1.5304796860726e-12,-0.0013308194644791,0.0013308194603148,-0.0013645170809105,0.0013645170792975,-0.0013645170809799,0.0013645170793312,-0.001364517081528,0.0013645170788687,-0.0013645170811774,0.0013645170789469,-0.0013026647883712,0.0013026647826893,-0.0013026647839186,0.0013026647781264,-0.001302664789186,0.0013026647782229,-0.0013026647890547,0.001302664777323,-4.380352639116e-11,4.3800690566028e-11,-0.001330819462219,0.0013308194623091,-1.8486697008802e-13,2.3520743222146e-13,-0.0013645170949163,0.0013645170653182,-0.0013645170944989,0.001364517065005,-0.0013645170654945,0.0013645170952748,-0.0013645170649591,0.0013645170945653,-0.0013026647378924,-0.0013026647378924,0.0013026647375496,0.0013026648249375,0.0036512885116302,0.0035411705207577,0.68449066351057,0.56601547915426,43648,1000,0.0055296888505966,0.0055296888509364,0.0055296888503857,21.824625810688,21.796610624775,8.9797006485507e-05,8.9797006485507e-05,8.9797006485507e-05,523587.71672721,0.016727739331846
17539200,0.99963347401201,0.016366379029186,0.0054554596764647,0.0054554596764653,0.005455459676256,-0.0013294846371622,0.0013294846369457,4.3652801613346e-11,-4.3922082034073e-11,-5.5775960788566e-13,6.1158937518793e-13,-0.0013633158179019,0.0013633158460343,-0.0013633158466063,0.0013633158172232,-0.0013633158188281,0.0013633158480026,-0.001363315848361,0.0013633158183852,-0.0013013214775743,0.0013013215653603,-0.0013013215658587,0.0013013214796285,-2.7253118024187e-12,-3.9164342379753e-12,-1.1590086519048e-12,-1.5175441694791e-12,-0.0013294846390984,0.0013294846348634,-0.0013633158328414,0.0013633158320772,-0.0013633158341059,0.0013633158317906,-0.0013633158339595,0.0013633158313735,-0.0013633158337887,0.0013633158311898,-0.0013013215234897,0.0013013215186677,-0.0013013215202429,0.0013013215127584,-0.0013013215250083,0.0013013215145617,-0.0013013215241533,0.00130132151292,-4.4065984314427e-11,4.3581516908692e-11,-0.0013294846370432,0.0013294846368915,-2.6879349442561e-13,9.4452291017932e-14,-0.0013633158472777,0.0013633158178198,-0.0013633158473865,0.0013633158176115,-0.0013633158178673,0.0013633158477852,-0.0013633158177289,0.0013633158475118,-0.0013013214740167,-0.0013013214740167,0.0013013214733996,0.0013013215603283,0.0036442448296246,0.0035397492168469,0.67521788422244,0.51484623117263,43648,1000,0.0055241575799641,0.0055241575796616,0.0055241575796055,21.387540591736,21.359561479381,8.6300324733887e-05,8.6300324733887e-05,8.6300324733887e-05,532119.93005057,0.016710868763714
17625600,0.99964167964842,0.016366498539332,0.00545549951318,0.0054554995131806,0.0054554995129712,-0.0013281782116695,0.0013281782114217,4.3655206481055e-11,-4.3917071540081e-11,-6.9583544858704e-13,5.0305851426064e-13,-0.0013621389073566,0.0013621389353221,-0.0013621389360162,0.0013621389066338,-0.001362138908335,0.0013621389374747,-0.0013621389373245,0.0013621389085277,-0.0013000034587853,0.0013000035463378,-0.0013000035461338,0.0013000034592506,-2.8257315581935e-12,-4.0511643573568e-12,-1.2135873080937e-12,-1.5434234082979e-12,-0.0013281782137172,0.0013281782093741,-0.0013621389228206,0.0013621389211892,-0.0013621389233256,0.001362138921211,-0.0013621389236273,0.0013621389209167,-0.0013621389233021,0.0013621389207191,-0.0013000035049361,0.0013000034993691,-0.0013000035004851,0.0013000034947286,-0.001300003505739,0.0013000034947031,-0.0013000035054333,0.0013000034932972,-4.3798580983416e-11,4.3850665539327e-11,-0.0013281782114655,0.0013281782115178,-1.4208280652661e-13,1.972247102146e-13,-0.0013621389372471,0.0013621389073508,-0.0013621389368198,0.0013621389070733,-0.0013621389074145,0.0013621389372722,-0.0013621389069411,0.00136213893694,-0.0013000034539228,-0.0013000034539228,0.001300003454106,0.0013000035414385,0.0036373462682341,0.0035383539710762,0.66857640981336,0.47920502092113,43648,1000,0.0055187439865515,0.0055187439865516,0.0055187439863277,20.950452900698,20.922512333987,8.2803623205581e-05,8.2803623205581e-05,8.2803623205581e-05,540339.77617525,0.016694357315366
17712000,0.9996494903856,0.016366611120711,0.0054555370403065,0.0054555370403071,0.0054555370400978,-0.0013270059196295,0.0013270059193861,4.3654134807912e-11,-4.3917810164575e-11,-7.1573872290861e-13,5.0721138739322e-13,-0.0013610563322259,0.0013610563602005,-0.0013610563608904,0.0013610563315212,-0.001361056333202,0.0013610563623644,-0.0013610563621804,0.0013610563334219,-0.0012988237692129,0.0012988238567623,-0.0012988238564888,0.0012988237695554,-2.8314550304042e-12,-4.0811297360527e-12,-1.223708351844e-12,-1.5298870571182e-12,-0.0013270059216831,0.0013270059173305,-0.00136105634769,0.0013610563460582,-0.0013610563481926,0.0013610563460965,-0.0013610563485037,0.0013610563457753,-0.0013610563481758,0.0013610563455874,-0.0012988238153458,0.0012988238097464,-0.0012988238108135,0.001298823805187,-0.0012988238161368,0.0012988238050678,-0.0012988238159077,0.001298823803619,-4.378394978333e-11,4.3864783519797e-11,-0.0013270059194255,0.0013270059194842,-1.2674309867357e-13,1.8896990356975e-13,-0.0013610563621361,0.0013610563322453,-0.0013610563617149,0.0013610563319607,-0.001361056332303,0.001361056362156,-0.0013610563318367,0.0013610563618135,-0.0012988237642578,-0.0012988237642578,0.0012988237644844,0.0012988238518832,0.0036310321445458,0.003536984402857,0.66179562980234,0.44356381066962,43648,1000,0.0055138862210238,0.0055138862210199,0.0055138862208045,20.514017175652,20.486155701445,7.9312137405216e-05,7.9312137405216e-05,7.9312137405216e-05,546006.43441251,0.016679541229384
17798400,0.99965693630446,0.016366717305416,0.0054555724352081,0.0054555724352087,0.0054555724349994,-0.0013258565877544,0.0013258565875177,4.365678343288e-11,-4.391473043513e-11,-7.2448404398035e-13,5.2112102128698e-13,-0.0013599982627145,0.0013599982906902,-0.001359998291379,0.0013599982620115,-0.001359998263684,0.0013599982928614,-0.0013599982926623,0.0013599982639202,-0.0012976665778294,0.0012976666653891,-0.0012976666650962,0.001297666578171,-2.8254235087807e-12,-4.0979512809895e-12,-1.2367650117955e-12,-1.5206482511221e-12,-0.0013258565898147,0.0013258565854553,-0.0013599982781815,0.0013599982765439,-0.0013599982786779,0.00135999827659,-0.0013599982790013,0.0013599982762533,-0.0013599982786672,0.0013599982760728,-0.0012976666239802,0.0012976666183469,-0.0012976666194176,0.0012976666138163,-0.0012976666247464,0.0012976666136919,-0.0012976666245462,0.0012976666122176,-4.3785366710632e-11,4.3863055160832e-11,-0.0013258565875567,0.0013258565876096,-1.1861628811853e-13,1.7522817631126e-13,-0.0013599982926274,0.0013599982627364,-0.0013599982922128,0.0013599982624447,-0.0013599982627943,0.0013599982926463,-0.0013599982623347,0.0013599982922963,-0.0012976665728776,-0.0012976665728776,0.001297666573095,0.0012976666605008,0.0036248412201933,0.0035356401653458,0.65488899562625,0.40792260041811,43648,1000,0.0055091235796855,0.005509123579681,0.0055091235794662,20.093551460598,20.066711778894,7.5948411684783e-05,7.5948411684783e-05,7.5948411684783e-05,551900.83230441,0.016665015465606
17884800,0.99966403468019,0.016366817424387,0.0054556058081983,0.0054556058081989,0.0054556058079896,-0.0013246852492792,0.00132468524907,4.3676717118038e-11,-4.3893680137025e-11,-7.3564470302988e-13,5.4828613258795e-13,-0.0013589172277854,0.0013589172557772,-0.0013589172564509,0.0013589172270858,-0.0013589172287424,0.00135891725796,-0.0013589172577318,0.0013589172290235,-0.0012964887440434,0.0012964888316411,-0.0012964888312772,0.0012964887444482,-2.8172304061332e-12,-4.1031232406368e-12,-1.2446942695621e-12,-1.5058973194e-12,-0.0013246852513484,0.0013246852469904,-0.001358917243248,0.0013589172416079,-0.0013589172437604,0.0013589172416533,-0.0013589172440831,0.0013589172413129,-0.0013589172437486,0.0013589172411397,-0.0012964887902385,0.001296488784613,-0.0012964887856489,0.0012964887800815,-0.0012964887910009,0.0012964887799618,-0.0012964887908266,0.0012964887785513,-4.379053802324e-11,4.3859210278291e-11,-0.0013246852490991,0.001324685249136,-1.112876884728e-13,1.494358171913e-13,-0.001358917257697,0.0013589172277954,-0.0013589172572857,0.001358917227505,-0.0013589172278573,0.0013589172577028,-0.0013589172274097,0.0013589172573348,-0.0012964887391839,-0.0012964887391839,0.0012964887393966,0.0012964888267724,0.0036185830473999,0.0035343208523911,0.6478688467141,0.37228139016661,43648,1000,0.0055042697405726,0.0055042697405513,0.0055042697403365,19.665880291485,19.647267856343,7.2527042331883e-05,7.2527042331883e-05,7.2527042331883e-05,557950.78403248,0.016650211692564
17971200,0.99967080816584,0.016366913264056,0.0054556377547546,0.0054556377547552,0.0054556377545459,-0.0013235233207972,0.0013235233205793,4.3670240492365e-11,-4.390112143911e-11,-7.3317960186644e-13,5.4280424123244e-13,-0.0013578327064491,0.0013578327344303,-0.0013578327351117,0.00135783270575,-0.0013578327074103,0.0013578327366155,-0.0013578327363894,0.0013578327076771,-0.0012953300699434,0.0012953301575318,-0.0012953301571971,0.0012953300703236,-2.8121729135773e-12,-4.1152174005803e-12,-1.2533705339199e-12,-1.5030060253741e-12,-0.0013235233228675,0.001323523318504,-0.0013578327219122,0.0013578327202704,-0.0013578327224051,0.0013578327203222,-0.0013578327227471,0.0013578327199725,-0.0013578327224047,0.0013578327197996,-0.0012953301161382,0.0012953301104722,-0.0012953301115548,0.0012953301059602,-0.0012953301168761,0.0012953301058531,-0.0012953301167138,0.0012953301043719,-4.3787818753371e-11,4.3860112809543e-11,-0.0013235233206109,0.0013235233206561,-1.0617963863787e-13,1.536494531735e-13,-0.0013578327363512,0.0013578327064609,-0.001357832735949,0.0013578327061636,-0.0013578327065167,0.0013578327363715,-0.0013578327060684,0.0013578327360091,-0.0012953300650456,-0.0012953300650456,0.0012953300652601,0.0012953301526384,0.0036123926838935,0.0035330264878802,0.64999170975917,0.38445515783112,43648,1000,0.0054994548471495,0.005499454847139,0.0054994548469227,19.245918161795,19.227823933789,6.916734529436e-05,6.916734529436e-05,6.916734529436e-05,564261.60921464,0.016635526969274
18057600,0.99967727474918,0.016367006022912,0.0054556686743733,0.0054556686743739,0.0054556686741646,-0.0013228312760131,0.0013228312757861,4.3661440467082e-11,-4.3909486712969e-11,-7.3858008394424e-13,5.4370197851306e-13,-0.0013571296440991,0.0013571296720726,-0.0013571296727681,0.0013571296433959,-0.0013571296450601,0.0013571296742589,-0.0013571296740453,0.0013571296453159,-0.0012946275805438,0.0012946276681337,-0.0012946276678147,0.0012946275809164,-2.8088799553513e-12,-4.1183420110079e-12,-1.2594456424472e-12,-1.5002967846101e-12,-0.001322831278081,0.0013228312737168,-0.0013571296595784,0.0013571296579349,-0.0013571296600589,0.0013571296579908,-0.001357129660412,0.0013571296576307,-0.00135712966007,0.0013571296574696,-0.0012946276267452,0.0012946276210518,-0.0012946276221435,0.0012946276165729,-0.0012946276274624,0.0012946276164369,-0.001294627627287,0.0012946276149342,-4.3788135773098e-11,4.3859929521025e-11,-0.0013228312758262,0.0013228312758701,-1.0298838318735e-13,1.4872792705215e-13,-0.00135712967402,0.0013571296441376,-0.001357129673618,0.0013571296438299,-0.0013571296441836,0.0013571296740439,-0.0013571296437383,0.0013571296736739,-0.0012946275756253,-0.0012946275756253,0.0012946275758306,0.0012946276632221,0.0036081830383572,0.0035317569310141,0.65897767690503,0.43343334366343,43648,1000,0.0054965871815566,0.0054965871815538,0.0054965871813434,18.826439381482,18.808380011241,6.5811515051854e-05,6.5811515051854e-05,6.5811515051854e-05,560946.66114616,0.016626780762323
18144000,0.99968345106109,0.016367095457727,0.0054556984859783,0.005455698485979,0.0054556984857696,-0.0013225029105546,0.0013225029103368,4.3665871743474e-11,-4.3905086729738e-11,-7.3928470947724e-13,5.5601830814e-13,-0.001356676000865,0.0013566760288428,-0.0013566760295297,0.0013566760001643,-0.0013566760018193,0.0013566760310308,-0.0013566760307974,0.0013566760020902,-0.0012943099076747,0.0012943099952689,-0.0012943099949389,0.0012943099080508,-2.810681723838e-12,-4.132719630605e-12,-1.2747527336496e-12,-1.4986697166689e-12,-0.0013225029126333,0.0013225029082562,-0.0013566760163441,0.0013566760146859,-0.0013566760168218,0.0013566760147525,-0.0013566760171803,0.0013566760143787,-0.0013566760168271,0.0013566760142186,-0.0012943099538871,0.0012943099481642,-0.0012943099492667,0.0012943099436934,-0.0012943099545864,0.0012943099435771,-0.0012943099544331,0.0012943099420536,-4.3795590398305e-11,4.3852204257026e-11,-0.0013225029103771,0.0013225029104087,-9.9999356852996e-14,1.3443683422347e-13,-0.0013566760307809,0.0013566760008881,-0.0013566760303851,0.0013566760005764,-0.0013566760009475,0.0013566760307977,-0.0013566760005073,0.0013566760304277,-0.0012943099027611,-0.0012943099027611,0.0012943099029396,0.0012943099903437,0.0036055116564415,0.0035305116394956,0.66514213662412,0.46764876411549,43648,1000,0.0054952266040546,0.0054952266040506,0.0054952266038358,18.406992836288,18.38893608869,6.2455942690305e-05,6.2455942690305e-05,6.2455942690305e-05,550193.98727808,0.016622630649277
18230400,0.9996893526523,0.016367181201079,0.0054557270670956,0.0054557270670962,0.0054557270668869,-0.0013220212673393,0.0013220212671271,4.3668482546069e-11,-4.3902268462893e-11,-7.4468472098118e-13,5.670253836461e-13,-0.001356109910359,0.0013561099383372,-0.0013561099390232,0.0013561099096589,-0.0013561099113074,0.0013561099405304,-0.0013561099402856,0.0013561099115898,-0.0012938348145032,0.0012938349021089,-0.0012938349017684,0.0012938348148902,-2.8059076932107e-12,-4.1444229201364e-12,-1.2902597893315e-12,-1.490752399714e-12,-0.001322021269424,0.0013220212650401,-0.001356109925842,0.0013561099241747,-0.0013561099263118,0.0013561099242488,-0.0013561099266827,0.0013561099238615,-0.0013561099263221,0.0013561099237093,-0.0012938348607392,0.0012938348549792,-0.0012938348560964,0.0012938348505328,-0.0012938348614132,0.0012938348504222,-0.0012938348612769,0.0012938348488817,-4.3800342517837e-11,4.3847305259628e-11,-0.0013220212671693,0.0013220212671913,-9.3578641236745e-14,1.1782619460828e-13,-0.0013561099402752,0.001356109910381,-0.0013561099398874,0.0013561099100617,-0.0013561099104421,0.0013561099402905,-0.0013561099100098,0.0013561099399129,-0.0012938348096038,-0.0012938348096038,0.0012938348097639,0.0012938348971695,0.0036022274695281,0.003529290043594,0.66722502869619,0.47962916559167,43648,1000,0.0054932308339802,0.0054932308339756,0.0054932308337612,17.98754854326,17.969492166139,5.9100388346078e-05,5.9100388346078e-05,5.9100388346078e-05,542679.37481327,0.016616543464822
18316800,0.99969500502905,0.0163672635923,0.0054557545308361,0.0054557545308367,0.0054557545306274,-0.0013213852453998,0.0013213852451918,4.3670398958112e-11,-4.3900106881869e-11,-7.4823778890798e-13,5.7493273031739e-13,-0.0013554450047605,0.0013554450327389,-0.0013554450334245,0.0013554450040607,-0.0013554450057052,0.0013554450349358,-0.0013554450346833,0.0013554450059954,-0.0012932010800521,0.0012932011676655,-0.0012932011673171,0.001293201080447,-2.802463445489e-12,-4.1524320872266e-12,-1.3015313273467e-12,-1.4839130792387e-12,-0.0013213852474888,0.0013213852431006,-0.0013554450202468,0.001355445018573,-0.0013554450207109,0.0013554450186533,-0.0013554450210911,0.001355445018256,-0.0013554450207248,0.0013554450181099,-0.0012932011263045,0.0012932011205186,-0.0012932011216444,0.0012932011160904,-0.0012932011269596,0.0012932011159816,-0.0012932011268344,0.0012932011144294,-4.3803569595723e-11,4.3843848747575e-11,-0.0013213852452353,0.0013213852452505,-8.8191658746539e-14,1.0535913429195e-13,-0.0013554450346772,0.0013554450047823,-0.0013554450342953,0.0013554450044571,-0.0013554450048442,0.0013554450346918,-0.0013554450044178,0.0013554450343083,-0.0012932010751628,-0.0012932010751628,0.0012932010753101,0.0012932011627156,0.0035983276394824,0.0035280917884313,0.66930644607587,0.49160956706785,43648,1000,0.0054905952881302,0.0054905952881257,0.0054905952879112,17.599005695292,17.582248092657,5.5992045562338e-05,5.5992045562338e-05,5.5992045562338e-05,539475.8930943,0.01660850533801
18403200,0.99970051509017,0.016367344158861,0.0054557813863563,0.0054557813863569,0.0054557813861476,-0.0013212792108505,0.0013212792106459,4.3672105964788e-11,-4.3898382816891e-11,-7.5121552146971e-13,5.8156876288526e-13,-0.0013553061558822,0.0013553061838608,-0.0013553061845461,0.0013553061551826,-0.0013553061568238,0.0013553061860609,-0.0013553061858018,0.0013553061571205,-0.0012931001738751,0.001293100261495,-0.0012931002611401,0.0012931001742766,-2.7996005917707e-12,-4.1591659991572e-12,-1.3117474564274e-12,-1.4773445740197e-12,-0.001321279212943,0.0013212792085512,-0.0013553061713716,0.0013553061696918,-0.0013553061718303,0.0013553061697778,-0.0013553061722188,0.0013553061693716,-0.0013553061718472,0.0013553061692312,-0.0012931002201424,0.0012931002143333,-0.0012931002154661,0.0012931002099217,-0.0012931002207804,0.0012931002098137,-0.0012931002206645,0.0012931002082518,-4.3806650178084e-11,4.3840716813842e-11,-0.0013212792106908,0.0013212792106998,-8.3190017425601e-14,9.3810104753929e-14,-0.0013553061857993,0.0013553061559038,-0.001355306185423,0.0013553061555731,-0.0013553061559663,0.0013553061858133,-0.0013553061555454,0.0013553061854242,-0.001293100168995,-0.001293100168995,0.0012931001691306,0.0012931002565361,0.0035966711443323,0.0035269169243233,0.67138477895054,0.50358996854403,43648,1000,0.0054901559438833,0.0054901559438788,0.0054901559436643,17.485200463587,17.48001874196,5.5081603708699e-05,5.5081603708699e-05,5.5081603708699e-05,536174.63143694,0.0166071651994
18489600,0.99970589075927,0.016367423009431,0.0054558076698797,0.0054558076698803,0.005455807669671,-0.0013211929466836,0.0013211929464818,4.3673462629225e-11,-4.3896981742046e-11,-7.5360191915513e-13,5.8684807219422e-13,-0.0013551914629877,0.0013551914909665,-0.0013551914916516,0.0013551914622884,-0.0013551914639268,0.001355191493169,-0.0013551914929048,0.0013551914642287,-0.0012930159438126,0.0012930160314379,-0.0012930160310775,0.0012930159442193,-2.7973524251565e-12,-4.1645722457648e-12,-1.3208371199209e-12,-1.4713183463521e-12,-0.001321192948779,0.0013211929443842,-0.0013551914784798,0.0013551914767948,-0.0013551914789337,0.0013551914768858,-0.0013551914793294,0.001355191476472,-0.0013551914789531,0.0013551914763367,-0.0012930159900926,0.001293015984263,-0.0012930159854017,0.0012930159798666,-0.0012930159907158,0.0012930159797585,-0.0012930159906074,0.0012930159781889,-4.3809353477853e-11,4.3837987220758e-11,-0.0013211929465281,0.0013211929465316,-7.8645626841849e-14,8.3459479781946e-14,-0.0013551914929053,0.0013551914630092,-0.0013551914925338,0.0013551914626735,-0.0013551914630723,0.0013551914929187,-0.0013551914626562,0.0013551914925247,-0.0012930159389403,-0.0012930159389403,0.0012930159390655,0.001293016026471,0.0035951235953929,0.0035257650356799,0.67345955178175,0.51557037002021,43648,1000,0.0054897985084419,0.0054897985084373,0.0054897985082229,17.382242326751,17.377789391262,5.4257938614005e-05,5.4257938614005e-05,5.4257938614005e-05,533038.40336546,0.01660607494814
18576000,0.99971113613174,0.016367498432644,0.0054558328109507,0.0054558328109513,0.005455832810742,-0.0013211070818616,0.0013211070816427,4.3631415972545e-11,-4.3916684728368e-11,-7.309447289638e-13,6.1810723489532e-13,-0.0013550784112087,0.0013550784392012,-0.0013550784398986,0.0013550784105259,-0.0013550784121846,0.0013550784414323,-0.0013550784412099,0.0013550784124767,-0.001292931333449,0.0012929314210724,-0.0012929314205907,0.0012929313336414,-2.8037889344079e-12,-4.1775692016579e-12,-1.3645584313237e-12,-1.5070253437632e-12,-0.0013211070839598,0.0013211070795246,-0.0013550784267633,0.0013550784250643,-0.0013550784271811,0.0013550784250866,-0.0013550784275741,0.0013550784246955,-0.0013550784271923,0.0013550784245409,-0.0012929313797628,0.0012929313736635,-0.0012929313750245,0.0012929313694659,-0.0012929313803301,0.0012929313693195,-0.0012929313800007,0.0012929313677086,-4.3878064172906e-11,4.3747222934722e-11,-0.0013211070817361,0.0013211070816424,-8.6950373137551e-14,6.6929514172814e-14,-0.001355078441209,0.001355078411181,-0.0013550784408023,0.0013550784108275,-0.0013550784113397,0.001355078441129,-0.0013550784109268,0.0013550784407443,-0.0012929313287085,-0.0012929313287085,0.0012929313287677,0.0012929314162695,0.0035936011426086,0.0035246351944306,0.66023622250376,0.44491818485886,43648,1000,0.0054894427270618,0.0054894427270204,0.0054894427268011,17.279964345934,17.275560040565,5.3439714767475e-05,5.3439714767475e-05,5.3439714767475e-05,529952.54117047,0.016604989750488
18662400,0.99971625495181,0.016367574014625,0.0054558580049445,0.0054558580049451,0.0054558580047357,-0.001320255085722,0.0013202550855218,4.3661773280444e-11,-4.388037107302e-11,-7.5745927190389e-13,5.890405934495e-13,-0.0013544000955501,0.0013544001235226,-0.001354400124204,0.0013544000948531,-0.0013544000964886,0.0013544001257223,-0.0013544001254578,0.001354400096791,-0.0012920655678918,0.0012920656554961,-0.0012920656551234,0.0012920655683089,-2.7963987484084e-12,-4.1698016742446e-12,-1.3496667980175e-12,-1.4497960920775e-12,-0.0013202550878194,0.0013202550834215,-0.0013544001110422,0.0013544001093395,-0.0013544001114789,0.00135440010945,-0.0013544001118929,0.0013544001090184,-0.0013544001114994,0.0013544001089024,-0.0012920656141755,0.0012920656082976,-0.0012920656094427,0.0012920656039404,-0.0012920656147579,0.0012920656038329,-0.0012920656146764,0.0012920656022601,-4.380473238373e-11,4.3814163242682e-11,-0.0013202550855773,0.0013202550855614,-6.4598085396362e-14,4.7797039833242e-14,-0.0013544001254635,0.0013544000955779,-0.001354400125109,0.0013544000952211,-0.0013544000956379,0.0013544001254753,-0.0013544000952408,0.0013544001250624,-0.001292065563024,-0.001292065563024,0.0012920655631227,0.0012920656504858,0.0035889167170758,0.0035235279788811,0.67781602709299,0.54534554436908,43648,1000,0.0054859120086514,0.0054859120086454,0.0054859120084338,17.177731563364,17.173330689867,5.2621852506913e-05,5.2621852506913e-05,5.2621852506913e-05,542217.77635999,0.016594222512941
18748800,0.99972125082784,0.016367649543511,0.0054558831812397,0.0054558831812403,0.005455883181031,-0.001320989338758,0.0013209893385551,4.3669668745125e-11,-4.3879734327766e-11,-7.5395984939708e-13,5.7270203375775e-13,-0.001354888265951,0.0013548882939268,-0.0013548882946102,0.001354888265256,-0.0013548882668955,0.0013548882961242,-0.0013548882958666,0.0013548882671935,-0.0012928180834189,0.0012928181710471,-0.0012928181706326,0.0012928180838369,-2.8040512793347e-12,-4.1576945146983e-12,-1.3111603567158e-12,-1.4652474729896e-12,-0.0013209893408495,0.0013209893364614,-0.0013548882814375,0.0013548882797604,-0.0013548882818981,0.0013548882798471,-0.0013548882822847,0.0013548882794395,-0.001354888281913,0.0013548882793026,-0.0012928181296921,0.0012928181238799,-0.0012928181249828,0.0012928181194812,-0.0012928181303179,0.001292818119304,-0.0012928181302166,0.0012928181177921,-4.3793934125374e-11,4.3832322776156e-11,-0.0013209893385994,0.0013209893386088,-7.5155233470971e-14,9.0455618995872e-14,-0.0013548882958724,0.0013548882659784,-0.0013548882954937,0.0013548882656484,-0.0013548882660442,0.0013548882958813,-0.0013548882656253,0.0013548882954897,-0.0012928180785197,-0.0012928180785197,0.0012928180787138,0.0012928181660484,0.003590845847125,0.0035224428955456,0.69403529139106,0.64489692877595,43648,1000,0.0054889549087213,0.0054889549087165,0.0054889549085039,17.075501744485,17.07110133917,5.180401395588e-05,5.180401395588e-05,5.180401395588e-05,523031.15057297,0.016603501592542
18835200,0.99972612725068,0.016367723753344,0.0054559079178505,0.0054559079178512,0.0054559079176418,-0.001321671107758,0.0013216711075625,4.3660248444674e-11,-4.3887086044353e-11,-7.5547256789045e-13,5.883339679776e-13,-0.0013553344638057,0.0013553344917839,-0.0013553344924519,0.0013553344631103,-0.0013553344647345,0.001355334493987,-0.0013553344936956,0.0013553344650569,-0.001293513530429,0.0012935136179952,-0.0012935136176411,0.0012935135308062,-2.8091274183797e-12,-4.1792340331514e-12,-1.3463882805269e-12,-1.4610657183864e-12,-0.0013216711098599,0.0013216711054582,-0.0013553344792883,0.0013553344775934,-0.0013553344797274,0.0013553344777165,-0.0013553344801425,0.0013553344772656,-0.0013553344797465,0.0013553344771523,-0.0012935135766776,0.0012935135707973,-0.0012935135720006,0.0012935135664444,-0.0012935135772877,0.0012935135663093,-0.0012935135771975,0.0012935135647894,-4.380780002531e-11,4.3816847425388e-11,-0.0013216711076159,0.0013216711075965,-7.6016413044879e-14,4.9216202361154e-14,-0.0013553344937137,0.0013553344638259,-0.001355334493363,0.0013553344634576,-0.0013553344638787,0.0013553344937236,-0.0013553344634753,0.0013553344932965,-0.0012935135255662,-0.0012935135255662,0.0012935135256252,0.0012935136130316,0.0035925733186521,0.003521379173199,0.69834565023419,0.67141121253251,43648,1000,0.005491780345206,0.005491780345201,0.0054917803449819,16.973272265098,16.968871988473,5.0986178120783e-05,5.0986178120783e-05,5.0986178120783e-05,505683.11164879,0.016612117416618
18921600,0.9997308875983,0.016367796662674,0.0054559322209606,0.0054559322209612,0.0054559322207519,-0.001321703039181,0.0013217030390052,4.3681222803921e-11,-4.386153806012e-11,-7.2200935487452e-13,6.0027866189893e-13,-0.0013553055073661,0.0013553055353767,-0.0013553055360317,0.0013553055067129,-0.0013553055083023,0.0013553055375772,-0.0013553055372857,0.0013553055086501,-0.0012935484700296,0.0012935485575967,-0.001293548557246,0.001293548470417,-2.8029008438914e-12,-4.1530398333662e-12,-1.3701163791792e-12,-1.4646394033304e-12,-0.0013217030413014,0.0013217030369,-0.0013553055228978,0.0013553055211761,-0.0013553055233037,0.0013553055212873,-0.0013553055237262,0.0013553055208304,-0.0013553055233428,0.0013553055207073,-0.0012935485163114,0.0012935485104358,-0.0012935485115594,0.0012935485060363,-0.001293548516888,0.0012935485059037,-0.0012935485168144,0.0012935485043956,-4.3815291708208e-11,4.3804292867745e-11,-0.001321703039064,0.0013217030390263,-6.7807163831807e-14,3.9054130452534e-14,-0.0013553055373018,0.0013553055074133,-0.0013553055369737,0.001355305507037,-0.001355305507475,0.0013553055372843,-0.0013553055070891,0.00135530553688,-0.0012935484651531,-0.0012935484651531,0.0012935484651888,0.001293548552615,0.0035916266632917,0.0035203364035986,0.70258838441329,0.69792549628906,43648,1000,0.0054919127408186,0.0054919127408503,0.0054919127406202,16.871042785171,16.866642637775,5.0168342281364e-05,5.0168342281364e-05,5.0168342281364e-05,500590.97871744,0.01661252086602
19008000,0.9997355351399,0.016367868945027,0.0054559563150782,0.0054559563150788,0.0054559563148695,-0.0013217323392679,0.0013217323390655,4.3634855749815e-11,-4.3887573970623e-11,-7.519737924227e-13,6.1359325514724e-13,-0.0013552742117861,0.001355274239742,-0.0013552742404347,0.0013552742110787,-0.0013552742127168,0.0013552742419504,-0.001355274241684,0.0013552742130301,-0.0012935807518874,0.0012935808393937,-0.0012935808390933,0.0012935807522641,-2.7877409540745e-12,-4.1796763137577e-12,-1.3299009018521e-12,-1.4470990274122e-12,-0.0013217323413624,0.0013217323369672,-0.0013552742272637,0.0013552742255605,-0.0013552742277024,0.0013552742256659,-0.001355274228114,0.001355274225228,-0.0013552742277249,0.0013552742251086,-0.0012935807981556,0.0012935807923195,-0.0012935807934395,0.0012935807879025,-0.0012935807988129,0.0012935807878664,-0.0012935807986228,0.0012935807861931,-4.3800897883224e-11,4.3798399871301e-11,-0.0013217323391204,0.0013217323391063,-6.1100368719794e-14,6.8379940451522e-14,-0.001355274241673,0.0013552742117888,-0.0013552742413246,0.0013552742114389,-0.0013552742118602,0.0013552742416869,-0.0013552742114624,0.0013552742412792,-0.0012935807470672,-0.0012935807470672,0.001293580747094,0.0012935808344808,0.00359068983094,0.0035193143628313,0.71329872044869,0.77244247275956,43648,1000,0.0054920342338184,0.0054920342338106,0.0054920342335975,16.768812935209,16.764413287078,4.9350503481675e-05,4.9350503481675e-05,4.9350503481675e-05,495605.50753583,0.01661289105792
19094400,0.99974008417106,0.016367939743591,0.0054559799145995,0.0054559799146002,0.0054559799143908,-0.0013222304039903,0.001322230403793,4.3645888236309e-11,-4.3876692714803e-11,-7.5805166557138e-13,6.084435889366e-13,-0.0013556060607431,0.0013556060887021,-0.0013556060893926,0.001355606060042,-0.0013556060616735,0.0013556060909117,-0.0013556060906368,0.0013556060619901,-0.0012940811621842,0.0012940812497454,-0.001294081249402,0.0012940811625902,-2.7902904056023e-12,-4.1832638512197e-12,-1.3413594047439e-12,-1.4550243441227e-12,-0.0013222304060915,0.0013222304016889,-0.0013556060762303,0.0013556060745293,-0.0013556060766701,0.0013556060746337,-0.0013556060770854,0.0013556060741971,-0.0013556060766965,0.0013556060740752,-0.0012940812084716,0.0012940812026002,-0.0012940812037434,0.0012940811982188,-0.0012940812090813,0.001294081198139,-0.0012940812089537,0.001294081196513,-4.379665871861e-11,4.3802851352959e-11,-0.001322230403845,0.0013222304038321,-6.4827460742044e-14,6.1052370186117e-14,-0.0013556060906417,0.0013556060607566,-0.0013556060902848,0.0013556060604078,-0.0013556060608251,0.0013556060906529,-0.0013556060604235,0.001355606090245,-0.0012940811573472,-0.0012940811573472,0.0012940811574098,0.0012940812447852,0.0035917154692112,0.0035183124292755,0.7137278674075,0.77233723771012,43648,1000,0.0054940983950217,0.0054940983950156,0.0054940983948017,16.705361099166,16.702590609837,4.8842888793329e-05,4.8842888793329e-05,4.8842888793329e-05,483999.47463337,0.016619185346963
19180800,0.9997446158227,0.016368011758452,0.0054560039195533,0.0054560039195539,0.0054560039193445,-0.0013226468864892,0.0013226468863915,4.3748378105314e-11,-4.3829174225284e-11,-7.3016828209548e-13,6.7236475383595e-13,-0.0013560138756482,0.0013560139035582,-0.0013560139043825,0.0013560138750296,-0.0013560138766422,0.0013560139060614,-0.0013560139055438,0.0013560138770872,-0.0012945056451428,0.0012945057326062,-0.0012945057326043,0.0012945056458035,-2.7848474542336e-12,-4.2149640004489e-12,-1.2410153819496e-12,-1.3881914446454e-12,-0.0013226468886108,0.0013226468842205,-0.0013560138890211,0.0013560138872216,-0.0013560138894162,0.0013560138873516,-0.001356013889957,0.0013560138868871,-0.0013560138894821,0.0013560138867537,-0.0012945056930552,0.0012945056877188,-0.0012945056882824,0.0012945056830453,-0.0012945056971228,0.0012945056859661,-0.0012945056967753,0.0012945056842515,-4.3842752986932e-11,4.3810608145406e-11,-0.0013226468863629,0.0013226468863597,-7.5127528434988e-14,8.4792056719694e-14,-0.0013560139033853,0.0013560138733853,-0.0013560139030718,0.001356013873215,-0.0013560138734512,0.0013560139033896,-0.0013560138730405,0.0013560139030209,-0.0012945056455809,-0.0012945056455809,0.0012945056453477,0.001294505732716,0.0035924518810798,0.0035173309947301,0.72844619449409,0.91425068683464,43648,1000,0.0054958242282823,0.0054958242281781,0.0054958242279529,16.919561896359,16.928491019618,5.0556495170874e-05,5.0556495170874e-05,5.0556495170874e-05,482817.90934429,0.016624448863476
19267200,0.99974913209959,0.01636808324125,0.0054560277471528,0.0054560277471534,0.005456027746944,-0.0013242502977892,0.0013242502973436,4.359765300398e-11,-4.4008327458158e-11,-7.9426673569643e-13,5.4161510108927e-13,-0.0013572926904183,0.0013572927183343,-0.0013572927189777,0.0013572926897057,-0.0013572926917044,0.0013572927204597,-0.0013572927204895,0.0013572926914983,-0.0012961087505828,0.0012961088359985,-0.0012961088380885,0.0012961087486576,-2.7809716314609e-12,-4.1485812048684e-12,-1.244376161633e-12,-1.4296700010334e-12,-0.0013242502998521,0.0013242502955003,-0.001357292705246,0.0013572927036275,-0.0013572927058202,0.0013572927035919,-0.0013572927060533,0.0013572927033816,-0.0013572927059008,0.0013572927032093,-0.0012961087976381,0.0012961087919629,-0.0012961087922307,0.0012961087865597,-0.0012961087990695,0.0012961087865952,-0.0012961087986903,0.0012961087864686,-4.3772331961776e-11,4.3912165454664e-11,-0.0013242502974187,0.0013242502976529,-9.4480937201635e-15,1.9073079095232e-13,-0.0013572927194905,0.0013572926895905,-0.0013572927189719,0.0013572926894745,-0.0013572926896862,0.0013572927195218,-0.0013572926893544,0.0013572927195074,-0.0012961087471675,-0.0012961087471675,0.0012961087457712,0.0012961088351423,0.0035981062940728,0.003516369230387,0.72556902373051,0.87574310507144,43648,1000,0.0055024690821258,0.0055024690825801,0.0055024690819983,17.144725006693,17.154391429399,5.2357800053545e-05,5.2357800053545e-05,5.2357800053545e-05,464322.45726327,0.016644712494055
19353600,0.9997536319916,0.016368154115085,0.0054560513717643,0.0054560513717649,0.0054560513715556,-0.0013243773317337,0.0013243773315539,4.3729165456953e-11,-4.3900206290597e-11,-7.3667243633921e-13,6.099608955251e-13,-0.0013575008707116,0.0013575008986773,-0.0013575008993478,0.0013575008700647,-0.001357500871994,0.0013575009010522,-0.0013575009008124,0.0013575008719941,-0.0012962423304655,0.00129624241755,-0.0012962424173448,0.0012962423304669,-2.7501811603239e-12,-4.1261541252944e-12,-1.2069973035315e-12,-1.4103217979901e-12,-0.0013243773338425,0.00132437732949,-0.001357500886241,0.001357500884544,-0.00135750088661,0.0013575008845175,-0.0013575008868246,0.0013575008841165,-0.0013575008865581,0.0013575008840349,-0.0012962423767058,0.0012962423710538,-0.0012962423719447,0.0012962423663623,-0.0012962423778203,0.0012962423666369,-0.0012962423774573,0.0012962423651481,-4.3790041891338e-11,4.3914349946753e-11,-0.0013243773314814,0.0013243773315886,-6.9251119719946e-15,2.0409238276486e-13,-0.001357500900266,0.0013575008704569,-0.0013575008999489,0.001357500870197,-0.0013575008706291,0.0013575009004381,-0.0013575008702723,0.0013575009000267,-0.0012962423264382,-0.0012962423264382,0.0012962423260247,0.0012962424134042,0.0035976945465495,0.0035154267321782,0.72183275754051,0.83723552330826,43648,1000,0.0055029952817762,0.0055029952818693,0.0055029952813253,17.370575149609,17.38029183918,5.416460119687e-05,5.416460119687e-05,5.416460119687e-05,467630.3834876,0.016646318154537
19440000,0.99975811430048,0.016368224266406,0.0054560747555382,0.0054560747555388,0.0054560747553294,-0.001324508358834,0.0013245083586912,4.3771613277849e-11,-4.389913891144e-11,-7.7153990057388e-13,6.1987871018973e-13,-0.001357719703936,0.0013577197321158,-0.0013577197329634,0.0013577197034196,-0.0013577197048103,0.0013577197346256,-0.0013577197343179,0.0013577197055627,-0.0012963737959179,0.0012963738837677,-0.0012963738830706,0.0012963737963883,-2.692579978824e-12,-4.1105924242231e-12,-1.2383798448164e-12,-1.3733159579049e-12,-0.0013245083609322,0.0013245083566401,-0.0013577197198089,0.0013577197179637,-0.0013577197200437,0.0013577197184161,-0.0013577197207573,0.0013577197175613,-0.0013577197198893,0.0013577197176997,-0.0012963738426541,0.0012963738370634,-0.0012963738374497,0.0012963738319808,-0.0012963738428508,0.0012963738319866,-0.0012963738428702,0.0012963738303837,-4.3955807003798e-11,4.379040490966e-11,-0.0013245083587821,0.0013245083586422,-6.1860551379089e-14,8.9318741961979e-14,-0.0013577197342341,0.0013577197042327,-0.0013577197340345,0.0013577197039068,-0.0013577197045387,0.001357719733748,-0.0013577197039593,0.0013577197335281,-0.0012963737912044,-0.0012963737912044,0.0012963737911759,0.00129637387864,0.0035973167312869,0.0035145030899398,0.71736764424061,0.79872794154508,43648,1000,0.0055035380571032,0.0055035380572008,0.0055035380568942,17.596471193737,17.606192248962,5.5971769549899e-05,5.5971769549899e-05,5.5971769549899e-05,471357.2169324,0.016647974314749
19526400,0.99976257781581,0.01636829362212,0.0054560978741094,0.00545609787411,0.0054560978739006,-0.0013246411937843,0.0013246411936457,4.3818763249214e-11,-4.3920002038792e-11,-7.1677210310426e-13,6.1079375243484e-13,-0.0013579389398924,0.0013579389681345,-0.0013579389687963,0.001357938939395,-0.0013579389410219,0.0013579389704875,-0.0013579389699677,0.0013579389416076,-0.0012965056505244,0.0012965057400172,-0.0012965057382297,0.0012965056520165,-2.744016054546e-12,-4.1059135083372e-12,-1.4615894082704e-12,-1.4880263947562e-12,-0.0013246411958693,0.0013246411914594,-0.0013579389554344,0.0013579389539464,-0.0013579389563399,0.0013579389540968,-0.0013579389566163,0.0013579389536969,-0.0013579389563441,0.0013579389535753,-0.001296505698943,0.0012965056921278,-0.0012965056933997,0.0012965056882758,-0.0012965056986816,0.0012965056878974,-0.0012965056974708,0.0012965056862043,-4.3911004225433e-11,4.3902704831915e-11,-0.0013246411935756,0.0013246411935632,2.2790715523991e-14,6.0930873897745e-14,-0.0013579389704175,0.0013579389397584,-0.0013579389697304,0.0013579389397525,-0.0013579389400329,0.0013579389702202,-0.0013579389398148,0.0013579389696205,-0.001296505645468,-0.001296505645468,0.001296505647143,0.0012965057343059,0.0035969630303162,0.0035135979136074,0.71231101002809,0.7602203597819,43648,1000,0.0055040883422531,0.0055040883420433,0.00550408834165,17.822370512992,17.832092658743,5.7778964103934e-05,5.7778964103934e-05,5.7778964103934e-05,475370.73407086,0.016649653311294
19612800,0.99976702132751,0.016368362122046,0.0054561207074181,0.0054561207074187,0.0054561207072093,-0.0013247737949745,0.0013247737947202,4.3771497457857e-11,-4.3966381445462e-11,-7.2157548577598e-13,5.7583617330606e-13,-0.0013581567947324,0.0013581568225073,-0.0013581568234729,0.0013581567937216,-0.001358156795743,0.0013581568248915,-0.0013581568248251,0.0013581567958429,-0.0012966363873103,0.0012966364750537,-0.0012966364749872,0.0012966363881579,-2.8152391728463e-12,-4.1455936490773e-12,-1.3383687019901e-12,-1.3443536956233e-12,-0.0013247737969342,0.0013247737926543,-0.0013581568100048,0.0013581568084881,-0.0013581568108336,0.0013581568086056,-0.0013581568111735,0.0013581568082532,-0.0013581568108094,0.0013581568081377,-0.0012966364339791,0.0012966364277679,-0.0012966364284115,0.001296636423829,-0.001296636434583,0.001296636423401,-0.0012966364337488,0.0012966364220173,-4.3928833445469e-11,4.3885534621159e-11,-0.0013247737948989,0.0013247737948327,-3.489158114497e-15,1.0459621642209e-14,-0.0013581568248757,0.0013581567946166,-0.0013581568243423,0.0013581567942319,-0.0013581567949161,0.001358156824669,-0.0013581567945121,0.0013581568242677,-0.0012966363834334,-0.0012966363834334,0.0012966363828435,0.001296636470135,0.0035966249510332,0.003512710823768,0.7067847226479,0.72171277801869,43648,1000,0.0055046376726303,0.0055046376724104,0.0055046376727068,18.048270251679,18.057993068524,5.9586162013428e-05,5.9586162013428e-05,5.9586162013428e-05,479642.14754534,0.016651329343361
19699200,0.99977144362769,0.016368429716072,0.0054561432387599,0.0054561432387605,0.0054561432385512,-0.0013249044205417,0.0013249044203805,4.3779590445916e-11,-4.3978120028033e-11,-7.3403110526536e-13,5.8679860311723e-13,-0.001358372268029,0.0013583722964451,-0.0013583722968202,0.0013583722674442,-0.0013583722689282,0.0013583722984432,-0.0013583722981741,0.0013583722692978,-0.0012967643566714,0.0012967644438257,-0.0012967644433745,0.0012967643565022,-2.7662289641922e-12,-4.1138877353183e-12,-1.2753725676553e-12,-1.1880235302261e-12,-0.0013249044224663,0.0013249044183007,-0.0013583722835071,0.0013583722820076,-0.001358372284112,0.0013583722824884,-0.0013583722844589,0.0013583722820172,-0.001358372284237,0.0013583722818717,-0.0012967644023418,0.0012967643965952,-0.0012967643967489,0.0012967643924462,-0.0012967644025461,0.0012967643915664,-0.0012967644026948,0.0012967643902727,-4.4094588146482e-11,4.3739655812951e-11,-0.0013249044204625,0.0013249044202318,-3.6305361484363e-15,-7.8521571808116e-14,-0.001358372298488,0.0013583722680732,-0.0013583722981909,0.0013583722676777,-0.0013583722682766,0.0013583722980794,-0.0013583722679677,0.0013583722978809,-0.0012967643511493,-0.0012967643511493,0.00129676435083,0.0012967644383505,0.0035962952276311,0.003511841450668,0.70088180976456,0.68320519625551,43648,1000,0.0055051788279339,0.0055051788276125,0.0055051788274618,18.274170176012,18.283893478306,6.1393361408093e-05,6.1393361408093e-05,6.1393361408093e-05,484155.71057789,0.016652980398969
19785600,0.99977584351181,0.016368496361448,0.0054561654538853,0.0054561654538859,0.0054561654536765,-0.0013250316939051,0.0013250316936941,4.3761011895831e-11,-4.4018154687354e-11,-7.6682527989642e-13,5.5179208430706e-13,-0.0013585845808232,0.001358584608872,-0.0013585846094699,0.00135858457976,-0.0013585845813885,0.0013585846107829,-0.0013585846106117,0.0013585845816612,-0.0012968882194154,0.0012968883072145,-0.0012968883067331,0.0012968882188751,-2.7522373916251e-12,-4.1010588919365e-12,-1.4164182882171e-12,-1.2968927925801e-12,-0.0013250316959287,0.0013250316916176,-0.0013585845963403,0.0013585845942005,-0.0013585845961186,0.0013585845947902,-0.0013585845968897,0.0013585845939468,-0.0013585845967718,0.0013585845942904,-0.0012968882660759,0.0012968882599984,-0.0012968882610894,0.0012968882559479,-0.0012968882657623,0.0012968882554127,-0.0012968882664481,0.0012968882541539,-4.39519007996e-11,4.390492247005e-11,-0.0013250316938404,0.0013250316937103,-2.7932558444219e-14,-1.309635873876e-13,-0.0013585846103274,0.0013585845804373,-0.0013585846102771,0.0013585845804939,-0.001358584580856,0.0013585846106779,-0.0013585845805399,0.0013585846102831,-0.0012968882146198,-0.0012968882146198,0.001296888214585,0.0012968883027066,0.0035959680297782,0.0035109894332633,0.69466799591113,0.64469761449232,43648,1000,0.005505706100986,0.0055057061008763,0.0055057061008855,18.500070215643,18.509793888087,6.3200561725145e-05,6.3200561725145e-05,6.3200561725145e-05,488902.65002766,0.01665458908306
19872000,0.999780210658,0.016368561544047,0.0054561871814184,0.0054561871814189,0.0054561871812096,-0.0013250896848458,0.0013250896846034,4.3714967067175e-11,-4.4041184924973e-11,-7.6742702621937e-13,5.2235216014712e-13,-0.0013587300473702,0.0013587300755501,-0.0013587300760592,0.0013587300466793,-0.0013587300482804,0.0013587300775437,-0.001358730077431,0.0013587300486178,-0.0012969409650733,0.0012969410518044,-0.0012969410518157,0.0012969409652152,-2.7793063882153e-12,-4.0974147091462e-12,-1.4229280011145e-12,-1.2616012824762e-12,-0.0013250896868911,0.0013250896825573,-0.0013587300628551,0.0013587300611028,-0.0013587300633351,0.0013587300613526,-0.0013587300636994,0.0013587300609116,-0.0013587300632449,0.0013587300608438,-0.0012969410111758,0.0012969410053858,-0.0012969410059754,0.0012969410010769,-0.0012969410115356,0.001296941001232,-0.0012969410114803,0.0012969409990322,-4.3934212692901e-11,4.3899068119485e-11,-0.0013250896847161,0.0013250896846275,3.2293278168401e-14,-1.1764372959423e-13,-0.001358730077374,0.0013587300473675,-0.0013587300770708,0.0013587300469221,-0.001358730047494,0.0013587300773212,-0.0013587300469744,0.001358730076819,-0.001296940960452,-0.001296940960452,0.0012969409602096,0.0012969410472816,0.0035953672552533,0.0035101542771807,0.68463849625505,0.58613753799084,43648,1000,0.0055059462885639,0.0055059462885623,0.005505946288345,18.692401614407,18.700715109331,6.4739212915252e-05,6.4739212915252e-05,6.4739212915252e-05,493911.04382186,0.016655322152769
19958400,0.99978449079983,0.016368627168657,0.0054562090562885,0.0054562090562891,0.0054562090560798,-0.0013245874915123,0.0013245874912909,4.3763145242424e-11,-4.4010389042236e-11,-7.3523700960228e-13,5.5985324980869e-13,-0.0013583656265638,0.0013583656546029,-0.0013583656552935,0.00135836562586,-0.0013583656275177,0.0013583656567896,-0.0013583656565605,0.0013583656277817,-0.0012964272093462,0.0012964272970739,-0.0012964272968116,0.0012964272096959,-2.8151149413474e-12,-4.1370234991248e-12,-1.4440741786427e-12,-1.3379278331054e-12,-0.0013245874935895,0.0013245874892084,-0.0013583656421189,0.0013583656403471,-0.0013583656424851,0.0013583656405268,-0.0013583656429477,0.0013583656400443,-0.0013583656424991,0.0013583656399951,-0.0012964272558436,0.0012964272498105,-0.0012964272508823,0.0012964272456477,-0.0012964272563426,0.0012964272454175,-0.0012964272561574,0.0012964272438642,-4.3955561364243e-11,4.3894836219355e-11,-0.0013245874913882,0.0013245874913039,5.6668268823286e-15,-8.4969286599561e-14,-0.0013583656565316,0.0013583656265593,-0.0013583656562359,0.0013583656261409,-0.0013583656266366,0.0013583656565314,-0.0013583656262935,0.0013583656560596,-0.0012964272046299,-0.0012964272046299,0.0012964272045225,0.0012964272921468,0.0035924429858972,0.0035093361331112,0.70318312507019,0.70684412759495,43648,1000,0.005503865136471,0.0055038651364601,0.005503865136241,18.68511535283,18.685007527098,6.4680922822639e-05,6.4680922822639e-05,6.4680922822639e-05,502527.50174514,0.016648975488557
20044800,0.99978868364771,0.016368691955214,0.0054562306518073,0.0054562306518079,0.0054562306515986,-0.0013255745960809,0.0013255745958682,4.3770792832324e-11,-4.4003106323542e-11,-7.3687543013789e-13,5.5596619208505e-13,-0.0013590776645069,0.0013590776925456,-0.0013590776932339,0.0013590776638225,-0.0013590776654566,0.0013590776947412,-0.0013590776945027,0.0013590776657319,-0.0012974271551033,0.0012974272428529,-0.0012974272425275,0.0012974271554468,-2.8062782113034e-12,-4.1267468130705e-12,-1.4335507648317e-12,-1.3405986632781e-12,-0.001325574598163,0.0013255745937847,-0.0013590776800744,0.001359077678292,-0.0013590776804394,0.0013590776784753,-0.0013590776809163,0.0013590776779784,-0.0013590776804477,0.0013590776779497,-0.0012974272015682,0.0012974271955297,-0.0012974271966471,0.0012974271913666,-0.001297427202055,0.0012974271911384,-0.0012974272018822,0.0012974271896301,-4.3950162029189e-11,4.3900607013649e-11,-0.0013255745959555,0.0013255745958803,-2.6922412832886e-15,-7.9480630744818e-14,-0.0013590776944742,0.0013590776645091,-0.0013590776941857,0.0013590776641021,-0.0013590776645772,0.0013590776944854,-0.0013590776642543,0.0013590776940171,-0.0012974271503102,-0.0012974271503102,0.0012974271502735,0.0012974272378638,0.0035957059986022,0.003508534316958,0.70871975266259,0.74287786107422,43648,1000,0.0055079558561597,0.005507955856157,0.0055079558559252,18.669937978987,18.669299944867,6.4559503831892e-05,6.4559503831892e-05,6.4559503831892e-05,483280.58855085,0.016661450450747
20131200,0.99979279093142,0.016368755897895,0.0054562519660345,0.0054562519660351,0.0054562519658258,-0.0013258386899265,0.0013258386896981,4.3755877170341e-11,-4.4021737048504e-11,-7.5385102919205e-13,5.5242018276614e-13,-0.001359265058248,0.0013592650862785,-0.0013592650870012,0.001359265057511,-0.0013592650591834,0.001359265088493,-0.0013592650882111,0.0013592650594387,-0.0012976930792904,0.00129769316707,-0.001297693166815,0.0012976930797406,-2.8231596367639e-12,-4.1554321720466e-12,-1.4485588651681e-12,-1.3613724110073e-12,-0.0013258386920213,0.0013258386876083,-0.0013592650737961,0.0013592650720138,-0.0013592650741892,0.0013592650722021,-0.0013592650746748,0.0013592650716581,-0.0013592650741784,0.0013592650716521,-0.001297693125694,0.0012976931196252,-0.0012976931209101,0.0012976931155923,-0.0012976931263314,0.0012976931153689,-0.001297693126142,0.0012976931138116,-4.395887029257e-11,4.3894811455405e-11,-0.001325838689805,0.0013258386897157,-2.0743013374004e-14,-9.3352236388552e-14,-0.0013592650882059,0.0013592650582591,-0.0013592650879045,0.0013592650578638,-0.0013592650583314,0.00135926508823,-0.0013592650579714,0.0013592650877415,-0.0012976930745426,-0.0012976930745426,0.0012976930744375,0.0012976931620377,0.003595989142499,0.0035077485077564,0.71378246390324,0.77624390056034,43648,1000,0.0055090503138152,0.0055090503138256,0.0055090503136002,18.654265780818,18.653592362635,6.4434126246545e-05,6.4434126246545e-05,6.4434126246545e-05,477279.23132641,0.016664788064976
20217600,0.99979681446545,0.01636881897496,0.0054562729917227,0.0054562729917233,0.0054562729915139,-0.0013260770468562,0.0013260770466423,4.3772285492607e-11,-4.4003853241901e-11,-7.4580803960575e-13,5.6663527791651e-13,-0.0013594302282135,0.0013594302562729,-0.0013594302569401,0.0013594302275187,-0.0013594302291327,0.0013594302584517,-0.0013594302581983,0.0013594302294416,-0.0012979341114515,0.001297934199272,-0.0012979341989426,0.0012979341118841,-2.8066046719185e-12,-4.1452011904784e-12,-1.4331823937322e-12,-1.3497690301885e-12,-0.0013260770489494,0.0013260770445522,-0.0013594302438226,0.0013594302420051,-0.0013594302441668,0.0013594302421961,-0.0013594302446201,0.0013594302417052,-0.0013594302441575,0.0013594302416421,-0.0012979341579518,0.0012979341518798,-0.0012979341530611,0.0012979341477289,-0.0012979341584172,0.0012979341475648,-0.0012979341582748,0.0012979341459881,-4.3959119255552e-11,4.3893636344245e-11,-0.0013260770467475,0.0013260770466669,-7.5889152226727e-15,-7.5880505432057e-14,-0.0013594302581753,0.0013594302282315,-0.0013594302579153,0.0013594302278359,-0.0013594302282953,0.0013594302581826,-0.0013594302279739,0.0013594302577378,-0.0012979341067026,-0.0012979341067026,0.0012979341065887,0.0012979341942638,0.0035961811512833,0.003506978383381,0.71866456596854,0.80868178139082,43648,1000,0.0055100381138207,0.005510038113827,0.0055100381136464,18.63856054111,18.637884780403,6.4308484328878e-05,6.4308484328878e-05,6.4308484328878e-05,471777.28790144,0.016667800406675
20304000,0.99980075603219,0.01636888119243,0.0054562937308793,0.0054562937308799,0.0054562937306706,-0.0013263040721821,0.0013263040719717,4.3773749859636e-11,-4.3996184476176e-11,-7.3886119300361e-13,5.5541562066934e-13,-0.0013595868098391,0.001359586837891,-0.0013595868385617,0.0013595868091405,-0.0013595868107891,0.0013595868400478,-0.0013595868398044,0.0013595868110374,-0.0012981634904822,0.001298163578231,-0.0012981635779949,0.0012981634908879,-2.8056904057311e-12,-4.1274084987388e-12,-1.4273332488902e-12,-1.3452373156881e-12,-0.001326304074262,0.0013263040698813,-0.0013595868253667,0.0013595868236105,-0.0013595868257364,0.0013595868237769,-0.0013595868262223,0.0013595868233132,-0.0013595868258119,0.0013595868232691,-0.0012981635369439,0.0012981635309512,-0.0012981635320521,0.0012981635267735,-0.0012981635374587,0.0012981635265892,-0.0012981635373788,0.0012981635250629,-4.3961825290532e-11,4.3885139692048e-11,-0.0013263040720715,0.0013263040719778,-1.4713138759005e-14,-8.2654533784259e-14,-0.0013595868398256,0.0013595868098412,-0.0013595868395395,0.0013595868094262,-0.001359586809945,0.0013595868397841,-0.0013595868095797,0.0013595868392975,-0.0012981634857406,-0.0012981634857406,0.0012981634856711,0.0012981635732905,0.0035963416902245,0.0035062236360806,0.72350828217672,0.84111966222131,43648,1000,0.0055109789549648,0.0055109789549431,0.0055109789547484,18.622853052922,18.622177198171,6.4182824423374e-05,6.4182824423374e-05,6.4182824423374e-05,466529.91885629,0.016670669541949
20390400,0.99980461737512,0.016368941999472,0.0054563139998932,0.0054563139998938,0.0054563139996845,-0.0013265271661117,0.0013265271658855,4.3759590939241e-11,-4.4014037519013e-11,-7.4137676321349e-13,5.5698374923467e-13,-0.0013597377626898,0.0013597377907188,-0.0013597377914127,0.0013597377619861,-0.0013597377636397,0.0013597377929065,-0.0013597377926834,0.0013597377639107,-0.0012983899724604,0.0012983900602201,-0.0012983900599221,0.0012983899727989,-2.8156557483555e-12,-4.1407456795324e-12,-1.4275635653836e-12,-1.3567297881304e-12,-0.0013265271681934,0.0013265271638069,-0.0013597377782512,0.0013597377764897,-0.0013597377786366,0.0013597377766486,-0.0013597377790818,0.0013597377761788,-0.001359737778638,0.001359737776121,-0.0012983900189488,0.0012983900129043,-0.0012983900140233,0.0012983900087381,-0.0012983900194243,0.0012983900085043,-0.0012983900192746,0.0012983900069459,-4.3948543931562e-11,4.3901964883932e-11,-0.0013265271659847,0.0013265271659107,-1.0079809715791e-14,-6.6323326809069e-14,-0.0013597377926661,0.001359737762701,-0.0013597377923648,0.0013597377622906,-0.0013597377627794,0.0013597377926772,-0.0013597377624258,0.001359737792211,-0.0012983899676639,-0.0012983899676639,0.00129838996763,0.0012983900552658,0.0035965009711138,0.0035054838148741,0.72175749987616,0.82126598431432,43648,1000,0.0055119035025022,0.0055119035025087,0.0055119035022913,18.607145513981,18.606469615939,6.4057164111844e-05,6.4057164111844e-05,6.4057164111844e-05,461375.05958221,0.016673488982617
20476800,0.9998084001992,0.016369000112656,0.0054563333709547,0.0054563333709553,0.005456333370746,-0.0013263426214438,0.0013263426212217,4.3765804278839e-11,-4.4011254721673e-11,-7.4511659014082e-13,5.620124779634e-13,-0.0013595982909017,0.0013595983189173,-0.0013595983196519,0.0013595982901884,-0.0013595982918049,0.0013595983211092,-0.0013595983208792,0.0013595982921055,-0.0012982055443048,0.0012982056319604,-0.0012982056318171,0.0012982055447253,-2.8303448290259e-12,-4.1642416088067e-12,-1.4346915829217e-12,-1.354517943936e-12,-0.0013263426235266,0.0013263426191321,-0.0013595983064682,0.0013595983046925,-0.0013595983068569,0.0013595983048628,-0.0013595983072896,0.0013595983042976,-0.0013595983068137,0.0013595983043697,-0.0012982055907375,0.0012982055848835,-0.0012982055859497,0.0012982055805808,-0.0012982055912938,0.0012982055804556,-0.0012982055911164,0.0012982055788682,-4.3981960587177e-11,4.3871983711601e-11,-0.0013263426213345,0.0013263426212159,-2.6073732877123e-14,-9.1156744635789e-14,-0.0013595983208701,0.0013595982908652,-0.0013595983205612,0.0013595982904657,-0.0013595982909963,0.0013595983208805,-0.0013595982906741,0.0013595983203802,-0.0012982055397325,-0.0012982055397325,0.0012982055395183,0.0012982056270778,0.003594992207997,0.0035047582634599,0.70415652117112,0.7051435878032,43648,1000,0.0055111386999587,0.0055111386999445,0.0055111386997202,18.591438094631,18.590762033708,6.3931504757049e-05,6.3931504757049e-05,6.3931504757049e-05,462881.8040043,0.016671156706579
20563200,0.99981210617165,0.016369055028502,0.0054563516762367,0.0054563516762373,0.0054563516760279,-0.001325414138483,0.0013254141382817,4.3754798144481e-11,-4.3996493760845e-11,-7.5839024346335e-13,5.9798843774606e-13,-0.0013589172081096,0.0013589172361618,-0.0013589172368312,0.0013589172074156,-0.0013589172090438,0.0013589172383668,-0.0013589172380845,0.0013589172093597,-0.0012972689286322,0.0012972690163843,-0.0012972690161391,0.0012972689290337,-2.7954601300237e-12,-4.178518290311e-12,-1.4486593620979e-12,-1.3505904168604e-12,-0.0013254141405801,0.0013254141361808,-0.0013589172236501,0.0013589172219017,-0.0013589172240373,0.0013589172220593,-0.001358917224499,0.0013589172215688,-0.0013589172240528,0.00135891722151,-0.001297268975186,0.0012972689691003,-0.0012972689701775,0.0012972689649229,-0.0012972689756078,0.0012972689647531,-0.0012972689755203,0.0012972689631423,-4.395206341228e-11,4.3876145760924e-11,-0.0013254141383701,0.0013254141382858,9.6015007983884e-15,-7.341593366421e-14,-0.0013589172380927,0.0013589172081083,-0.0013589172377833,0.0013589172077125,-0.0013589172081953,0.0013589172380801,-0.0013589172078541,0.0013589172376203,-0.0012972689239289,-0.0012972689239289,0.0012972689237628,0.0012972690114187,0.0035904161504857,0.0035040465399616,0.67937013740684,0.5627439105104,43648,1000,0.0055072909130366,0.0055072909130287,0.0055072909128113,18.575730595435,18.575054451476,6.380584476348e-05,6.380584476348e-05,6.380584476348e-05,477988.44973396,0.01665942253868
20649600,0.99981572327896,0.016369106487,0.0054563688290695,0.0054563688290701,0.0054563688288608,-0.0013241079768573,0.0013241079766279,4.3743674601944e-11,-4.3986817115284e-11,-6.9754233761922e-13,5.1559954290553e-13,-0.0013579234647198,0.0013579234927436,-0.001357923493425,0.0013579234640118,-0.0013579234656926,0.0013579234949118,-0.0013579234947195,0.001357923465912,-0.001295944552147,0.001295944639848,-0.0012959446395672,0.0012959445525051,-2.8275446792745e-12,-4.0671737506337e-12,-1.4475679836741e-12,-1.303742083339e-12,-0.0013241079789162,0.0013241079745663,-0.0013579234802679,0.001357923478479,-0.0013579234806285,0.0013579234786742,-0.0013579234810839,0.0013579234782016,-0.0013579234806149,0.0013579234781641,-0.0012959445986039,0.0012959445925337,-0.0012959445936024,0.001295944588416,-0.0012959445990916,0.0012959445881913,-0.0012959445988457,0.0012959445867498,-4.3937043077023e-11,4.3870427582669e-11,-0.0013241079767349,0.0013241079766417,1.4844017113702e-14,-1.1315216092621e-13,-0.0013579234946613,0.0013579234647148,-0.0013579234943925,0.0013579234642895,-0.0013579234647839,0.0013579234946746,-0.0013579234644634,0.0013579234941927,-0.0012959445473691,-0.0012959445473691,0.0012959445472877,0.0012959446348301,0.0035842738601258,0.0035033482675993,0.6525542152615,0.4203442332176,43648,1000,0.0055018780770447,0.005501878077039,0.0055018780768199,18.499538417065,18.496320492476,6.3196307336523e-05,6.3196307336523e-05,6.3196307336523e-05,499397.26694135,0.0166429152876
20736000,0.99981918735658,0.016369157484559,0.0054563858282557,0.0054563858282562,0.0054563858280469,-0.0013221177129455,0.001322117712726,4.377790479153e-11,-4.4012869260585e-11,-7.4086942577113e-13,5.4532981113683e-13,-0.0013562706975018,0.0013562707255508,-0.0013562707262366,0.0013562706968013,-0.0013562706984512,0.0013562707277389,-0.0013562707275036,0.0013562706987287,-0.0012939244616426,0.0012939245494834,-0.0012939245491178,0.0012939244620186,-2.8269394036476e-12,-4.1398141785774e-12,-1.4489426181506e-12,-1.305825607924e-12,-0.0013221177150205,0.0013221177106486,-0.0013562707130563,0.0013562707112995,-0.0013562707134243,0.0013562707114876,-0.0013562707138929,0.0013562707109873,-0.0013562707134268,0.0013562707109531,-0.001293924508189,0.0012939245021169,-0.0012939245032055,0.0012939244980206,-0.0012939245086729,0.0012939244976871,-0.0012939245085098,0.0012939244962172,-4.3967960426637e-11,4.3899435372971e-11,-0.0013221177128323,0.0013221177127327,1.2142246709757e-14,-1.1548658961102e-13,-0.0013562707274926,0.0013562706975112,-0.0013562707272057,0.0013562706970787,-0.0013562706975896,0.0013562707274923,-0.0013562706972594,0.0013562707269967,-0.0012939244569082,-0.0012939244569082,0.0012939244568709,0.0012939245444806,0.003575274506341,0.003502663962071,0.6753580629159,0.55131483595069,43648,1000,0.005493630447617,0.0054936304476119,0.0054936304473963,18.117985230305,18.101876023838,6.014388184244e-05,6.014388184244e-05,6.014388184244e-05,524071.62171997,0.016617762440858
20822400,0.99982250365123,0.016369207873918,0.0054564026247088,0.0054564026247094,0.0054564026245001,-0.0013225273538838,0.0013225273537083,4.386559511265e-11,-4.404380872717e-11,-7.3526918508993e-13,6.0008619719036e-13,-0.0013563700816177,0.0013563701096925,-0.0013563701103897,0.0013563700809252,-0.0013563700825485,0.0013563701119206,-0.0013563701116336,0.0013563700828789,-0.0012943569440192,0.0012943570320247,-0.0012943570316524,0.0012943569444996,-2.8060669236405e-12,-4.1680815503227e-12,-1.4587267898391e-12,-1.3450528213243e-12,-0.0013225273559965,0.0013225273515968,-0.0013563700971995,0.0013563700954418,-0.001356370097569,0.0013563700956274,-0.0013563700980678,0.0013563700951202,-0.00135637009761,0.0013563700950581,-0.0012943569906644,0.0012943569845515,-0.0012943569857089,0.0012943569803902,-0.0012943569911433,0.0012943569802412,-0.0012943569909887,0.0012943569786899,-4.4029293376487e-11,4.3957157668418e-11,-0.0013225273537885,0.0013225273536995,9.9261085289039e-15,-8.8335624936706e-14,-0.0013563701116469,0.001356370081628,-0.0013563701113462,0.0013563700811917,-0.0013563700816925,0.0013563701116297,-0.0013563700813515,0.0013563701111608,-0.0012943569393187,-0.0012943569393187,0.0012943569392533,0.0012943570269897,0.0035762575140644,0.0035019933002403,0.69719773070112,0.69238088739836,43648,1000,0.005495328253925,0.0054953282539274,0.0054953282537092,17.724350937451,17.7074315552,5.6994807499607e-05,5.6994807499607e-05,5.6994807499607e-05,500301.9179291,0.016622939065456
20908800,0.9998256795475,0.016369255480347,0.0054564184935185,0.0054564184935191,0.0054564184933098,-0.0013229482727384,0.0013229482725711,4.3766239794946e-11,-4.404545338281e-11,-7.0398284674844e-13,6.4497564937782e-13,-0.0013564786434563,0.0013564786715973,-0.0013564786720748,0.0013564786426957,-0.0013564786446302,0.0013564786738382,-0.0013564786733691,0.0013564786447142,-0.001294789194721,0.0012947892825685,-0.0012947892825311,0.0012947891951865,-2.7160686142035e-12,-4.0941562204555e-12,-1.2089353619722e-12,-1.206775133848e-12,-0.0013229482746707,0.0013229482704619,-0.0013564786590267,0.0013564786572624,-0.001356478659235,0.0013564786573878,-0.0013564786597063,0.0013564786570194,-0.0013564786592318,0.0013564786567959,-0.0012947892410893,0.0012947892354938,-0.0012947892364638,0.0012947892314749,-0.0012947892418436,0.0012947892311259,-0.0012947892417193,0.001294789229341,-4.404214230749e-11,4.3854079346802e-11,-0.0013229482726153,0.0013229482725245,-3.394878641729e-14,-1.967398720849e-14,-0.0013564786733145,0.0013564786434357,-0.0013564786729685,0.0013564786428517,-0.0013564786435497,0.0013564786734531,-0.0013564786431682,0.0013564786729567,-0.0012947891904232,-0.0012947891904232,0.0012947891900174,0.0012947892781937,0.0035772900558354,0.0035013354151687,0.68758162799166,0.63314123000178,43648,1000,0.005497072895886,0.0054970728955195,0.0054970728955343,17.329961355426,17.312987086562,5.383969084341e-05,5.383969084341e-05,5.383969084341e-05,477970.82294835,0.016628258199636
20995200,0.99982872212934,0.016369300675117,0.0054564335584417,0.0054564335584422,0.0054564335582329,-0.0013217107124767,0.0013217107122697,4.3786192126592e-11,-4.4028533723223e-11,-7.5696863983354e-13,5.9931533838662e-13,-0.0013553609669833,0.0013553609950281,-0.0013553609957292,0.0013553609662764,-0.001355360967943,0.0013553609972633,-0.0013553609969834,0.0013553609682298,-0.0012935515771872,0.0012935516650494,-0.0012935516647988,0.0012935515776378,-2.7853323217742e-12,-4.168531066002e-12,-1.3629743914797e-12,-1.3656510744147e-12,-0.0013217107145572,0.0013217107101853,-0.0013553609825419,0.0013553609808112,-0.0013553609829328,0.0013553609809483,-0.0013553609833832,0.0013553609804808,-0.0013553609829542,0.0013553609803881,-0.0012935516237388,0.0012935516178479,-0.0012935516188951,0.0012935516135951,-0.001293551624307,0.0012935516134032,-0.0012935516241987,0.0012935516117798,-4.3983184873305e-11,4.3908788204896e-11,-0.001321710712351,0.001321710712285,-3.0331779267317e-14,-1.3631465921014e-14,-0.0013553609969541,0.0013553609669666,-0.0013553609966262,0.0013553609665677,-0.0013553609670565,0.0013553609969612,-0.0013553609666746,0.0013553609965181,-0.0012935515725935,-0.0012935515725935,0.0012935515724904,0.0012935516602152,0.0035714624614706,0.0035006901481188,0.68111131083139,0.59471585585634,43648,1000,0.0054919444715954,0.0054919444715874,0.0054919444713668,16.935520866393,16.918542617924,5.0684166931146e-05,5.0684166931146e-05,5.0684166931146e-05,485907.44207214,0.016612617935132
21081600,0.99983163806492,0.016369344081679,0.0054564480272958,0.0054564480272964,0.0054564480270871,-0.0013206381091775,0.0013206381089729,4.3790452525852e-11,-4.4023887688686e-11,-7.5943968199196e-13,5.9816331475662e-13,-0.0013543622766822,0.0013543623047319,-0.0013543623054295,0.0013543622759725,-0.0013543622776281,0.0013543623069525,-0.0013543623066823,0.0013543622779262,-0.0012924808427869,0.0012924809306512,-0.0012924809303552,0.0012924808432269,-2.7883897577834e-12,-4.1727294083338e-12,-1.3775287409719e-12,-1.3808794033174e-12,-0.0013206381112661,0.0013206381068814,-0.001354362292233,0.001354362290503,-0.0013543622926339,0.0013543622906426,-0.0013543622930839,0.0013543622901743,-0.0013543622926539,0.0013543622900851,-0.001292480889324,0.0012924808833986,-0.0012924808844753,0.0012924808791353,-0.0012924808898679,0.0012924808789645,-0.0012924808897673,0.001292480877358,-4.3973949684846e-11,4.3917614641137e-11,-0.0013206381090522,0.0013206381089907,-3.2319895002334e-14,-1.5053451892084e-14,-0.0013543623066625,0.0013543622766744,-0.001354362306338,0.0013543622762839,-0.0013543622767542,0.0013543623066666,-0.0013543622763812,0.0013543623062269,-0.0012924808381216,-0.0012924808381216,0.0012924808380679,0.0012924809257538,0.003566331535649,0.003500057415199,0.68266688627408,0.60389552379468,43648,1000,0.0054874996453823,0.0054874996453764,0.0054874996451598,16.54107646858,16.524098149286,4.7528611748638e-05,4.7528611748638e-05,4.7528611748638e-05,491017.02255953,0.016599062483029
21168000,0.99983443362671,0.016369385787683,0.0054564619292969,0.0054564619292975,0.0054564619290882,-0.0013199543214783,0.0013199543212767,4.3793757130781e-11,-4.402043550003e-11,-7.5977908338818e-13,5.9880800094426e-13,-0.0013536707184547,0.0013536707465042,-0.0013536707472001,0.0013536707177468,-0.001353670719394,0.0013536707487205,-0.0013536707484497,0.0013536707196974,-0.0012917920942402,0.0012917921821026,-0.001291792181781,0.00129179209467,-2.7913760194963e-12,-4.1764647648095e-12,-1.3871993278951e-12,-1.391106561473e-12,-0.0013199543235738,0.0013199543191796,-0.0013536707340018,0.0013536707322678,-0.0013536707344065,0.0013536707324092,-0.0013536707348557,0.0013536707319411,-0.0013536707344321,0.0013536707318548,-0.0012917921407687,0.0012917921348115,-0.0012917921359185,0.0012917921305509,-0.0012917921413041,0.0012917921303987,-0.0012917921412004,0.0012917921287948,-4.3966318829728e-11,4.3924889477719e-11,-0.0013199543213512,0.0013199543212967,-3.1492655568049e-14,-1.3980072918369e-14,-0.001353670748438,0.0013536707184521,-0.001353670748113,0.001353670718067,-0.001353670718527,0.0013536707484438,-0.0013536707181526,0.0013536707480052,-0.0012917920895265,-0.0012917920895265,0.001291792089505,0.0012917921771703,0.0035628268001371,0.0034994369887383,0.68422076243375,0.61307519173266,43648,1000,0.0054846661489218,0.0054846661489184,0.0054846661487,16.146631812685,16.129653680644,4.4373054501476e-05,4.4373054501476e-05,4.4373054501476e-05,488906.23810549,0.016590420856993
21254400,0.99983711875379,0.016369425938962,0.0054564753130568,0.0054564753130574,0.0054564753128481,-0.001319311528477,0.0013193115282818,4.3798374989709e-11,-4.4015620764764e-11,-7.5981631754482e-13,6.009758170719e-13,-0.001353007806806,0.0013530078348664,-0.0013530078355511,0.0013530078061061,-0.0013530078077394,0.001353007837076,-0.0013530078367987,0.0013530078080542,-0.0012911492629835,0.0012911493508538,-0.0012911493504884,0.0012911492634006,-2.7910999102842e-12,-4.1786595212906e-12,-1.395730479039e-12,-1.4008260586667e-12,-0.0013193115305782,0.0013193115261776,-0.0013530078223566,0.0013530078206232,-0.0013530078227642,0.0013530078207645,-0.0013530078232125,0.0013530078202943,-0.0013530078227908,0.0013530078202089,-0.0012911493094791,0.0012911493034966,-0.0012911493046401,0.0012911492992411,-0.0012911493100003,0.0012911492990995,-0.0012911493099078,0.0012911492975102,-4.3958518656253e-11,4.3932416100727e-11,-0.0013193115283509,0.0013193115283013,-3.3719352249876e-14,-1.5025658623502e-14,-0.0013530078368012,0.0013530078068167,-0.0013530078364765,0.001353007806435,-0.001353007806887,0.0013530078368087,-0.0013530078065181,0.0013530078363681,-0.0012911492581933,-0.0012911492581933,0.001291149258209,0.0012911493458579,0.003559504658974,0.0034988286652452,0.68577285224629,0.62225485967096,43648,1000,0.0054820025193204,0.0054820025193143,0.0054820025190996,15.775822679202,15.759837860259,4.140658143362e-05,4.140658143362e-05,4.140658143362e-05,486648.70257968,0.016582297291667
21340800,0.99983971195999,0.016369464804783,0.0054564882683303,0.0054564882683308,0.0054564882681215,-0.0013188283199263,0.0013188283197317,4.3798740096202e-11,-4.4015074310869e-11,-7.6053047219848e-13,6.0208307736351e-13,-0.0013525030801879,0.0013525031082484,-0.0013525031089328,0.001352503079488,-0.0013525030811205,0.0013525031104583,-0.0013525031101796,0.0013525030814364,-0.001290668132043,0.0012906682199145,-0.0012906682195448,0.0012906681324593,-2.7904662825823e-12,-4.1798221916541e-12,-1.3963331370988e-12,-1.4023135426368e-12,-0.0013188283220284,0.0013188283176267,-0.0013525030957381,0.0013525030940048,-0.0013525030961462,0.001352503094146,-0.0013525030965946,0.0013525030936753,-0.0013525030961735,0.0013525030935899,-0.0012906681785351,0.0012906681725499,-0.0012906681736989,0.0012906681682951,-0.0012906681790562,0.0012906681681575,-0.0012906681789662,0.0012906681665672,-4.3957575508595e-11,4.3933174459912e-11,-0.0013188283198002,0.0013188283197513,-3.4242630381735e-14,-1.4693139369972e-14,-0.0013525031101833,0.0013525030801991,-0.0013525031098584,0.0013525030798178,-0.001352503080269,0.001352503110191,-0.0013525030799,0.0013525031097508,-0.0012906681272461,-0.0012906681272461,0.0012906681272657,0.0012906682149132,0.0035568641004449,0.0034982322869808,0.68732325902073,0.63143452760917,43648,1000,0.0054800001843362,0.00548000018433,0.0054800001841155,15.485708252854,15.473137570449,3.9085666022834e-05,3.9085666022834e-05,3.9085666022834e-05,484397.72447914,0.016576190565768
21427200,0.99984221755408,0.016369502444088,0.0054565008147655,0.005456500814766,0.0054565008145567,-0.0013183507980164,0.0013183507978222,4.3798896679654e-11,-4.4014737615273e-11,-7.6097598800004e-13,6.0293352197124e-13,-0.0013520053455725,0.001352005373633,-0.0013520053743174,0.0013520053448726,-0.0013520053465047,0.0013520053758432,-0.0013520053755637,0.0013520053468214,-0.0012901917721105,0.001290191859983,-0.001290191859612,0.0012901917725277,-2.7901336456853e-12,-4.1807692215465e-12,-1.396308255506e-12,-1.4030391969391e-12,-0.0013183508001189,0.0013183507957167,-0.0013520053611228,0.0013520053593895,-0.001352005361531,0.0013520053595305,-0.0013520053619796,0.0013520053590596,-0.0013520053615588,0.001352005358974,-0.0012901918186027,0.0012901918126172,-0.0012901918137674,0.0012901918083618,-0.0012901918191237,0.0012901918082254,-0.001290191819035,0.0012901918066339,-4.3957304840393e-11,4.3933263810124e-11,-0.0013183507978903,0.0013183507978417,-3.4493122729366e-14,-1.4208801224994e-14,-0.0013520053755679,0.0013520053455838,-0.0013520053752428,0.0013520053452028,-0.0013520053456537,0.0013520053755757,-0.0013520053452845,0.0013520053751357,-0.0012901917673131,-0.0012901917673131,0.0012901917673336,0.0012901918549807,0.0035542602847108,0.0034976476310132,0.68887206962357,0.64061419554737,43648,1000,0.0054780214053979,0.0054780214053917,0.0054780214051772,15.198792764364,15.18643728064,3.6790342114915e-05,3.6790342114915e-05,3.6790342114915e-05,482201.93319046,0.016570155738683
21513600,0.99984463913655,0.016369539795812,0.0054565132653401,0.0054565132653407,0.0054565132651313,-0.0013178733134649,0.001317873313329,4.3896477110403e-11,-4.3966271625287e-11,-7.5562750433372e-13,6.1959995399966e-13,-0.0013515078574144,0.0013515078855108,-0.0013515078861723,0.0013515078567709,-0.0013515078583431,0.0013515078877345,-0.0013515078874754,0.001351507858761,-0.0012897153517617,0.0012897154403306,-0.0012897154399071,0.0012897153527087,-2.8532551879537e-12,-4.2571670052938e-12,-1.4297061763989e-12,-1.3884279668316e-12,-0.0013178733156207,0.0013178733111789,-0.0013515078729777,0.0013515078713194,-0.0013515078734163,0.0013515078714113,-0.0013515078738999,0.0013515078709599,-0.0013515078735303,0.0013515078708792,-0.0012897153991256,0.0012897153931452,-0.0012897153939711,0.0012897153888754,-0.0012897153993674,0.0012897153885112,-0.0012897153994371,0.0012897153872157,-4.4109616922658e-11,4.3828992142611e-11,-0.0013178733134299,0.0013178733132664,-2.5748448696684e-14,-5.1697950074877e-14,-0.0013515078874946,0.001351507857447,-0.0013515078871687,0.0013515078570372,-0.0013515078576069,0.0013515078874009,-0.0013515078571842,0.0013515078869336,-0.0012897153476657,-0.0012897153476657,0.0012897153476104,0.0012897154353222,0.0035516685970415,0.0034970747174513,0.7071573409546,0.77112383032438,43648,1000,0.0054760427774843,0.0054760427774961,0.0054760427772821,14.912076278937,14.89973699083,3.4496610231497e-05,3.4496610231497e-05,3.4496610231497e-05,480025.0175703,0.016564121408912
21600000,0.99984698010446,0.01636957509532,0.0054565250318429,0.0054565250318435,0.0054565250316341,-0.0013183678681594,0.0013183678679802,4.3882322601637e-11,-4.4056029000908e-11,-7.522063735528e-13,6.1674257070252e-13,-0.0013517124534211,0.0013517124815262,-0.0013517124822147,0.0013517124527255,-0.0013517124543631,0.0013517124837287,-0.0013517124834593,0.001351712454669,-0.0012902204257955,0.0012902205138269,-0.0012902205133823,0.001290220426257,-2.789430843626e-12,-4.1849712696475e-12,-1.3916961611082e-12,-1.4222231991163e-12,-0.0013183678702691,0.001318367865866,-0.0013517124689692,0.0013517124672309,-0.0013517124693734,0.0013517124673729,-0.0013517124698254,0.0013517124669222,-0.0013517124693966,0.0013517124668296,-0.0012902204723093,0.0012902204663196,-0.0012902204675627,0.0012902204620572,-0.0012902204729185,0.001290220461986,-0.0012902204728467,0.0012902204604103,-4.4008812208055e-11,4.4006616892767e-11,-0.0013183678680359,0.001318367867996,-5.1073675028404e-14,-7.1986036170126e-15,-0.0013517124834452,0.0013517124534203,-0.0013517124831125,0.0013517124530424,-0.0013517124534859,0.0013517124834651,-0.0013517124531102,0.0013517124830213,-0.0012902204209569,-0.0012902204209569,0.0012902204210721,0.0012902205087671,0.0035531082674358,0.0034965128307089,0.69139124028467,0.66996005977474,43648,1000,0.005478092595498,0.0054780925954886,0.005478092595275,14.625376413644,14.613036701021,3.2203011309154e-05,3.2203011309154e-05,3.2203011309154e-05,461106.41114672,0.016570370892306
21686400,0.99984924368928,0.016369609091308,0.0054565363638389,0.0054565363638395,0.0054565363636301,-0.0013170297145403,0.0013170297143488,4.3863572586202e-11,-4.4074433673952e-11,-7.623034180362e-13,6.0704410227819e-13,-0.0013505895530152,0.001350589581117,-0.001350589581802,0.0013505895523153,-0.0013505895539459,0.0013505895833283,-0.0013505895830459,0.0013505895542655,-0.0012888743731,0.001288874461102,-0.0012888744607192,0.0012888743735244,-2.7889109771546e-12,-4.1848774489842e-12,-1.3874991422654e-12,-1.415758308379e-12,-0.0013170297166453,0.0013170297122406,-0.0013505895685808,0.0013505895668537,-0.0013505895689953,0.0013505895669878,-0.0013505895694394,0.0013505895665232,-0.0013505895690253,0.0013505895664302,-0.0012888744196419,0.0012888744136711,-0.0012888744148332,0.0012888744093965,-0.0012888744201811,0.0012888744092773,-0.0012888744201,0.0012888744076826,-4.4015166984509e-11,4.3999650370296e-11,-0.0013170297144118,0.0013170297143706,-4.2080743873925e-14,-4.6413287988264e-16,-0.0013505895830504,0.0013505895530251,-0.0013505895827182,0.001350589552651,-0.0013505895530947,0.0013505895830589,-0.0013505895527181,0.0013505895826256,-0.0012888743682918,-0.0012888743682918,0.0012888743683352,0.0012888744560969,0.0035469764411267,0.0034959619521055,0.68840976458516,0.65084678893061,43648,1000,0.0054725471002869,0.0054725471002802,0.0054725471000658,14.338676239082,14.326336411212,2.9909409912654e-05,2.9909409912654e-05,2.9909409912654e-05,474505.75612463,0.016553460182814
21772800,0.99985143296861,0.016369641816134,0.005456547272114,0.0054565472721146,0.0054565472719053,-0.001316324676662,0.0013163246764697,4.3862086808062e-11,-4.4075641401763e-11,-7.6270852330757e-13,6.0676575784025e-13,-0.0013499261898487,0.0013499262179502,-0.0013499262186349,0.0013499261891488,-0.0013499261907786,0.0013499262201619,-0.0013499262198792,0.0013499261910991,-0.0012881675085746,0.0012881675965737,-0.0012881675961977,0.001288167508997,-2.7886852193455e-12,-4.1849938571927e-12,-1.3873232946962e-12,-1.4143694096325e-12,-0.0013163246787665,0.0013163246743621,-0.0013499262054162,0.0013499262036896,-0.0013499262058308,0.0013499262038237,-0.0013499262062751,0.0013499262033581,-0.0013499262058608,0.0013499262032657,-0.0012881675551212,0.0012881675491519,-0.0012881675503061,0.0012881675448763,-0.0012881675556532,0.00128816754475,-0.00128816755557,0.0012881675431539,-4.4016059868997e-11,4.3998593520229e-11,-0.0013163246765335,0.0013163246764917,-4.0931955439211e-14,-5.2127819295608e-16,-0.0013499262198857,0.0013499261898603,-0.001349926219554,0.0013499261894859,-0.0013499261899302,0.0013499262198934,-0.0013499261895544,0.0013499262194601,-0.001288167503771,-0.001288167503771,0.0012881675038073,0.001288167591574,0.0035434764523566,0.0034954218666905,0.68534555251761,0.63173351808648,43648,1000,0.0054696254142219,0.0054696254142153,0.0054696254140012,14.051976043794,14.039636121402,2.7615808350352e-05,2.7615808350352e-05,2.7615808350352e-05,476540.34258829,0.016544550318833
21859200,0.99985356765042,0.016369673575857,0.0054565578586884,0.005456557858689,0.0054565578584797,-0.0013158541790487,0.001315854178856,4.3861557530113e-11,-4.4075968862347e-11,-7.6275040438107e-13,6.0639171044361e-13,-0.0013494954730882,0.0013494955011899,-0.0013494955018745,0.0013494954723883,-0.0013494954740189,0.001349495503402,-0.001349495503119,0.0013494954743388,-0.0012876964155754,0.0012876965035725,-0.0012876965031984,0.0012876964159958,-2.7885768697143e-12,-4.1846211038742e-12,-1.3879005711785e-12,-1.413879895175e-12,-0.0013158541811531,0.0013158541767487,-0.0013494954886567,0.0013494954869295,-0.001349495489071,0.0013494954870638,-0.0013494954895152,0.0013494954865978,-0.0013494954891007,0.0013494954865055,-0.0012876964621233,0.001287696456152,-0.0012876964573055,0.0012876964518776,-0.001287696462652,0.0012876964517513,-0.0012876964625688,0.0012876964501549,-4.4016199394146e-11,4.3998337028064e-11,-0.0013158541789202,0.001315854178878,-4.0427147331341e-14,-1.2142570229285e-15,-0.0013494955031253,0.0013494954730997,-0.0013494955027939,0.0013494954727251,-0.0013494954731699,0.0013494955031327,-0.0013494954727941,0.0013494955026992,-0.0012876964107732,-0.0012876964107732,0.0012876964108062,0.0012876964985752,0.0035409691338928,0.0034948924550585,0.68220598439735,0.61262024724234,43648,1000,0.0054676756523192,0.0054676756523131,0.0054676756520986,13.88735402024,13.880143331814,2.6298832161917e-05,2.6298832161917e-05,2.6298832161917e-05,478573.45197536,0.016538604478623
21945600,0.99985569048897,0.016369705006686,0.0054565683356313,0.0054565683356319,0.0054565683354226,-0.0013159667608104,0.0013159667606185,4.3862106925095e-11,-4.4075524111228e-11,-7.6240376791176e-13,6.0670434795157e-13,-0.0013496450650755,0.0013496450931776,-0.0013496450938618,0.0013496450643759,-0.0013496450660062,0.0013496450953897,-0.0013496450951066,0.0013496450663266,-0.0012878103279552,0.0012878104159532,-0.0012878104155776,0.0012878103283761,-2.7885231066509e-12,-4.1843979342213e-12,-1.3880151265024e-12,-1.4131586230917e-12,-0.001315966762915,0.0013159667585109,-0.0013496450806434,0.0013496450789161,-0.0013496450810576,0.0013496450790511,-0.0013496450815019,0.0013496450785844,-0.0013496450810871,0.0013496450784929,-0.0012878103745043,0.0012878103685332,-0.0012878103696861,0.0012878103642595,-0.0012878103750331,0.0012878103641318,-0.0012878103749498,0.0012878103625356,-4.4016156630747e-11,4.3998286735483e-11,-0.0013159667606823,0.0013159667606401,-4.0245299945477e-14,-1.6619492285919e-15,-0.0013496450951117,0.0013496450650867,-0.0013496450947807,0.0013496450647119,-0.0013496450651566,0.00134964509512,-0.0013496450647812,0.0013496450946859,-0.0012878103231539,-0.0012878103231539,0.0012878103231869,0.0012878104109556,0.0035409144931125,0.0034943737123238,0.67899704822429,0.59350697639821,43648,1000,0.0054681421519538,0.0054681421519475,0.005468142151733,14.025325230137,14.030949382006,2.7402601841094e-05,2.7402601841094e-05,2.7402601841094e-05,480571.99606119,0.016540027262294
22032000,0.99985780289268,0.016369736129876,0.0054565787100279,0.0054565787100285,0.0054565787098191,-0.0013161009979074,0.0013161009977156,4.3862130983183e-11,-4.4075470112878e-11,-7.6245576632324e-13,6.0696169303103e-13,-0.0013498213396923,0.0013498213677944,-0.0013498213684787,0.0013498213389929,-0.001349821340623,0.001349821370007,-0.0013498213697236,0.001349821340944,-0.0012879423307446,0.0012879424187437,-0.0012879424183685,0.0012879423311666,-2.7882432328479e-12,-4.1842587620023e-12,-1.3880730953198e-12,-1.4124157340218e-12,-0.0013161010000119,0.0013161009956082,-0.0013498213552604,0.0013498213535336,-0.0013498213556746,0.0013498213536685,-0.0013498213561194,0.0013498213532018,-0.0013498213557041,0.0013498213531101,-0.0012879423772937,0.0012879423713229,-0.0012879423724752,0.0012879423670499,-0.0012879423778229,0.0012879423669224,-0.0012879423777393,0.0012879423653262,-4.4016463621368e-11,4.3998125505114e-11,-0.0013161009977796,0.0013161009977369,-3.9967896655251e-14,-2.4225436400135e-15,-0.0013498213697293,0.0013498213397043,-0.0013498213693983,0.0013498213393289,-0.0013498213397739,0.0013498213697371,-0.0013498213393987,0.0013498213693029,-0.0012879423259448,-0.0012879423259448,0.0012879423259767,0.0012879424137456,0.003540963774742,0.0034938654336125,0.67572332491997,0.57439370555408,43648,1000,0.0054686983731485,0.0054686983731425,0.005468698372928,14.175322366783,14.181755432198,2.8602578934261e-05,2.8602578934261e-05,2.8602578934261e-05,482775.11690088,0.016541723746478
22118400,0.99985990469024,0.016369766941699,0.0054565889806357,0.0054565889806363,0.005456588980427,-0.0013162352166133,0.0013162352164213,4.386203410379e-11,-4.4075683341658e-11,-7.6263140801633e-13,6.0694592880673e-13,-0.0013499982510213,0.0013499982791237,-0.0013499982798078,0.0013499982503216,-0.0013499982519521,0.0013499982813363,-0.0013499982810527,0.0013499982522729,-0.0012880738853766,0.0012880739733747,-0.0012880739730003,0.0012880738857986,-2.7880569444212e-12,-4.1844813434379e-12,-1.3886572539447e-12,-1.4120514510327e-12,-0.0013162352187178,0.0013162352143139,-0.0013499982665896,0.0013499982648624,-0.0013499982670032,0.0013499982649976,-0.0013499982674484,0.0013499982645305,-0.0013499982670328,0.0013499982644389,-0.0012880739319257,0.0012880739259533,-0.0012880739271063,0.0012880739216814,-0.0012880739324546,0.0012880739215552,-0.0012880739323714,0.001288073919958,-4.4016697849507e-11,4.399789921791e-11,-0.0013162352164855,0.0013162352164426,-3.9726874606545e-14,-2.9498510605455e-15,-0.0013499982810581,0.0013499982510331,-0.0013499982807273,0.0013499982506573,-0.0013499982511025,0.0013499982810662,-0.0013499982507277,0.0013499982806315,-0.0012880738805771,-0.0012880738805771,0.001288073880608,0.0012880739683771,0.0035410233625721,0.0034933674092713,0.67238877499048,0.55528043470995,43648,1000,0.0054692545182164,0.0054692545182102,0.0054692545179956,14.326074293902,14.332561482391,2.9808594351217e-05,2.9808594351217e-05,2.9808594351217e-05,485048.56547167,0.016543420001575
22204800,0.99986199561424,0.016369797515629,0.0054565991719456,0.0054565991719462,0.0054565991717368,-0.0013163680052351,0.0013163680050437,4.3862427091784e-11,-4.4075315058791e-11,-7.6242064974897e-13,6.0729632986693e-13,-0.0013501740401256,0.0013501740682284,-0.0013501740689121,0.0013501740394266,-0.0013501740410564,0.0013501740704411,-0.0013501740701571,0.0013501740413778,-0.0012882038272384,0.0012882039152379,-0.0012882039148623,0.0012882038276611,-2.7878496566361e-12,-4.184372052659e-12,-1.3889118049919e-12,-1.4114694688119e-12,-0.0013163680073398,0.001316368002936,-0.0013501740556946,0.0013501740539669,-0.0013501740561081,0.0013501740541025,-0.0013501740565536,0.0013501740536351,-0.0013501740561376,0.001350174053544,-0.0012882038737885,0.0012882038678153,-0.001288203868968,0.001288203863544,-0.0012882038743158,0.0012882038634168,-0.0012882038742328,0.0012882038618201,-4.4016827022031e-11,4.399783845506e-11,-0.0013163680051077,0.0013163680050645,-3.940997252298e-14,-3.4973049244411e-15,-0.0013501740701629,0.0013501740401378,-0.0013501740698327,0.001350174039762,-0.0013501740402076,0.0013501740701708,-0.0013501740398331,0.0013501740697361,-0.0012882038224388,-0.0012882038224388,0.0012882038224699,0.0012882039102386,0.003541086966899,0.0034928794552812,0.67070602408013,0.54581434588776,43648,1000,0.005469804738272,0.005469804738266,0.0054698047380514,14.476876643499,14.483367532583,3.1015013147991e-05,3.1015013147991e-05,3.1015013147991e-05,487383.78105831,0.016545098185297
22291200,0.99986407539295,0.016369828634603,0.0054566095449372,0.0054566095449377,0.0054566095447284,-0.0013165801139347,0.0013165801137401,4.3844662222724e-11,-4.4070581673981e-11,-7.6222859679252e-13,6.0502022292985e-13,-0.0013504079315322,0.0013504079596304,-0.001350407960304,0.0013504079308331,-0.0013504079324654,0.0013504079618358,-0.0013504079615512,0.0013504079327792,-0.0012884143588409,0.0012884144468158,-0.0012884144464346,0.0012884143592338,-2.7940773487373e-12,-4.1883532251546e-12,-1.4106964336041e-12,-1.365902978484e-12,-0.0013165801160346,0.0013165801116369,-0.0013504079471146,0.0013504079453696,-0.0013504079475103,0.0013504079455276,-0.0013504079479691,0.0013504079450387,-0.0013504079475344,0.0013504079449732,-0.0012884144053683,0.0012884143993508,-0.0012884144005103,0.0012884143951863,-0.0012884144058953,0.0012884143949881,-0.0012884144058075,0.0012884143933784,-4.4020110509958e-11,4.3971994656335e-11,-0.0013165801138215,0.0013165801137479,-2.6456191781501e-14,-5.7138283876414e-14,-0.0013504079615676,0.0013504079315474,-0.0013504079612543,0.0013504079311525,-0.0013504079316143,0.0013504079615664,-0.001350407931267,0.0013504079611072,-0.0012884143540507,-0.0012884143540507,0.001288414354037,0.0012884144417974,0.0035414895665304,0.0034924015891847,0.68622998651197,0.6415819639154,43648,1000,0.0054706836799852,0.0054706836799784,0.0054706836797667,14.627682726218,14.634173582776,3.2221461809741e-05,3.2221461809741e-05,3.2221461809741e-05,488196.75613648,0.016547778744999
22377600,0.99986614375653,0.016369859812169,0.0054566199374592,0.0054566199374598,0.0054566199372505,-0.0013176592021989,0.0013176592019467,4.3819082180647e-11,-4.4109125790602e-11,-8.1300210452024e-13,5.1905267270891e-13,-0.0013512739756696,0.001351274003699,-0.0013512740043809,0.0013512739748799,-0.0013512739766682,0.0013512740059709,-0.0013512740056533,0.0013512739769518,-0.0012895050167785,0.0012895051046037,-0.0012895051043293,0.0012895050171371,-2.8047142590811e-12,-4.1632482273891e-12,-1.4044181254021e-12,-1.3302317446862e-12,-0.0013176592042693,0.0013176591998625,-0.0013512739912929,0.001351273989489,-0.0013512739916238,0.0013512739896462,-0.001351273992068,0.0013512739890348,-0.0013512739916553,0.0013512739890648,-0.0012895050633296,0.001289505057352,-0.0012895050584585,0.0012895050531009,-0.001289505063657,0.0012895050526936,-0.0012895050636738,0.0012895050512159,-4.4064948434308e-11,4.394042909123e-11,-0.0013176592020642,0.0013176592019695,1.0723848864367e-14,-4.9961620765604e-14,-0.0013512740056593,0.0013512739757352,-0.0013512740054676,0.0013512739753366,-0.0013512739758686,0.0013512740057186,-0.0013512739754294,0.0013512740052973,-0.001289505011986,-0.001289505011986,0.0012895050118275,0.0012895050995446,0.0035454965132313,0.0034919334785324,0.69128711792358,0.67319470915953,43648,1000,0.0054751556023569,0.0054751556023281,0.0054751556021251,14.778488910339,14.784979632968,3.342791128271e-05,3.342791128271e-05,3.342791128271e-05,472716.34364755,0.016561415451269
22464000,0.99986820043761,0.016369890982954,0.0054566303277207,0.0054566303277213,0.005456630327512,-0.0013182027218283,0.0013182027215995,4.3851630186328e-11,-4.4095685730599e-11,-7.5337922007608e-13,5.5481458020718e-13,-0.0013517492774157,0.0013517493054662,-0.0013517493061431,0.0013517492767132,-0.0013517492783341,0.0013517493076614,-0.0013517493074553,0.0013517492786441,-0.0012900518143491,0.0012900519024881,-0.0012900519020713,0.0012900518147445,-2.8114043488211e-12,-4.1465502669121e-12,-1.4292213382692e-12,-1.3331400381928e-12,-0.0013182027239053,0.0013182027195166,-0.0013517492929645,0.0013517492911913,-0.0013517492933627,0.0013517492913658,-0.0013517492938168,0.0013517492908865,-0.001351749293389,0.0013517492908378,-0.0012900518609443,0.0012900518549497,-0.0012900518559698,0.0012900518508529,-0.0012900518613741,0.0012900518504811,-0.0012900518612981,0.0012900518489466,-4.4027530547987e-11,4.3995811575803e-11,-0.0013182027216962,0.0013182027216244,1.7270560631522e-14,-6.4872577010832e-14,-0.0013517493074647,0.0013517492774146,-0.0013517493071117,0.0013517492770173,-0.0013517492775196,0.001351749307433,-0.0013517492771729,0.0013517493070195,-0.0012900518095153,-0.0012900518095153,0.001290051809587,0.0012900518973455,0.0035472922275067,0.0034914749125847,0.69484447939156,0.69548811134313,43648,1000,0.0054774079872168,0.0054774079872046,0.0054774079869948,14.929295088508,14.935785683161,3.4634360708064e-05,3.4634360708064e-05,3.4634360708064e-05,467370.32938176,0.0165682841498
22550400,0.9998702451714,0.016369922070921,0.0054566406903764,0.005456640690377,0.0054566406901676,-0.0013186699898165,0.0013186699896316,4.3919067890859e-11,-4.4070183097922e-11,-7.1655181571624e-13,5.8498154098018e-13,-0.0013521687784495,0.001352168806553,-0.0013521688072344,0.0013521687777297,-0.0013521687793984,0.001352168808713,-0.0013521688085117,0.0013521687796393,-0.0012905212316116,0.0012905213198308,-0.0012905213193633,0.0012905212322774,-2.7483076881455e-12,-4.0786724581796e-12,-1.45267097484e-12,-1.3768057042367e-12,-0.0013186699919116,0.0013186699875333,-0.0013521687940341,0.0013521687922478,-0.0013521687944366,0.0013521687924102,-0.0013521687949037,0.0013521687919701,-0.0013521687944579,0.0013521687919027,-0.0012905212782717,0.0012905212721879,-0.0012905212733765,0.0012905212680011,-0.0012905212787647,0.001290521268073,-0.0012905212785052,0.0012905212664667,-4.4061008172327e-11,4.4006761241299e-11,-0.0013186699897004,0.0013186699896342,-3.8025308941149e-16,-6.031206927239e-14,-0.0013521688084659,0.0013521687784248,-0.0013521688081779,0.0013521687780622,-0.0013521687785096,0.0013521688084866,-0.0013521687781795,0.0013521688080489,-0.0012905212267939,-0.0012905212267939,0.0012905212269235,0.0012905213145233,0.0035487812953263,0.003491025680607,0.69696628177899,0.70836833440602,43648,1000,0.0054793443622479,0.0054793443622413,0.0054793443620128,15.080101228097,15.086591733353,3.5840809824773e-05,3.5840809824773e-05,3.5840809824773e-05,463460.42509654,0.016574189265481
22636800,0.99987227369395,0.016369953009356,0.0054566510031881,0.0054566510031887,0.0054566510029794,-0.0013190029394395,0.0013190029392191,4.3880090081604e-11,-4.4116093695385e-11,-7.3994045415057e-13,5.4770762084932e-13,-0.0013524748706197,0.001352474898769,-0.0013524748994509,0.001352474869931,-0.0013524748715883,0.001352474900945,-0.001352474900729,0.0013524748718567,-0.0012908550178065,0.0012908551057471,-0.0012908551054003,0.0012908550181665,-2.7980010524002e-12,-4.1111531717985e-12,-1.3968156811809e-12,-1.3254710077706e-12,-0.0013190029415038,0.0013190029371496,-0.0013524748862415,0.0013524748844666,-0.0013524748866154,0.001352474884628,-0.0013524748870608,0.0013524748841727,-0.0013524748866129,0.0013524748841043,-0.0012908550642438,0.001290855058358,-0.0012908550594214,0.0012908550541666,-0.0012908550648142,0.001290855053924,-0.0012908550646601,0.0012908550524466,-4.4050227560491e-11,4.4022944364562e-11,-0.0013190029393094,0.0013190029392401,-1.6647403197965e-14,-7.2875391353877e-14,-0.0013524749006936,0.001352474870637,-0.0013524749004091,0.0013524748702476,-0.0013524748706998,0.0013524749007096,-0.0013524748703715,0.0013524749002538,-0.0012908550129464,-0.0012908550129464,0.0012908550129522,0.001290855100714,0.0035497207031452,0.0034905855750486,0.69909114283661,0.7212485574689,43648,1000,0.0054807241028157,0.0054807241028049,0.0054807241025895,15.200074382702,15.205269390036,3.6800595061616e-05,3.6800595061616e-05,3.6800595061616e-05,460926.07815952,0.016578396957929
22723200,0.99987427701372,0.016369983658806,0.0054566612196715,0.0054566612196721,0.0054566612194627,-0.0013192017955222,0.0013192017953002,4.3874812419303e-11,-4.4122863312107e-11,-7.5230366469827e-13,5.5650517561947e-13,-0.0013526476364173,0.0013526476645326,-0.0013526476652191,0.001352647635716,-0.0013526476373742,0.0013526476667276,-0.0013526476664789,0.0013526476376518,-0.0012910542320055,0.0012910543200279,-0.0012910543196916,0.0012910542323548,-2.8034291806923e-12,-4.1391233761515e-12,-1.4240674663047e-12,-1.3456963604881e-12,-0.0013192017976002,0.0013192017932204,-0.0013526476520093,0.0013526476502379,-0.0013526476523886,0.0013526476504167,-0.0013526476528443,0.0013526476499243,-0.0013526476523965,0.0013526476498708,-0.0012910542785619,0.0012910542725694,-0.0012910542736691,0.0012910542683988,-0.0012910542790761,0.0012910542681739,-0.0012910542789564,0.0012910542666851,-4.4060052672106e-11,4.4014539268391e-11,-0.0013192017953965,0.0013192017953201,-9.0001074058379e-15,-7.2251175129136e-14,-0.0013526476664625,0.0013526476364218,-0.0013526476661719,0.0013526476360188,-0.001352647636492,0.0013526476664703,-0.0013526476361583,0.0013526476660019,-0.0012910542272129,-0.0012910542272129,0.0012910542271753,0.0012910543150353,0.0035501074731421,0.0034901543678374,0.70122248308086,0.73412878053179,43648,1000,0.0054815481703228,0.0054815481703188,0.0054815481701035,15.250966633601,15.253228775121,3.7207733068811e-05,3.7207733068811e-05,3.7207733068811e-05,458434.11456614,0.016580910018933
22809600,0.99987625499117,0.016370014014944,0.0054566713383842,0.0054566713383848,0.0054566713381754,-0.0013193946413276,0.0013193946411183,4.3878181904603e-11,-4.4109041381416e-11,-7.4811608674355e-13,5.7558265163921e-13,-0.0013528134683016,0.0013528134964141,-0.0013528134971052,0.001352813467596,-0.001352813469245,0.0013528134986125,-0.0013528134983603,0.0013528134695351,-0.0012912481793165,0.0012912482673492,-0.0012912482669931,0.0012912481797172,-2.8043376235282e-12,-4.1544683191387e-12,-1.4266727396565e-12,-1.3663929929261e-12,-0.0013193946434161,0.0013193946390255,-0.001352813483884,0.0013528134821327,-0.0013528134842702,0.0013528134822909,-0.0013528134847279,0.0013528134818076,-0.0013528134842829,0.0013528134817471,-0.0012912482259171,0.0012912482198719,-0.001291248221019,0.0012912482156882,-0.0012912482264223,0.0012912482154981,-0.0012912482262512,0.0012912482139562,-4.4060025143535e-11,4.4003873270701e-11,-0.0013193946412073,0.0013193946411316,-1.5882720676139e-14,-6.1297862686489e-14,-0.0013528134983512,0.0013528134683058,-0.0013528134980445,0.0013528134679066,-0.0013528134683817,0.0013528134983625,-0.001352813468038,0.0013528134978949,-0.0012912481745335,-0.0012912481745335,0.0012912481745141,0.0012912482623246,0.0035504772912854,0.0034897318791403,0.70336492924395,0.74700900359468,43648,1000,0.0054823473352915,0.0054823473352828,0.00548234733507,15.299110909338,15.301188160207,3.7592887274704e-05,3.7592887274704e-05,3.7592887274704e-05,455931.44901505,0.01658334712031
22896000,0.999878207827,0.016370041907671,0.0054566806359596,0.0054566806359602,0.0054566806357509,-0.0013195862087537,0.0013195862086038,4.3914876901243e-11,-4.409951973112e-11,-7.9584221697832e-13,7.1535679339983e-13,-0.0013529782037496,0.0013529782318578,-0.0013529782325709,0.0013529782030759,-0.0013529782046426,0.0013529782341104,-0.0013529782337688,0.0013529782050584,-0.0012914407832032,0.0012914408712472,-0.0012914408708231,0.0012914407836347,-2.7389233277724e-12,-4.2759413141044e-12,-1.5197009565319e-12,-1.4209355325713e-12,-0.0013195862109195,0.0013195862064363,-0.0013529782193866,0.0013529782176079,-0.0013529782197657,0.0013529782177319,-0.0013529782202805,0.0013529782172163,-0.0013529782198234,0.0013529782171352,-0.0012914408299998,0.0012914408238409,-0.0012914408250342,0.0012914408194857,-0.0012914408302414,0.0012914408195082,-0.001291440830208,0.0012914408178182,-4.4068827551098e-11,4.402256164096e-11,-0.001319586208666,0.0013195862085847,1.6609022017543e-14,-6.7224563982774e-14,-0.0013529782338197,0.0013529782037336,-0.0013529782335259,0.0013529782033777,-0.0013529782038676,0.0013529782337934,-0.0013529782035268,0.0013529782333458,-0.0012914407785041,-0.0012914407785041,0.0012914407784447,0.0012914408662563,0.0035508504594378,0.0034893173220177,0.65484037867194,0.47808803407847,43648,1000,0.0054831412019327,0.0054831412019291,0.0054831412017113,15.347082281435,15.349147545293,3.797665825148e-05,3.797665825148e-05,3.797665825148e-05,453449.80114292,0.016585768070044
22982400,0.9998801357425,0.016370070093905,0.0054566900313711,0.0054566900313717,0.0054566900311624,-0.0013175537987635,0.0013175537986211,4.3922950242844e-11,-4.4086940409527e-11,-8.0249042564482e-13,6.986915966278e-13,-0.0013515157552192,0.0013515157833513,-0.0013515157840292,0.001351515754525,-0.0013515157561083,0.0013515157856084,-0.0013515157852335,0.0013515157565206,-0.0012893750771576,0.0012893751653264,-0.0012893751648514,0.0012893750776707,-2.7459067026704e-12,-4.2740536070667e-12,-1.4798568208017e-12,-1.3730261138182e-12,-0.0013175538009176,0.0013175537964644,-0.0013515157708295,0.0013515157690539,-0.0013515157712028,0.0013515157692329,-0.0013515157717293,0.0013515157686773,-0.0013515157712722,0.0013515157686294,-0.0012893751238986,0.0012893751176888,-0.0012893751189514,0.0012893751135543,-0.0012893751242532,0.001289375113483,-0.001289375124296,0.0012893751117528,-4.4074992274534e-11,4.4011878967309e-11,-0.0013175537986836,0.0013175537985945,-5.0501398393415e-16,-9.1955867281964e-14,-0.0013515157852844,0.0013515157552321,-0.0013515157849969,0.0013515157548152,-0.0013515157553067,0.0013515157852903,-0.0013515157549741,0.0013515157848142,-0.0012893750724353,-0.0012893750724353,0.0012893750723846,0.0012893751602256,0.0035420032269128,0.0034889113019945,0.6701566206848,0.56798774821511,43648,1000,0.0054747184696563,0.0054747184696511,0.0054747184694358,15.395042544615,15.397106930378,3.8360340356919e-05,3.8360340356919e-05,3.8360340356919e-05,494211.24697608,0.016560083940483
23068800,0.99988203895963,0.016370097936782,0.0054566993123299,0.0054566993123305,0.0054566993121212,-0.0013184030234448,0.0013184030232893,4.3916449441439e-11,-4.4093776847737e-11,-7.9365951895237e-13,6.762402236783e-13,-0.0013521620410775,0.0013521620692071,-0.0013521620698877,0.001352162040381,-0.0013521620419766,0.0013521620714531,-0.0013521620711014,0.0013521620423659,-0.0012902375676594,0.0012902376557988,-0.001290237655354,0.0012902375681509,-2.7566301986044e-12,-4.25331559354e-12,-1.4638627211752e-12,-1.3724659250493e-12,-0.0013184030255855,0.0013184030211457,-0.0013521620566805,0.0013521620549125,-0.0013521620570578,0.0013521620550863,-0.0013521620575708,0.001352162054547,-0.0013521620571189,0.0013521620544943,-0.0012902376143681,0.0012902376082141,-0.001290237609438,0.0012902376040565,-0.0012902376147573,0.0012902376039582,-0.0012902376147715,0.0012902376022607,-4.4073118831767e-11,4.4014034519105e-11,-0.0013184030233556,0.001318403023272,-4.4649224232142e-15,-8.0964703054486e-14,-0.0013521620711419,0.00135216204109,-0.0013521620708489,0.0013521620406772,-0.0013521620411628,0.0013521620711473,-0.0013521620408254,0.0013521620706755,-0.0012902375629321,-0.0012902375629321,0.0012902375628857,0.0012902376507252,0.0035451230025797,0.0034885134712302,0.67108483162566,0.57343655006176,43648,1000,0.0054782378039488,0.0054782378039427,0.0054782378037281,15.443001993005,15.445066315464,3.8744015944037e-05,3.8744015944037e-05,3.8744015944037e-05,478853.51180438,0.016570815835946
23155200,0.99988391769991,0.016370125491057,0.0054567084970884,0.005456708497089,0.0054567084968796,-0.0013185402027807,0.0013185402026148,4.3904263401949e-11,-4.4095510030084e-11,-7.9060808275988e-13,6.568704036483e-13,-0.0013522876337254,0.0013522876618492,-0.0013522876625282,0.0013522876330282,-0.001352287634631,0.001352287664091,-0.0013522876637509,0.0013522876350114,-0.0012903753463357,0.0012903754344568,-0.0012903754340462,0.0012903753468059,-2.7659883244848e-12,-4.2408026228615e-12,-1.4572617757707e-12,-1.3588001072365e-12,-0.0013185402049105,0.0013185402004824,-0.0013522876493244,0.0013522876475602,-0.001352287649702,0.0013522876477372,-0.0013522876502115,0.0013522876472027,-0.0013522876497563,0.0013522876471523,-0.0012903753930336,0.0012903753869065,-0.0012903753880735,0.0012903753827422,-0.0012903753934355,0.0012903753826196,-0.0012903753934565,0.001290375380955,-4.4072393500984e-11,4.4005504426752e-11,-0.0013185402026875,0.0013185402026017,3.8792638440936e-15,-7.94153386218e-14,-0.0013522876637904,0.0013522876337412,-0.0013522876634976,0.0013522876333218,-0.0013522876338131,0.0013522876637903,-0.0013522876334751,0.0013522876633116,-0.0012903753416225,-0.0012903753416225,0.0012903753415508,0.0012903754294129,0.0035452959831963,0.003488123681998,0.67258223750019,0.58224788857419,43648,1000,0.0054788062746173,0.0054788062746119,0.0054788062743971,15.490961390374,15.49302570055,3.9127691122992e-05,3.9127691122992e-05,3.9127691122992e-05,477308.56908999,0.01657254945109
23241600,0.99988577218418,0.016370153104222,0.0054567177014766,0.0054567177014772,0.0054567177012679,-0.0013187046025919,0.0013187046024484,4.3934558417634e-11,-4.408703999472e-11,-7.7246604875128e-13,6.5810613060357e-13,-0.0013524337912047,0.0013524338193284,-0.0013524338200171,0.0013524337905152,-0.0013524337921111,0.0013524338215702,-0.0013524338212723,0.00135243379253,-0.0012905403668405,0.0012905404549758,-0.0012905404545768,0.0012905403671162,-2.7627158950435e-12,-4.2199653182503e-12,-1.4354909114439e-12,-1.3391630012543e-12,-0.001318704604721,0.0013187046003162,-0.0013524338067985,0.0013524338050076,-0.0013524338071684,0.0013524338052195,-0.0013524338076949,0.0013524338047098,-0.0013524338072316,0.0013524338046773,-0.0012905404135629,0.0012905404074872,-0.0012905404086314,0.0012905404034779,-0.0012905404141665,0.0012905404033283,-0.0012905404139483,0.0012905404013005,-4.4112304664078e-11,4.3985674238433e-11,-0.0013187046025485,0.0013187046023944,-3.0118374021995e-14,-1.1160035539163e-13,-0.0013524338212591,0.0013524337911827,-0.0013524338210065,0.0013524337907703,-0.0013524337913104,0.0013524338212117,-0.0013524337909663,0.0013524338207436,-0.0012905403621512,-0.0012905403621512,0.0012905403621245,0.0012905404502103,0.0035455898923207,0.0034877418688436,0.68274347751439,0.64533473333087,43648,1000,0.0054794875531709,0.0054794875531647,0.005479487552969,15.538920845053,15.540985085635,3.9511366760424e-05,3.9511366760424e-05,3.9511366760424e-05,475256.69197933,0.016574627064692
23328000,0.99988760263262,0.016370180646589,0.0054567268822657,0.0054567268822663,0.0054567268820569,-0.0013193035389195,0.0013193035387688,4.3922351555251e-11,-4.4105838067511e-11,-7.5685840790693e-13,6.667722188017e-13,-0.0013528997230066,0.0013528997512063,-0.0013528997518413,0.001352899722369,-0.0013528997239064,0.001352899753387,-0.0013528997530639,0.0013528997243376,-0.0012911437313352,0.001291143819442,-0.0012911438190324,0.0012911437317138,-2.7844772302496e-12,-4.233829247658e-12,-1.4561511920512e-12,-1.3714918077491e-12,-0.0013193035410574,0.0013193035366451,-0.0013528997385725,0.0013528997368563,-0.0013528997390173,0.0013528997370209,-0.0013528997394689,0.0013528997365201,-0.0013528997390416,0.0013528997364637,-0.0012911437779119,0.0012911437719525,-0.0012911437729839,0.0012911437677685,-0.0012911437785284,0.0012911437676007,-0.0012911437784586,0.0012911437658947,-4.4080411638388e-11,4.4025281704923e-11,-0.0013193035388094,0.0013193035387466,2.2226673931545e-14,-4.7086502716134e-14,-0.0013528997530925,0.0013528997230386,-0.001352899752822,0.0013528997226299,-0.0013528997231118,0.0013528997530646,-0.0013528997227463,0.0013528997526261,-0.0012911437265362,-0.0012911437265362,0.0012911437265589,0.0012911438144541,0.0035476925436366,0.0034873678369057,0.68985724480922,0.69102081424217,43648,1000,0.0054819696567049,0.0054819696567344,0.0054819696564308,15.586880305955,15.588944470721,3.9895042447641e-05,3.9895042447641e-05,3.9895042447641e-05,465202.64879192,0.016582196073225
23414400,0.99988941584036,0.016370207369966,0.005456735790058,0.0054567357900586,0.0054567357898493,-0.0013198642872568,0.0013198642870794,4.3891893721011e-11,-4.4099879014262e-11,-7.8678184670759e-13,6.4220485167084e-13,-0.0013533563710812,0.0013533563992095,-0.001353356399892,0.0013533563703873,-0.0013533563719953,0.0013533564014398,-0.0013533564011187,0.0013533563723565,-0.0012917123884747,0.0012917124765642,-0.0012917124761576,0.0012917123889424,-2.7815933771729e-12,-4.237501429593e-12,-1.4474733983283e-12,-1.3670611783959e-12,-0.0013198642893791,0.0013198642849534,-0.0013533563866705,0.0013533563849195,-0.0013533563870557,0.001353356385084,-0.0013533563875433,0.0013533563845651,-0.0013533563871019,0.0013533563845064,-0.0012917124351637,0.0012917124290571,-0.0012917124302146,0.0012917124248758,-0.0012917124356191,0.0012917124247247,-0.001291712435589,0.0012917124230612,-4.4062264692765e-11,4.4006431074914e-11,-0.0013198642871515,0.0013198642870774,1.3857223730151e-15,-6.4192744838062e-14,-0.0013533564011464,0.0013533563710906,-0.0013533564008371,0.0013533563706836,-0.0013533563711674,0.0013533564011449,-0.0013533563708156,0.0013533564006772,-0.001291712383757,-0.001291712383757,0.0012917123837192,0.0012917124715372,0.0035496475837714,0.0034870012281593,0.67568630633008,0.60514741048134,43648,1000,0.005484293461068,0.0054842934610604,0.0054842934608459,15.691879718757,15.696340688961,4.0735037750059e-05,4.0735037750059e-05,4.0735037750059e-05,457952.13876132,0.01658928251308
23500800,0.99989122505829,0.016370233436628,0.0054567444789454,0.005456744478946,0.0054567444787367,-0.0013196231430391,0.0013196231429162,4.3895903598512e-11,-4.406905713232e-11,-7.3214622167079e-13,6.1738984504638e-13,-0.0013532920788994,0.0013532921071901,-0.0013532921077372,0.0013532920783178,-0.0013532920798271,0.001353292109239,-0.0013532921089431,0.0013532920801996,-0.0012914658185308,0.0012914659066077,-0.0012914659062353,0.0012914658188406,-2.8406088684078e-12,-4.2159199712447e-12,-1.4574473583366e-12,-1.507108694158e-12,-0.0013196231452212,0.0013196231407254,-0.0013532920945519,0.0013532920926815,-0.0013532920948866,0.0013532920928363,-0.0013532920953871,0.0013532920924104,-0.0013532920949667,0.0013532920922496,-0.0012914658652223,0.001291465859121,-0.0012914658604679,0.0012914658549868,-0.00129146586594,0.0012914658551876,-0.0012914658657975,0.0012914658533623,-4.400672394832e-11,4.4035004319668e-11,-0.0013196231429317,0.0013196231429535,-4.3142682020679e-14,2.1832009517684e-14,-0.0013532921089526,0.0013532920790303,-0.0013532921085776,0.0013532920786842,-0.001353292078898,0.0013532921089779,-0.001353292078592,0.0013532921086064,-0.0012914658137968,-0.0012914658137968,0.0012914658139088,0.0012914659017681,0.0035482980505842,0.0034866419445764,0.66055986997557,0.51927400672051,43648,1000,0.0054832939636632,0.0054832939636451,0.005483293963518,15.912850478275,15.922241098743,4.2502803826198e-05,4.2502803826198e-05,4.2502803826198e-05,469671.33312232,0.016586235254674
23587200,0.99989303036091,0.016370260150444,0.0054567533835508,0.0054567533835514,0.005456753383342,-0.0013193626605475,0.001319362660375,4.3875676569375e-11,-4.4060201755786e-11,-7.8180035183002e-13,6.3687524978064e-13,-0.0013532220496776,0.0013532220777823,-0.0013532220784486,0.0013532220489763,-0.0013532220505922,0.0013532220800023,-0.0013532220796794,0.0013532220509345,-0.0012911916817392,0.0012911917697965,-0.0012911917693266,0.0012911916821471,-2.7670361160049e-12,-4.2125773674766e-12,-1.3729792328975e-12,-1.4633465604729e-12,-0.0013193626626718,0.0013193626582478,-0.0013532220652287,0.0013532220635192,-0.0013532220656697,0.0013532220636363,-0.0013532220660986,0.0013532220631728,-0.0013532220657154,0.0013532220630654,-0.0012911917282616,0.0012911917223185,-0.0012911917235729,0.0012911917180241,-0.00129119172876,0.0012911917179063,-0.0012911917287502,0.0012911917162679,-4.3990441004577e-11,4.4022260444279e-11,-0.0013193626604133,0.0013193626604023,-6.69924828374e-14,3.5509062281345e-14,-0.0013532220796973,0.0013532220496915,-0.0013532220793446,0.0013532220493374,-0.0013532220497477,0.0013532220797134,-0.0013532220493536,0.0013532220793081,-0.0012911916768852,-0.0012911916768852,0.0012911916770248,0.001291191764804,0.0035468734504975,0.0034862902012042,0.67844356297759,0.62948455144777,43648,1000,0.0054822143525238,0.0054822143525179,0.0054822143523026,16.138440544416,16.148141508523,4.4307524355332e-05,4.4307524355332e-05,4.4307524355332e-05,482586.12305883,0.016582943637141
23673600,0.99989483131098,0.016370287404129,0.0054567624681123,0.0054567624681129,0.0054567624679035,-0.001320697396564,0.0013206973963444,4.3856535683527e-11,-4.4087289398866e-11,-7.2381777021691e-13,5.4163404168711e-13,-0.0013543132015281,0.0013543132296303,-0.0013543132303121,0.0013543132008195,-0.0013543132024832,0.0013543132318024,-0.0013543132315848,0.0013543132027328,-0.0012925401365457,0.001292540224509,-0.0012925402241142,0.0012925401368658,-2.8228330585054e-12,-4.1148110012308e-12,-1.3731887559085e-12,-1.4209461793049e-12,-0.0013206973986413,0.0013206973942658,-0.0013543132170927,0.0013543132153825,-0.0013543132175177,0.0013543132155057,-0.0013543132179204,0.0013543132150857,-0.0013543132175143,0.0013543132149826,-0.0012925401829974,0.0012925401770296,-0.0012925401782697,0.0012925401728186,-0.0012925401836156,0.0012925401726262,-0.0012925401833866,0.0012925401710963,-4.4005335049574e-11,4.4015336273455e-11,-0.0013206973964174,0.0013206973963856,-5.7427275047932e-14,3.073670807349e-15,-0.0013543132315635,0.0013543132015419,-0.0013543132312202,0.0013543132011739,-0.0013543132016103,0.0013543132315826,-0.0013543132012218,0.0013543132311549,-0.0012925401316168,-0.0012925401316168,0.0012925401317523,0.0012925402195022,0.0035520728224956,0.0034859458185671,0.69385336824991,0.7352820555999,43648,1000,0.0054877456255461,0.0054877456255433,0.0054877456253276,16.364321088415,16.374041918305,4.6114568707318e-05,4.6114568707318e-05,4.6114568707318e-05,464997.13588167,0.01659981146422
23760000,0.99989662743742,0.016370314893747,0.0054567716313185,0.005456771631319,0.0054567716311097,-0.0013219596080761,0.0013219596077987,4.3820593134489e-11,-4.4140549301224e-11,-8.1205707456673e-13,4.5159173359429e-13,-0.0013553545016117,0.001355354529443,-0.0013553545299575,0.0013553545004994,-0.0013553545023292,0.0013553545317173,-0.0013553545313282,0.0013553545027389,-0.0012938066257938,0.0012938067134101,-0.0012938067133732,0.0012938066257433,-2.784731516599e-12,-4.07980989402e-12,-1.4499791747198e-12,-1.4576990271189e-12,-0.0013219596101056,0.0013219596057402,-0.0013553545171729,0.0013553545152278,-0.0013553545175451,0.0013553545158627,-0.0013553545177556,0.0013553545150428,-0.0013553545175141,0.0013553545149934,-0.0012938066720434,0.0012938066653857,-0.0012938066669991,0.0012938066616121,-0.0012938066721645,0.001293806661403,-0.0012938066728945,0.0012938066601471,-4.4092114986741e-11,4.3949207028952e-11,-0.0013219596080183,0.0013219596078155,-1.3667764812108e-13,-1.1194166849416e-13,-0.0013553545317183,0.0013553545016287,-0.0013553545314688,0.0013553545012068,-0.0013553545016214,0.0013553545314327,-0.0013553545013201,0.0013553545311166,-0.0012938066207113,-0.0012938066207113,0.001293806619874,0.0012938067081431,0.0035569724817346,0.0034856085697122,0.70145889501995,0.78916561469538,43648,1000,0.0054929763749523,0.0054929763748924,0.0054929763748674,16.590221063295,16.599942328087,4.7921768506358e-05,4.7921768506358e-05,4.7921768506358e-05,449834.31984252,0.016615762929818
23846400,0.99989841826535,0.016370342567263,0.0054567808558236,0.0054567808558242,0.0054567808556149,-0.0013228027428516,0.0013228027427669,4.3939026987004e-11,-4.3984357484542e-11,-6.6865239665768e-13,5.8706241858726e-13,-0.0013560801106639,0.0013560801380996,-0.0013560801388717,0.0013560801093483,-0.0013560801114194,0.0013560801410497,-0.0013560801400787,0.0013560801117491,-0.0012946549618703,0.0012946550501582,-0.0012946550491184,0.0012946549623562,-2.7308279868442e-12,-4.0183283016522e-12,-1.322850705466e-12,-1.3667333060592e-12,-0.001322802745017,0.0013228027406891,-0.0013560801262703,0.0013560801240344,-0.0013560801264488,0.0013560801245901,-0.001356080126753,0.0013560801238959,-0.001356080126615,0.0013560801241287,-0.0012946550081456,0.0012946550025131,-0.0012946550035044,0.0012946549982188,-0.001294655008705,0.0012946549983273,-0.0012946550088753,0.001294654996723,-4.4077547990577e-11,4.3926306522664e-11,-0.0013228027428485,0.0013228027425999,-2.3083988917631e-13,-1.7480783621119e-13,-0.001356080140073,0.0013560801105663,-0.0013560801404914,0.0013560801098183,-0.0013560801105151,0.0013560801400256,-0.0013560801100504,0.001356080139777,-0.0012946549568265,-0.0012946549568265,0.0012946549572445,0.0012946550446028,0.0035601428548202,0.0034852782986879,0.70799935651531,0.83677736959159,43648,1000,0.0054964703536941,0.0054964703538755,0.0054964703533416,16.816122617618,16.825842737868,4.972898094094e-05,4.972898094094e-05,4.972898094094e-05,442190.97417007,0.016626418338653
23932800,0.99990020331841,0.016370370401379,0.0054567901338624,0.005456790133863,0.0054567901336536,-0.0013235915362135,0.0013235915359852,4.3784790051778e-11,-4.4101777073924e-11,-8.1403677879401e-13,6.6519626694595e-13,-0.0013567685561975,0.0013567685841704,-0.0013567685850027,0.0013567685551874,-0.0013567685568173,0.0013567685862096,-0.0013567685859554,0.0013567685573153,-0.0012954464463573,0.0012954465358458,-0.0012954465345685,0.0012954464464137,-2.7722209576115e-12,-4.2726071218441e-12,-1.4404932586256e-12,-1.4611978319975e-12,-0.001323591538268,0.0013235915337683,-0.0013567685715232,0.0013567685698312,-0.0013567685719447,0.0013567685698587,-0.0013567685724235,0.001356768569301,-0.001356768571985,0.0013567685691192,-0.0012954464930974,0.001295446486169,-0.001295446487124,0.0012954464818464,-0.0012954464946187,0.001295446483775,-0.0012954464935505,0.0012954464813569,-4.3935638502285e-11,4.4027806774843e-11,-0.0013235915359656,0.001323591535987,-3.5862051497767e-14,-3.7727376866299e-15,-0.0013567685860172,0.0013567685559334,-0.0013567685857125,0.0013567685557554,-0.0013567685560269,0.0013567685862136,-0.0013567685556478,0.0013567685856375,-0.0012954464408279,-0.0012954464408279,0.0012954464413233,0.0012954465303376,0.0035630947825369,0.0034849548597844,0.71426501561724,0.8843891244878,43648,1000,0.0054997391242821,0.0054997391239454,0.0054997391237722,17.042024453417,17.051743147648,5.1536195627335e-05,5.1536195627335e-05,5.1536195627335e-05,435648.02179458,0.016636387073353
24019200,0.99990198211899,0.016370397985955,0.005456799328721,0.0054567993287216,0.0054567993285123,-0.0013243746596765,0.0013243746596232,4.3869286705757e-11,-4.4007762534239e-11,-7.4652354715925e-13,7.354348270885e-13,-0.0013574530672239,0.0013574530954427,-0.0013574530963738,0.0013574530664766,-0.0013574530680217,0.00135745309728,-0.0013574530971881,0.0013574530691933,-0.0012962312029028,0.0012962312914042,-0.00129623129023,0.0012962312032467,-2.7871623835141e-12,-4.2931364358641e-12,-1.4321951297748e-12,-1.4324981205187e-12,-0.0013243746618056,0.0013243746572882,-0.0013574530823559,0.0013574530812059,-0.0013574530833626,0.0013574530811058,-0.0013574530837082,0.0013574530806895,-0.001357453083668,0.0013574530807108,-0.0012962312494972,0.0012962312431289,-0.0012962312445035,0.0012962312391389,-0.0012962312499939,0.0012962312389595,-0.0012962312496505,0.0012962312375833,-4.3830340013199e-11,4.4121089542765e-11,-0.0013243746595012,0.0013243746596001,1.6477231925993e-14,2.7494307126614e-14,-0.0013574530974744,0.0013574530673494,-0.001357453096643,0.0013574530673513,-0.0013574530674711,0.0013574530974726,-0.0013574530670637,0.0013574530969179,-0.0012962311976818,-0.0012962311976818,0.0012962311983318,0.0012962312865656,0.0035660292242536,0.00348463800955,0.71032209942864,0.84208196311465,43648,1000,0.0055029843946783,0.0055029843942517,0.0055029843942672,17.267923793373,17.27764355743,5.334339034698e-05,5.334339034698e-05,5.334339034698e-05,429367.7260168,0.016646284217998
24105600,0.99990375418902,0.016370424411748,0.0054568081373187,0.0054568081373193,0.0054568081371099,-0.0013244970318859,0.0013244970316977,4.3876003500564e-11,-4.4042208481939e-11,-8.4306200974019e-13,6.2346801230372e-13,-0.0013576639233446,0.0013576639515159,-0.0013576639521656,0.0013576639227734,-0.0013576639243258,0.001357663953667,-0.0013576639534873,0.001357663924574,-0.0012963555787841,0.0012963556670558,-0.0012963556663932,0.0012963555793164,-2.8207065352339e-12,-4.3142589670559e-12,-1.5183400275191e-12,-1.4839936944231e-12,-0.001324497034101,0.0013244970295238,-0.0013576639390662,0.0013576639370973,-0.0013576639394494,0.0013576639373023,-0.0013576639400512,0.0013576639367913,-0.0013576639393487,0.0013576639367398,-0.001296355625399,0.0012963556195952,-0.0012963556210906,0.0012963556157341,-0.0012963556259294,0.0012963556151083,-0.0012963556264396,0.0012963556134567,-4.4033110024597e-11,4.3961069578324e-11,-0.0013244970317896,0.0013244970316833,-5.796061169604e-14,-7.7034058427099e-14,-0.001357663953262,0.0013576639232418,-0.001357663953177,0.0013576639229482,-0.0013576639232587,0.0013576639533458,-0.0013576639230537,0.0013576639528709,-0.0012963555743986,-0.0012963555743986,0.0012963555744573,0.0012963556622905,0.0035662455649648,0.0034843273594238,0.68317000330993,0.66681476060189,43648,1000,0.0055034912960993,0.0055034912961847,0.00550349129587,17.493821059486,17.503543967211,5.5150568475885e-05,5.5150568475885e-05,5.5150568475885e-05,433308.29353755,0.01664783099508
24192000,0.99990551357475,0.016370450784209,0.0054568169281391,0.0054568169281396,0.0054568169279303,-0.0013235530398343,0.0013235530396782,4.3884680353139e-11,-4.4042154307124e-11,-7.9303794970559e-13,6.6635864320086e-13,-0.0013570769086367,0.0013570769367419,-0.0013570769374068,0.0013570769079279,-0.0013570769095599,0.0013570769389867,-0.0013570769386398,0.00135707690991,-0.0012953997889639,0.0012953998770933,-0.001295399876566,0.0012953997895226,-2.7392097307877e-12,-4.2251184549432e-12,-1.4034620957846e-12,-1.4064208583376e-12,-0.0013235530419666,0.0013235530375485,-0.0013570769242773,0.0013570769224957,-0.0013570769246458,0.0013570769226645,-0.0013570769251504,0.0013570769221316,-0.0013570769246834,0.0013570769220751,-0.0012953998353469,0.0012953998294255,-0.0012953998307844,0.0012953998252628,-0.0012953998358473,0.0012953998251336,-0.001295399835872,0.0012953998234553,-4.4015260981637e-11,4.3990906078604e-11,-0.0013235530397392,0.0013235530396744,-6.6632670300014e-14,-5.1330696588336e-14,-0.0013570769386765,0.0013570769087047,-0.0013570769383935,0.0013570769082892,-0.0013570769087393,0.0013570769387472,-0.0013570769084161,0.001357076938276,-0.0012953997840245,-0.0012953997840245,0.0012953997840989,0.0012953998717936,0.0035620440438446,0.0034840230800561,0.68672559743619,0.68906096147582,43648,1000,0.0054995790671163,0.0054995790671216,0.0054995790669114,17.670130818401,17.677770122453,5.6561046547208e-05,5.6561046547208e-05,5.6561046547208e-05,455633.28999702,0.01663590121792
24278400,0.99990724997288,0.016370476936381,0.0054568256455297,0.0054568256455303,0.0054568256453209,-0.0013238874403476,0.0013238874402043,4.3880663005278e-11,-4.4047251151418e-11,-7.7961477153917e-13,6.8914335890814e-13,-0.0013573658329981,0.0013573658611174,-0.0013573658617956,0.0013573658323235,-0.0013573658339306,0.0013573658633789,-0.0013573658629666,0.0013573658343064,-0.0012957350834828,0.0012957351715909,-0.0012957351711176,0.0012957350839793,-2.7595531093115e-12,-4.2556742273677e-12,-1.4301665740988e-12,-1.4217979179907e-12,-0.0013238874425058,0.0013238874380526,-0.0013573658486096,0.0013573658468679,-0.0013573658490206,0.0013573658470244,-0.0013573658495262,0.0013573658464966,-0.0013573658490665,0.0013573658464285,-0.0012957351300242,0.001295735123996,-0.0012957351253871,0.0012957351198272,-0.0012957351305438,0.0012957351196694,-0.0012957351304803,0.0012957351179504,-4.4024444024631e-11,4.3979020294648e-11,-0.0013238874402689,0.0013238874401855,-5.412275835159e-14,-4.8847478331303e-14,-0.0013573658630737,0.0013573658330417,-0.0013573658627206,0.0013573658326665,-0.0013573658331253,0.001357365863039,-0.0013573658327397,0.0013573658625853,-0.0012957350787004,-0.0012957350787004,0.0012957350786865,0.0012957351664851,0.0035631306944921,0.0034837249885164,0.69024787548812,0.71130716234974,43648,1000,0.0055009648139583,0.0055009648139718,0.0055009648137565,17.754645935204,17.758379257143,5.7237167481633e-05,5.7237167481633e-05,5.7237167481633e-05,451922.04210113,0.016640127389458
24364800,0.99990896311521,0.016370502871248,0.0054568342904855,0.005456834290486,0.0054568342902767,-0.0013242131001677,0.001324213100012,4.3885161691376e-11,-4.406159088982e-11,-7.8957511431636e-13,6.7239757636265e-13,-0.001357645105776,0.0013576451338898,-0.0013576451345656,0.001357645105087,-0.001357645106644,0.0013576451360969,-0.0013576451357772,0.0013576451070564,-0.0012960625399625,0.0012960626280941,-0.001296062627609,0.0012960625404271,-2.7674006931026e-12,-4.256259621249e-12,-1.4221148200743e-12,-1.4254763350294e-12,-0.0013242131023148,0.00132421309787,-0.0013576451213711,0.0013576451196197,-0.0013576451217313,0.0013576451197732,-0.0013576451222528,0.0013576451192489,-0.0013576451218184,0.0013576451191434,-0.0012960625865735,0.0012960625805037,-0.0012960625818175,0.0012960625762615,-0.0012960625870606,0.001296062576227,-0.0012960625871004,0.001296062574553,-4.4019364473926e-11,4.4003612455139e-11,-0.0013242131000665,0.0013242131000148,-4.2241533079572e-14,-2.4611806949721e-14,-0.0013576451358195,0.0013576451058076,-0.0013576451355089,0.0013576451054145,-0.0013576451058698,0.0013576451358329,-0.0013576451055009,0.0013576451353875,-0.0012960625351697,-0.0012960625351697,0.0012960625352264,0.0012960626230358,0.0035641859186433,0.0034834329608982,0.69373491608468,0.73347617344896,43648,1000,0.005502314345637,0.0055023143456476,0.0055023143454332,17.835501454646,17.838988391834,5.7884011637166e-05,5.7884011637166e-05,5.7884011637166e-05,448227.88560296,0.016644243094319
24451200,0.99991065312257,0.01637052828341,0.005456842761206,0.0054568427612066,0.0054568427609973,-0.0013245359334208,0.0013245359332629,4.3881884732661e-11,-4.4056423106516e-11,-7.88522322949e-13,6.7304696828888e-13,-0.0013579236592757,0.0013579236873701,-0.0013579236880031,0.0013579236585927,-0.0013579236601519,0.0013579236895505,-0.001357923689251,0.0013579236604707,-0.001296386200061,0.0012963862887313,-0.0012963862879058,0.0012963862007901,-2.727412208841e-12,-4.2145223668817e-12,-1.4327584066847e-12,-1.4332744497435e-12,-0.0013245359355342,0.001324535931128,-0.0013579236748614,0.0013579236731063,-0.0013579236752294,0.0013579236731756,-0.0013579236755581,0.0013579236727136,-0.0013579236753021,0.0013579236727655,-0.0012963862472624,0.0012963862407307,-0.0012963862420008,0.0012963862366389,-0.0012963862472898,0.0012963862365749,-0.0012963862472827,0.0012963862348584,-4.4056169467205e-11,4.3958462716785e-11,-0.0013245359333346,0.0013245359331895,-5.9882111819059e-14,-4.5660399223793e-14,-0.0013579236893464,0.001357923659233,-0.0013579236889732,0.0013579236588013,-0.0013579236592558,0.0013579236891305,-0.001357923659005,0.0013579236887684,-0.0012963861951857,-0.0012963861951857,0.0012963861953974,0.0012963862830934,0.0035652353637435,0.0034831467906735,0.68904752532904,0.70088906137732,43648,1000,0.0055036521647239,0.0055036521646792,0.0055036521643933,17.916126919619,17.919597526525,5.8529015356953e-05,5.8529015356953e-05,5.8529015356953e-05,444620.35774855,0.016648323093979
24537600,0.99991232014161,0.016370553688966,0.0054568512297246,0.0054568512297252,0.0054568512295158,-0.0013244483255056,0.0013244483253732,4.389432811723e-11,-4.4049694841471e-11,-7.7807499504888e-13,6.6785124466173e-13,-0.0013578999614766,0.0013578999896249,-0.0013578999902787,0.0013578999607599,-0.001357899962458,0.0013578999919942,-0.0013578999915533,0.0013578999628264,-0.0012962986881184,0.0012962987764261,-0.0012962987757875,0.0012962986888152,-2.7221044886352e-12,-4.1946032106924e-12,-1.3567061712048e-12,-1.3799364027137e-12,-0.0013244483276661,0.0013244483232538,-0.0013578999771928,0.0013578999753202,-0.0013578999775317,0.0013578999755905,-0.0013578999780713,0.0013578999749125,-0.0013578999776964,0.0013578999749457,-0.0012962987347936,0.0012962987288175,-0.0012962987299782,0.0012962987248188,-0.0012962987356713,0.0012962987244982,-0.0012962987352627,0.0012962987229264,-4.4147259743283e-11,4.3874116146456e-11,-0.0013244483254936,0.0013244483252396,-1.8866835395835e-13,-1.5074001264314e-13,-0.001357899991657,0.0013578999614315,-0.0013578999912363,0.0013578999611484,-0.0013578999615975,0.0013578999916652,-0.0013578999612188,0.0013578999910057,-0.0012962986834524,-0.0012962986834524,0.0012962986834205,0.0012962987711307,0.0035645920182071,0.0034828664989389,0.69825522262012,0.76497482251867,43648,1000,0.0055032890302477,0.0055032890303329,0.005503289029946,17.996737488367,18.000206661216,5.9173899906934e-05,5.9173899906934e-05,5.9173899906934e-05,448223.76111335,0.016647215985991
24624000,0.99991396432229,0.016370579055953,0.0054568596853872,0.0054568596853878,0.0054568596851785,-0.0013250857496695,0.0013250857494881,4.3885512739475e-11,-4.4046821105733e-11,-7.7924807685909e-13,6.7336995842175e-13,-0.0013584096345269,0.0013584096626106,-0.0013584096634076,0.0013584096339163,-0.0013584096353993,0.0013584096649023,-0.0013584096645325,0.0013584096358284,-0.0012969366924677,0.0012969367803497,-0.0012969367798231,0.0012969366927761,-2.7857219569299e-12,-4.2656263351023e-12,-1.3724296614512e-12,-1.409720963404e-12,-0.0013250857518254,0.001325085747316,-0.0013584096501483,0.0013584096483533,-0.001358409650599,0.0013584096485865,-0.0013584096511089,0.0013584096479892,-0.0013584096506647,0.0013584096479673,-0.0012969367388885,0.0012969367326995,-0.0012969367339967,0.0012969367285462,-0.0012969367393766,0.0012969367284762,-0.0012969367393745,0.0012969367266899,-4.3995181477405e-11,4.4016823139797e-11,-0.0013250857495353,0.0013250857495255,-5.1627216941608e-14,3.43601267923e-15,-0.0013584096646833,0.0013584096345345,-0.0013584096643538,0.0013584096342437,-0.0013584096347078,0.0013584096647887,-0.0013584096341834,0.0013584096642579,-0.0012969366872714,-0.0012969366872714,0.001296936687406,0.0012969367751134,0.0035669539309053,0.0034825919580447,0.70685534991,0.82906058366007,43648,1000,0.0055059305867834,0.00550593058675,0.005505930586583,18.077347260116,18.080815795907,5.9818778080928e-05,5.9818778080928e-05,5.9818778080928e-05,439307.33313094,0.016655271769606
24710400,0.9999155858163,0.016370603983997,0.0054568679947351,0.0054568679947356,0.0054568679945263,-0.0013257130502421,0.001325713050095,4.3896838628771e-11,-4.4039219808535e-11,-7.7433546223021e-13,6.9123982427433e-13,-0.0013588995149144,0.0013588995430108,-0.0013588995437064,0.001358899514183,-0.0013588995158476,0.0013588995452274,-0.0013588995449069,0.0013588995161807,-0.0012975690933693,0.0012975691815159,-0.001297569180951,0.0012975690938991,-2.7698770292169e-12,-4.2624827252551e-12,-1.3846114363652e-12,-1.4341398056604e-12,-0.0013257130523746,0.0013257130479524,-0.0013588995304621,0.0013588995287713,-0.0013588995308699,0.0013588995288848,-0.0013588995313718,0.0013588995283972,-0.0013588995309644,0.0013588995283138,-0.0012975691399449,0.0012975691339985,-0.0012975691352338,0.0012975691297177,-0.001297569140543,0.0012975691296263,-0.0012975691404788,0.001297569127867,-4.400673344803e-11,4.4006596363983e-11,-0.0013257130501393,0.001325713050092,-6.5266682618235e-14,-2.4459252786617e-15,-0.0013588995449407,0.0013588995149092,-0.0013588995445784,0.0013588995145502,-0.001358899515014,0.001358899544932,-0.0013588995146123,0.0013588995445309,-0.0012975690885519,-0.0012975690885519,0.0012975690886869,0.0012975691763555,0.0035692768792496,0.003482322946116,0.70426343453586,0.80338046085544,43648,1000,0.0055085301899089,0.005508530189888,0.0055085301896898,18.157956199891,18.161424930597,6.0463649599131e-05,6.0463649599131e-05,6.0463649599131e-05,430780.45164083,0.016663199586366
24796800,0.99991718477704,0.016370626252059,0.0054568754174225,0.0054568754174231,0.0054568754172137,-0.001325679259017,0.0013256792590311,4.405708838031e-11,-4.3900072353512e-11,-9.084208366023e-13,8.8322478279504e-13,-0.0013589205780026,0.0013589206060734,-0.0013589206068802,0.0013589205773201,-0.0013589205788012,0.0013589206084745,-0.0013589206079648,0.0013589205794664,-0.0012975351961471,0.0012975352849163,-0.0012975352840036,0.0012975351973387,-2.7519145191357e-12,-4.5729500053987e-12,-1.3907126911525e-12,-1.7047915374358e-12,-0.0013256792613542,0.0013256792567131,-0.0013589205935042,0.0013589205919145,-0.0013589205939924,0.0013589205918582,-0.0013589205944889,0.001358920591368,-0.0013589205942122,0.0013589205911925,-0.0012975352435391,0.0012975352374728,-0.0012975352388093,0.0012975352324655,-0.0012975352439693,0.0012975352327952,-0.0012975352440716,0.0012975352310246,-4.3926192320271e-11,4.4108145320555e-11,-0.0013256792589085,0.0013256792590455,-7.8355518057415e-14,2.4460470396479e-13,-0.0013589206080678,0.0013589205780136,-0.001358920607534,0.0013589205777505,-0.0013589205780083,0.0013589206080071,-0.0013589205776036,0.0013589206076863,-0.0012975351916451,-0.0012975351916451,0.0012975351921951,0.0012975352797152,0.0035688765922252,0.0034820587205861,0.63819937283585,0.43927619685029,43648,1000,0.0055083900615003,0.0055083900615401,0.0055083900613054,18.238564197726,18.242034065287,6.1108513581809e-05,6.1108513581809e-05,6.1108513581809e-05,433068.25233358,0.016662772640034
24883200,0.99991876135975,0.01637064852207,0.0054568828407595,0.0054568828407601,0.0054568828405508,-0.0013230541917062,0.0013230541916916,4.3985899202149e-11,-4.3964904902334e-11,-9.006764261299e-13,8.6903986319342e-13,-0.0013570457618038,0.0013570457899732,-0.0013570457906152,0.0013570457611649,-0.0013570457625938,0.0013570457923196,-0.0013570457917552,0.0013570457632513,-0.0012948687277406,0.0012948688161389,-0.0012948688154105,0.0012948687285084,-2.6787661655324e-12,-4.4771496967382e-12,-1.3041698055665e-12,-1.6227586905418e-12,-0.0013230541939678,0.0013230541894333,-0.001357045777349,0.001357045775729,-0.0013570457778465,0.0013570457757584,-0.0013570457783262,0.0013570457752888,-0.0013570457780238,0.0013570457750843,-0.0012948687745405,0.0012948687686738,-0.0012948687699227,0.0012948687640133,-0.0012948687749671,0.0012948687642098,-0.0012948687754337,0.0012948687622855,-4.3969417676237e-11,4.4055071618391e-11,-0.0013230541916004,0.0013230541916746,-1.0523304990844e-13,2.2076057944525e-13,-0.0013570457918843,0.0013570457618689,-0.0013570457914359,0.0013570457615757,-0.001357045761932,0.0013570457918798,-0.0013570457614353,0.0013570457915333,-0.0012948687230654,-0.0012948687230654,0.0012948687233757,0.0012948688111364,0.0035577215604396,0.0034817999216033,0.64729103373568,0.49107144933571,43648,1000,0.0054975114826864,0.0054975114826932,0.005497511482432,18.319173317202,18.322643199978,6.1753386537613e-05,6.1753386537613e-05,6.1753386537613e-05,486856.01153614,0.016629597381077
24969600,0.99992032271927,0.016370670820277,0.0054568902734951,0.0054568902734956,0.0054568902732863,-0.0013237852191824,0.0013237852190815,4.3860503209381e-11,-4.4057633540126e-11,-8.386130868282e-13,7.3413180807131e-13,-0.0013576587726078,0.0013576588007113,-0.0013576588013635,0.0013576587718989,-0.0013576587733807,0.0013576588030203,-0.0013576588025261,0.0013576587739896,-0.0012956079788586,0.0012956080667375,-0.0012956080663127,0.0012956079791334,-2.7601728550845e-12,-4.3602293862205e-12,-1.3197118601791e-12,-1.63427513284e-12,-0.001323785221397,0.0013237852168588,-0.0013576587880921,0.0013576587864831,-0.0013576587886128,0.0013576587865091,-0.0013576587890895,0.0013576587860072,-0.001357658788713,0.0013576587858076,-0.0012956080252983,0.0012956080193501,-0.0012956080206587,0.0012956080149375,-0.0012956080259694,0.0012956080148119,-0.0012956080260532,0.0012956080131795,-4.3938196424142e-11,4.4063375629415e-11,-0.0013237852190384,0.0013237852191134,-1.2749781091175e-13,1.9286978443107e-13,-0.0013576588026476,0.001357658772604,-0.0013576588021758,0.0013576587723024,-0.0013576587726733,0.0013576588026819,-0.0013576587722178,0.0013576588023026,-0.0012956079739522,-0.0012956079739522,0.001295607974016,0.0012956080620211,0.0035605067234408,0.0034815464516634,0.65505867487079,0.53635853196325,43648,1000,0.005500540850537,0.0055005408505203,0.0055005408503047,18.471895642835,18.478395690411,6.2975165142683e-05,6.2975165142683e-05,6.2975165142683e-05,477554.36798798,0.016638836097788
25056000,0.99992188045402,0.016370693328773,0.0054568977763272,0.0054568977763277,0.0054568977761184,-0.0013246866070003,0.001324686606875,4.3881250752028e-11,-4.4040334009791e-11,-8.176768440631e-13,7.3004593289199e-13,-0.0013584581225676,0.001358458150679,-0.0013584581513553,0.0013584581218834,-0.001358458123436,0.0013584581529569,-0.0013584581525369,0.0013584581238997,-0.0012965172405703,0.0012965173286452,-0.0012965173281573,0.001296517241067,-2.7370115038244e-12,-4.3115698139135e-12,-1.2878781562064e-12,-1.5838868486381e-12,-0.0013246866091723,0.0013246866046989,-0.0013584581381071,0.0013584581364681,-0.0013584581386088,0.0013584581365131,-0.0013584581390243,0.0013584581360642,-0.0013584581386947,0.0013584581358866,-0.0012965172870766,0.0012965172812364,-0.0012965172825028,0.0012965172767188,-0.0012965172876788,0.0012965172767573,-0.0012965172877671,0.0012965172750032,-4.395520746329e-11,4.4043342123778e-11,-0.0013246866068556,0.0013246866069132,-1.2254693274591e-13,1.8250577751495e-13,-0.0013584581526176,0.0013584581226026,-0.0013584581521967,0.0013584581223184,-0.0013584581226618,0.0013584581526274,-0.0013584581221987,0.0013584581522833,-0.0012965172357016,-0.0012965172357016,0.0012965172359003,0.0012965173236909,0.003564012250649,0.0034812982654195,0.66262648731755,0.58164561459079,43648,1000,0.005504276139838,0.0055042761398296,0.0055042761396174,18.746476417998,18.758168153745,6.5171811343987e-05,6.5171811343987e-05,6.5171811343987e-05,469632.14373969,0.016650227953566
25142400,0.99992343445787,0.016370716037326,0.0054569053458448,0.0054569053458454,0.0054569053456361,-0.0013255887057838,0.0013255887056379,4.3875408636383e-11,-4.4046422941426e-11,-8.2051599262318e-13,7.1363302253043e-13,-0.001359267525829,0.001359267553913,-0.0013592675546108,0.0013592675251292,-0.0013592675267075,0.0013592675561867,-0.0013592675557981,0.0013592675271354,-0.0012974220061231,0.0012974220942202,-0.0012974220937215,0.0012974220066372,-2.738780743893e-12,-4.3000007555756e-12,-1.2864603759892e-12,-1.5706163422783e-12,-0.0013255887079427,0.0013255887034815,-0.0013592675413725,0.0013592675397477,-0.0013592675418714,0.0013592675397771,-0.0013592675422913,0.0013592675393462,-0.0013592675419489,0.0013592675391586,-0.0012974220526398,0.001297422046811,-0.0012974220480763,0.0012974220423002,-0.0012974220532192,0.0012974220423282,-0.0012974220533053,0.0012974220405781,-4.3962356097845e-11,4.4036576712809e-11,-0.0013255887056356,0.0013255887056827,-1.2046281994354e-13,1.7336793902259e-13,-0.0013592675558813,0.0013592675258684,-0.0013592675554659,0.00135926752557,-0.0013592675259274,0.0013592675558857,-0.0013592675254753,0.0013592675555391,-0.00129742200125,-0.00129742200125,0.0012974220014703,0.0012974220892387,0.0035675266405963,0.0034810552552558,0.66997066556878,0.62693269721833,43648,1000,0.0055080143636569,0.0055080143636619,0.0055080143634427,19.025921693244,19.037940617079,6.7407373545951e-05,6.7407373545951e-05,6.7407373545951e-05,462127.37195762,0.016661628910152
25228800,0.99992498416734,0.016370738928089,0.0054569129760991,0.0054569129760997,0.0054569129758903,-0.0013264838075653,0.0013264838074256,4.3878051967396e-11,-4.4044154540135e-11,-8.1092440328671e-13,7.0939821072455e-13,-0.0013600661630969,0.0013600661911908,-0.00136006619188,0.0013600661623993,-0.0013600661639729,0.0013600661934627,-0.0013600661930596,0.0013600661643993,-0.0012983217813792,0.0012983218694695,-0.0012983218689917,0.0012983217818945,-2.7414194868106e-12,-4.2889939741782e-12,-1.287540990036e-12,-1.5620310163188e-12,-0.0013264838097229,0.0013264838052646,-0.0013600661786572,0.0013600661770106,-0.0013600661791593,0.0013600661770691,-0.0013600661795685,0.0013600661766238,-0.0013600661792217,0.0013600661764518,-0.0012983218278803,0.0012983218220713,-0.0012983218233146,0.0012983218175606,-0.0012983218285418,0.0012983218176417,-0.0012983218285931,0.00129832181588,-4.3965569793787e-11,4.4033807797398e-11,-0.0013264838074205,0.0013264838074642,-1.1725953544874e-13,1.6783475511638e-13,-0.0013600661931682,0.0013600661631423,-0.0013600661927486,0.0013600661628528,-0.001360066163208,0.0013600661931649,-0.0013600661627654,0.0013600661928283,-0.0012983217765738,-0.0012983217765738,0.0012983217767676,0.0012983218645488,0.0035710161057528,0.0034808173129666,0.67707191623526,0.67221977984587,43648,1000,0.0055117235802386,0.0055117235802315,0.0055117235800185,19.305672632584,19.317713080413,6.9645381060669e-05,6.9645381060669e-05,6.9645381060669e-05,454882.85830742,0.016672941499059
25315200,0.99992652898736,0.016370761982336,0.0054569206608479,0.0054569206608485,0.0054569206606392,-0.0013273720224479,0.0013273720220702,4.3811409473867e-11,-4.4104669456152e-11,-1.0920122280113e-12,4.8603285791217e-13,-0.0013608563333046,0.0013608563610886,-0.0013608563619285,0.0013608563323723,-0.0013608563339878,0.0013608563635763,-0.0013608563635165,0.0013608563344289,-0.0012992154080298,0.001299215496365,-0.0012992154964603,0.0012992154084759,-2.5550481803261e-12,-4.1567694841338e-12,-1.4635556129101e-12,-1.6480687996883e-12,-0.0013273720244281,0.0013273720199625,-0.001360856348867,0.0013608563467504,-0.0013608563489711,0.0013608563469194,-0.0013608563495762,0.0013608563464186,-0.0013608563493561,0.001360856346396,-0.0012992154557486,0.0012992154491486,-0.0012992154503117,0.0012992154434629,-0.0012992154547028,0.0012992154440377,-0.001299215454561,0.0012992154421364,-4.3949709925354e-11,4.4035371161403e-11,-0.0013273720221896,0.0013273720222297,-2.1113325590631e-14,1.7720990988831e-13,-0.0013608563632908,0.0013608563331417,-0.0013608563625113,0.001360856332741,-0.0013608563331897,0.0013608563633031,-0.0013608563327085,0.0013608563627718,-0.0012992154033119,-0.0012992154033119,0.0012992154028964,0.0012992154912313,0.0035744809087411,0.0034805843320871,0.6839247385121,0.71750686247341,43648,1000,0.005515404248381,0.0055154042481168,0.0055154042481765,19.585444165763,19.597485543747,7.1883553326105e-05,7.1883553326105e-05,7.1883553326105e-05,447897.67741217,0.016684167113814
25401600,0.99992806831857,0.016370785531732,0.0054569285106469,0.0054569285106474,0.0054569285104381,-0.0013282538657248,0.0013282538655533,4.3888516706529e-11,-4.4071692698864e-11,-8.5177597882853e-13,6.2824645456088e-13,-0.0013616399229031,0.0013616399510629,-0.0013616399516675,0.0013616399222598,-0.0013616399237406,0.0013616399531684,-0.0013616399528202,0.0013616399241548,-0.0013001027431178,0.001300102831165,-0.0013001028305434,0.0013001027430216,-2.749771114027e-12,-4.2566194337864e-12,-1.4383206779377e-12,-1.5598807584783e-12,-0.0013282538678925,0.0013282538634017,-0.001361639938428,0.001361639936659,-0.0013616399388817,0.001361639936834,-0.0013616399394128,0.0013616399364494,-0.0013616399390199,0.0013616399363378,-0.0013001027894891,0.0013001027830405,-0.0013001027850367,0.0013001027790443,-0.0013001027899261,0.0013001027791048,-0.0013001027898362,0.0013001027773375,-4.4000184648091e-11,4.4036280780673e-11,-0.0013282538656117,0.0013282538655971,-8.417986953924e-14,4.9477606140154e-14,-0.0013616399529818,0.0013616399230286,-0.0013616399526621,0.0013616399226618,-0.0013616399230043,0.0013616399529556,-0.0013616399226002,0.0013616399525571,-0.001300102737666,-0.001300102737666,0.0013001027379332,0.0013001028260483,0.0035779231267968,0.0034803562981115,0.70084475990764,0.8616739196317,43648,1000,0.0055190585060719,0.0055190585061052,0.0055190585059284,19.865220551353,19.877258007081,7.4121764410823e-05,7.4121764410823e-05,7.4121764410823e-05,441168.61987065,0.016695312274082
25488000,0.99992960106449,0.01637080929136,0.0054569364305226,0.0054569364305232,0.0054569364303138,-0.0013298584785684,0.0013298584784237,4.3864095923156e-11,-4.4032966646624e-11,-8.0112576145202e-13,7.02208959763e-13,-0.0013629337297557,0.0013629337578412,-0.0013629337585295,0.0013629337290545,-0.0013629337306442,0.0013629337601047,-0.00136293375973,0.0013629337310528,-0.0013017152498116,0.0013017153378437,-0.0013017153373638,0.0013017152502683,-2.7484670950404e-12,-4.2784939420058e-12,-1.4097816674319e-12,-1.4234187802392e-12,-0.0013298584807166,0.0013298584762705,-0.0013629337453066,0.0013629337435824,-0.0013629337457203,0.0013629337437147,-0.0013629337462171,0.0013629337432123,-0.0013629337457998,0.0013629337431208,-0.0013017152963933,0.0013017152902822,-0.001301715291536,0.0013017152861175,-0.00130171529685,0.001301715286042,-0.0013017152969129,0.0013017152842699,-4.3997554375503e-11,4.3976469401988e-11,-0.0013298584784662,0.0013298584784172,-4.5407083433005e-14,-1.8474053277412e-14,-0.0013629337597852,0.0013629337297661,-0.0013629337594512,0.0013629337293947,-0.0013629337298354,0.0013629337597874,-0.0013629337294561,0.0013629337593497,-0.0013017152450063,-0.0013017152450063,0.0013017152450552,0.0013017153328008,0.0035843476017298,0.0034801330349442,0.70995045716832,0.95250232212385,43648,1000,0.0055257080961665,0.0055257080961562,0.0055257080959415,20.13974897614,20.157030470414,7.6317991809118e-05,7.6317991809118e-05,7.6317991809118e-05,423331.20902905,0.016715592034438
25574400,0.99993112708426,0.016370832842956,0.0054569442810546,0.0054569442810552,0.0054569442808459,-0.0013310546848445,0.0013310546849218,4.4049454848803e-11,-4.387303994404e-11,-6.6566995835735e-13,7.4914423180501e-13,-0.0013639432960203,0.0013639433242073,-0.0013639433246062,0.0013639432951388,-0.0013639432965913,0.0013639433262992,-0.0013639433258774,0.0013639432974795,-0.0013029108142857,0.0013029109021352,-0.0013029109013624,0.0013029108156154,-2.8839397799723e-12,-4.3247543523114e-12,-1.3936622481044e-12,-1.4550055799901e-12,-0.0013310546870421,0.0013310546826147,-0.001363943311447,0.0013639433099365,-0.0013639433117342,0.001363943310005,-0.0013639433124992,0.0013639433094414,-0.0013639433119107,0.0013639433092477,-0.0013029108613636,0.0013029108554717,-0.0013029108557302,0.0013029108503324,-0.001302910861886,0.0013029108494261,-0.0013029108619936,0.0013029108489157,-4.4102757249863e-11,4.3899481665675e-11,-0.0013310546849089,0.0013310546847668,-1.2384274610088e-13,-4.0965983811432e-14,-0.0013639433260319,0.0013639432960596,-0.0013639433254963,0.0013639432955574,-0.0013639432960556,0.0013639433261602,-0.001363943295621,0.001363943325611,-0.0013029108090426,-0.0013029108090426,0.0013029108093554,0.0013029108961654,0.0035890889497917,0.003479914346407,0.70669818394348,0.89921598704719,43648,1000,0.0055306651667375,0.0055306651665105,0.0055306651665499,20.419029567412,20.436802933746,7.8552236539292e-05,7.8552236539292e-05,7.8552236539292e-05,413121.56949208,0.016730710452554
25660800,0.99993264581583,0.016370856210326,0.0054569520701781,0.0054569520701787,0.0054569520699694,-0.0013311997873087,0.001331199787475,4.4029556986081e-11,-4.3862311565902e-11,-6.5434230440941e-13,7.8263191466164e-13,-0.0013642021529586,0.0013642021813676,-0.001364202181671,0.0013642021523499,-0.0013642021534566,0.0013642021836359,-0.0013642021828729,0.0013642021545405,-0.0013030607365781,0.001303060824558,-0.0013030608241652,0.0013030607375842,-2.8256266790445e-12,-4.2837576047339e-12,-1.3598397813575e-12,-1.476088935908e-12,-0.0013311997895494,0.0013311997850896,-0.001364202168432,0.0013642021670308,-0.0013642021687862,0.0013642021668811,-0.0013642021694133,0.0013642021663219,-0.001364202168973,0.001364202166167,-0.0013030607834858,0.0013030607776271,-0.0013030607786857,0.001303060773034,-0.0013030607843887,0.0013030607725813,-0.0013030607840586,0.0013030607713887,-4.4061566390568e-11,4.3907507067563e-11,-0.0013311997874174,0.0013311997872783,-1.4272634569046e-13,-1.0450121932419e-14,-0.0013642021832158,0.0013642021529236,-0.0013642021826868,0.0013642021525335,-0.0013642021530542,0.0013642021831379,-0.0013642021527639,0.0013642021825974,-0.001303060732387,-0.001303060732387,0.0013030607321463,0.0013030608196255,0.0035895086291553,0.0034797001431245,0.70445579065352,0.8652370604821,43648,1000,0.0055312661582044,0.0055312661579048,0.0055312661580223,20.698737051221,20.716575397082,8.0789896409771e-05,8.0789896409771e-05,8.0789896409771e-05,417580.24675366,0.016732544678377
25747200,0.99993414493724,0.016370879114758,0.0054569597049888,0.0054569597049894,0.00545695970478,-0.0013312413823024,0.0013312413821933,4.3847728011419e-11,-4.4027807804223e-11,-7.7424822960099e-13,6.8352011892955e-13,-0.0013643231987837,0.0013643232270156,-0.0013643232276775,0.0013643231983909,-0.0013643232003011,0.0013643232294505,-0.0013643232288078,0.0013643232003162,-0.0013031005464379,0.0013031006343355,-0.0013031006339144,0.0013031005469431,-2.744128639342e-12,-4.2298046059022e-12,-1.3945613971066e-12,-1.4457319809392e-12,-0.0013312413844065,0.0013312413800339,-0.0013643232144605,0.0013643232130138,-0.0013643232149547,0.001364323213227,-0.0013643232153438,0.0013643232123358,-0.0013643232148377,0.0013643232124206,-0.0013031005932871,0.0013031005872173,-0.0013031005879805,0.0013031005827266,-0.0013031005937758,0.0013031005826788,-0.0013031005938269,0.0013031005810729,-4.3908813204132e-11,4.4040923138853e-11,-0.001331241382181,0.0013312413822164,-4.6432110942648e-15,5.9309482253676e-14,-0.0013643232291258,0.0013643231990786,-0.0013643232283947,0.0013643231987825,-0.0013643231996267,0.0013643232289071,-0.0013643231987176,0.0013643232287494,-0.0013031005420682,-0.0013031005420682,0.001303100541792,0.0013031006296389,0.0035894881135927,0.0034794902460989,0.69963130575041,0.81827565817246,43648,1000,0.00553143833948,0.0055314383393654,0.0055314383392762,20.850892936859,20.860888516827,8.2007143494875e-05,8.2007143494875e-05,8.2007143494875e-05,420497.23661362,0.016733070609947
25833600,0.9999356064719,0.016370901391271,0.0054569671304929,0.0054569671304935,0.0054569671302842,-0.0013308105890142,0.0013308105888475,4.3842032303066e-11,-4.4033362340418e-11,-7.8953976245516e-13,6.6697050686178e-13,-0.0013639979929273,0.0013639980209878,-0.0013639980216637,0.0013639979921834,-0.0013639979938034,0.0013639980232369,-0.0013639980228864,0.0013639979941566,-0.0013026648479163,0.0013026649358594,-0.0013026649354504,0.0013026648484035,-2.7683356645398e-12,-4.2517976399124e-12,-1.4027745873757e-12,-1.4453230522552e-12,-0.0013308105911549,0.0013308105867133,-0.001363998008449,0.0013639980067333,-0.0013639980088738,0.0013639980068699,-0.0013639980093148,0.0013639980063569,-0.0013639980089264,0.001363998006272,-0.0013026648945487,0.0013026648884498,-0.0013026648896236,0.0013026648841715,-0.0013026648950453,0.0013026648841757,-0.0013026648949325,0.0013026648825124,-4.3968791401251e-11,4.3983502569482e-11,-0.0013308105888813,0.001330810588876,-2.2357934627503e-14,3.382011387756e-14,-0.0013639980228817,0.0013639979928926,-0.0013639980225502,0.0013639979925464,-0.0013639979929816,0.0013639980229033,-0.0013639979925618,0.0013639980224906,-0.0013026648431801,-0.0013026648431801,0.001302664843231,0.0013026649309134,0.0035874960525972,0.0034792845042913,0.6979893654258,0.79960567941862,43648,1000,0.0055296530633098,0.0055296530633231,0.0055296530630934,20.803662005253,20.801103794807,8.1629296042023e-05,8.1629296042023e-05,8.1629296042023e-05,425264.5027839,0.016727626066597
25920000,0.99993703045858,0.016370923034735,0.0054569743449812,0.0054569743449818,0.0054569743447725,-0.0013305601171593,0.0013305601169808,4.3832809584814e-11,-4.4031672627332e-11,-8.0263030372458e-13,6.4597603058156e-13,-0.001363788150962,0.0013637881790439,-0.0013637881797442,0.0013637881502675,-0.001363788151871,0.001363788181277,-0.0013637881809553,0.0013637881522425,-0.001302413823844,0.0013024139118006,-0.0013024139113799,0.0013024138243349,-2.7705384207765e-12,-4.2452512516648e-12,-1.3879977446805e-12,-1.4513946020677e-12,-0.0013305601192895,0.0013305601148571,-0.0013637881665278,0.0013637881648179,-0.0013637881669352,0.0013637881649255,-0.0013637881673966,0.0013637881644583,-0.0013637881669962,0.0013637881643423,-0.0013024138704473,0.0013024138644707,-0.0013024138656319,0.0013024138601231,-0.001302413870895,0.0013024138600156,-0.0013024138709384,0.0013024138583993,-4.398309914063e-11,4.395830295696e-11,-0.0013305601170351,0.0013305601170037,-4.630482071363e-14,3.0455304905458e-14,-0.0013637881809883,0.0013637881509756,-0.0013637881806319,0.0013637881506054,-0.0013637881510593,0.0013637881809944,-0.0013637881506643,0.0013637881805714,-0.0013024138191207,-0.0013024138191207,0.0013024138191695,0.0013024139068317,0.0035862473323627,0.003479082828266,0.69610822772469,0.7809357006648,43648,1000,0.0055286151031676,0.0055286151031811,0.0055286151029578,20.745014151447,20.741319072787,8.1160113211577e-05,8.1160113211577e-05,8.1160113211577e-05,426742.81431532,0.016724460449781
26006400,0.99993841788482,0.016370943742167,0.0054569812474585,0.0054569812474591,0.0054569812472497,-0.0013303086040173,0.001330308603828,4.3817963391296e-11,-4.4038771057538e-11,-7.718865370432e-13,6.223658106811e-13,-0.0013635760661281,0.0013635760941985,-0.0013635760948791,0.0013635760654288,-0.0013635760670495,0.0013635760964183,-0.0013635760961179,0.0013635760673863,-0.0013021618762856,0.0013021619642026,-0.0013021619638557,0.0013021618767247,-2.7791168645933e-12,-4.2000288684717e-12,-1.3733089875296e-12,-1.4356866995804e-12,-0.0013303086061259,0.0013303086017142,-0.0013635760816707,0.0013635760799558,-0.0013635760820997,0.0013635760800731,-0.001363576082541,0.0013635760796204,-0.0013635760821353,0.0013635760795114,-0.0013021619227879,0.0013021619168333,-0.0013021619179859,0.0013021619125168,-0.0013021619233149,0.0013021619124243,-0.001302161923309,0.0013021619108288,-4.3979914943788e-11,4.3953805182599e-11,-0.0013303086038851,0.0013303086038514,-5.1041087788628e-14,2.4246494580352e-14,-0.0013635760961304,0.0013635760661339,-0.0013635760957814,0.0013635760657756,-0.0013635760661976,0.0013635760961312,-0.0013635760658076,0.0013635760957154,-0.0013021618715004,-0.0013021618715004,0.0013021618715237,0.0013021619592276,0.0035849975303,0.0034788850490917,0.6836415785599,0.69652168285282,43648,1000,0.0055275728341096,0.0055275728340987,0.0055275728338841,20.685338916893,20.681534350768,8.0682711335146e-05,8.0682711335146e-05,8.0682711335146e-05,428281.54407743,0.016721281670554
26092800,0.99993976978999,0.016370963109943,0.0054569877033836,0.0054569877033842,0.0054569877031748,-0.0013295842532236,0.0013295842530752,4.3865480174985e-11,-4.4014079988304e-11,-8.004227241058e-13,6.7257757086395e-13,-0.001363020135229,0.0013630201633331,-0.0013630201639583,0.0013630201344915,-0.0013630201361397,0.0013630201655728,-0.0013630201652052,0.0013630201365386,-0.0013014329392401,0.0013014330274207,-0.0013014330268818,0.0013014329399205,-2.7754185658091e-12,-4.2748411712425e-12,-1.3939856794002e-12,-1.4716291603864e-12,-0.0013295842553797,0.0013295842509183,-0.0013630201508058,0.0013630201490459,-0.0013630201512158,0.0013630201491599,-0.0013630201516598,0.0013630201486897,-0.0013630201512618,0.0013630201485913,-0.001301432985831,0.0013014329798604,-0.0013014329811952,0.0013014329754727,-0.0013014329863788,0.0013014329754639,-0.0013014329864313,0.0013014329737631,-4.3985457686225e-11,4.397126279634e-11,-0.0013295842531117,0.0013295842530859,-6.6244093935461e-14,2.4826065110164e-14,-0.0013630201652141,0.00136302013529,-0.0013630201649201,0.0013630201348652,-0.0013630201352811,0.0013630201652519,-0.0013630201349187,0.0013630201648458,-0.0013014329344016,-0.0013014329344016,0.0013014329344969,0.0013014330221252,0.0035817934320102,0.003478690968262,0.65635638452354,0.53839686589601,43648,1000,0.0055245710874492,0.0055245710874474,0.0055245710872395,20.625564978805,20.621749628748,8.0204519830441e-05,8.0204519830441e-05,8.0204519830441e-05,438436.16929639,0.016712126977468
26179200,0.99994108718843,0.016370982910569,0.0054569943035925,0.0054569943035931,0.0054569943033837,-0.0013282769570649,0.0013282769568928,4.3825949559089e-11,-4.3999678192975e-11,-8.1321686266541e-13,6.4165516258112e-13,-0.0013620350965904,0.0013620351246776,-0.0013620351253288,0.0013620350959028,-0.0013620350973202,0.0013620351267979,-0.0013620351265893,0.0013620350977536,-0.0013001087517687,0.0013001088400209,-0.0013001088392837,0.0013001087525221,-2.7922708156903e-12,-4.2751320447094e-12,-1.424378927378e-12,-1.4525275968672e-12,-0.0013282769592104,0.001328276954756,-0.0013620351121392,0.0013620351104421,-0.0013620351125973,0.0013620351105356,-0.001362035113017,0.0013620351100792,-0.0013620351125993,0.0013620351100853,-0.0013001087982904,0.0013001087920733,-0.0013001087933152,0.0013001087878808,-0.0013001087987127,0.00130010878799,-0.0013001087989658,0.0013001087863497,-4.3947486728565e-11,4.3956994438111e-11,-0.001328276956959,0.0013282769569044,-5.27020958695e-14,-1.1914341907386e-14,-0.0013620351266059,0.0013620350965309,-0.0013620351263162,0.001362035096147,-0.0013620350966174,0.0013620351265942,-0.0013620350962413,0.0013620351261125,-0.0013001087466858,-0.0013001087466858,0.0013001087470553,0.001300108834405,0.0035761685174117,0.0034785009915451,0.68849532593978,0.78002189925126,43648,1000,0.005519153635363,0.0055191536353809,0.0055191536351675,20.565778899349,20.561964906728,7.9726231194795e-05,7.9726231194795e-05,7.9726231194795e-05,460725.49035605,0.016695604842457
26265600,0.99994237106358,0.016371002609071,0.0054570008697598,0.0054570008697604,0.0054570008695511,-0.0013300243863661,0.0013300243861664,4.3790213886083e-11,-4.4065607767107e-11,-7.5972826141135e-13,6.3156323558844e-13,-0.0013632627521276,0.0013632627801791,-0.0013632627808835,0.001363262751421,-0.0013632627530411,0.0013632627824062,-0.0013632627820797,0.0013632627533491,-0.0013018750723471,0.0013018751601772,-0.0013018751598554,0.0013018750725948,-2.8012587764084e-12,-4.2189055270968e-12,-1.4198792707217e-12,-1.4184387853158e-12,-0.0013300243884819,0.0013300243840437,-0.0013632627676918,0.0013632627659257,-0.001363262768103,0.0013632627660945,-0.001363262768549,0.0013632627655689,-0.0013632627681437,0.0013632627655305,-0.0013018751187705,0.0013018751127132,-0.0013018751139832,0.0013018751085509,-0.0013018751193393,0.0013018751084294,-0.001301875119268,0.0013018751066691,-4.3967721786868e-11,4.3965339653758e-11,-0.0013300243862362,0.0013300243861838,-4.6896508520326e-14,-3.4887963608425e-14,-0.0013632627821061,0.0013632627521004,-0.0013632627817933,0.0013632627517489,-0.0013632627521817,0.0013632627821196,-0.0013632627518431,0.0013632627816841,-0.0013018750675122,-0.0013018750675122,0.0013018750674199,0.0013018751552778,0.0035831965326644,0.0034783148877695,0.70293823606253,0.92560067273982,43648,1000,0.0055263952655953,0.005526395265581,0.0055263952653623,20.505990166281,20.502180184709,7.9247921330247e-05,7.9247921330247e-05,7.9247921330247e-05,427979.15907701,0.016717689332492
26352000,0.99994362236877,0.016371021760721,0.0054570072536431,0.0054570072536437,0.0054570072534344,-0.0013309728686245,0.0013309728683902,4.3791683311782e-11,-4.4069188304783e-11,-8.0071436225528e-13,5.865171999492e-13,-0.0013639092502444,0.001363909278195,-0.0013639092790068,0.0013639092495267,-0.001363909251062,0.0013639092804323,-0.0013639092801776,0.0013639092514214,-0.0013028230912571,0.0013028231787785,-0.001302823178911,0.0013028230915497,-2.7471867812119e-12,-4.1642071392715e-12,-1.3886739299058e-12,-1.3727114763714e-12,-0.0013309728706808,0.0013309728663242,-0.0013639092657161,0.0013639092640679,-0.0013639092661273,0.0013639092640457,-0.001363909266511,0.0013639092637145,-0.0013639092661453,0.0013639092636229,-0.001302823137804,0.0013028231315585,-0.0013028231330726,0.0013028231275789,-0.0013028231381268,0.001302823127576,-0.001302823138359,0.0013028231255434,-4.4026068533827e-11,4.3911258482372e-11,-0.0013309728685055,0.0013309728683988,-5.1923649062281e-14,-5.4648624639677e-14,-0.0013639092801784,0.0013639092501548,-0.0013639092798157,0.0013639092497507,-0.0013639092502924,0.0013639092801182,-0.001363909249879,0.0013639092796848,-0.0013028230866624,-0.0013028230866624,0.001302823086363,0.0013028231739794,0.0035869088698693,0.0034781324708434,0.70087992068919,0.8874016471762,43648,1000,0.0055303260594162,0.0055303260593961,0.0055303260591876,20.446205317471,20.44239546269,7.8769642539767e-05,7.8769642539767e-05,7.8769642539767e-05,411597.99583758,0.016729676533864
26438400,0.99994484202724,0.016371040588964,0.005457013529724,0.0054570135297246,0.0054570135295153,-0.0013305736258201,0.0013305736257428,4.3879232696032e-11,-4.397034808899e-11,-7.2496973502518e-13,6.6697744782621e-13,-0.001363587733134,0.0013635877613641,-0.0013635877618839,0.0013635877325859,-0.0013635877340705,0.0013635877636558,-0.0013635877632041,0.0013635877344995,-0.0013024295515364,0.0013024296395572,-0.0013024296390609,0.0013024295520108,-2.7529997212777e-12,-4.1719548437609e-12,-1.3855666130675e-12,-1.3858974853126e-12,-0.0013305736279302,0.0013305736235529,-0.0013635877488247,0.0013635877469943,-0.0013635877492066,0.0013635877471891,-0.0013635877495902,0.0013635877467219,-0.0013635877491974,0.0013635877465765,-0.0013024295980226,0.0013024295920612,-0.0013024295931883,0.0013024295878428,-0.0013024295985434,0.0013024295877186,-0.0013024295985271,0.0013024295860529,-4.3938077016025e-11,4.3988594531573e-11,-0.0013305736257045,0.0013305736256867,-1.4230035870407e-14,-1.2107865407141e-15,-0.0013635877632296,0.0013635877332054,-0.0013635877629677,0.0013635877328509,-0.0013635877332302,0.0013635877631708,-0.0013635877329359,0.0013635877627997,-0.0013024295466588,-0.0013024295466588,0.0013024295468422,0.0013024296344082,0.0035850741641326,0.0034779537201051,0.70669112458645,0.93136439565301,43648,1000,0.0055286715210123,0.0055286715208467,0.0055286715206564,20.386418853218,20.38261074067,7.8291350825742e-05,7.8291350825742e-05,7.8291350825742e-05,414562.78840395,0.016724630674499
26524800,0.99994603816985,0.016371059071636,0.0054570196906148,0.0054570196906154,0.0054570196904061,-0.0013309505694999,0.0013309505693163,4.3827430513847e-11,-4.4029189762005e-11,-7.6186537259466e-13,6.1565407454357e-13,-0.0013638777549337,0.0013638777830076,-0.0013638777836936,0.0013638777542378,-0.0013638777558625,0.0013638777852236,-0.0013638777849282,0.0013638777562064,-0.001302808520872,0.0013028086088445,-0.0013028086084521,0.0013028085213146,-2.7856710761314e-12,-4.1895037782412e-12,-1.3978174741063e-12,-1.4040292843397e-12,-0.0013309505716143,0.0013309505672023,-0.0013638777705121,0.0013638777687541,-0.0013638777709108,0.0013638777689174,-0.0013638777713834,0.0013638777684332,-0.0013638777709498,0.001363877768348,-0.0013028085673917,0.0013028085613272,-0.001302808562471,0.0013028085571527,-0.0013028085679107,0.0013028085569721,-0.0013028085677799,0.0013028085554238,-4.3986865996144e-11,4.3946691841083e-11,-0.0013309505693866,0.0013309505693247,-4.6221470318751e-14,-2.6336342501638e-14,-0.0013638777849454,0.001363877754961,-0.0013638777846335,0.0013638777545705,-0.0013638777550175,0.0013638777849599,-0.001363877754653,0.001363877784516,-0.0013028085160468,-0.0013028085160468,0.001302808516065,0.0013028086037734,0.0035864528449796,0.0034777785640261,0.70741867456058,0.91692149253239,43648,1000,0.0055302336057681,0.005530233605769,0.0055302336055508,20.425593618807,20.427870385526,7.8604748950456e-05,7.8604748950456e-05,7.8604748950456e-05,409083.64922198,0.016729394680292
26611200,0.99994722142253,0.01637107728865,0.0054570257629527,0.0054570257629533,0.0054570257627439,-0.0013311823963265,0.0013311823962548,4.3813011660215e-11,-4.4049129388157e-11,-7.2932360201753e-13,7.7791635283646e-13,-0.0013641445669065,0.0013641445951765,-0.0013641445956378,0.0013641445663916,-0.0013641445675023,0.0013641445972612,-0.0013641445966239,0.0013641445680333,-0.0013030442117083,0.0013030442992194,-0.0013030442994193,0.001303044211885,-2.7677469766415e-12,-4.2967374435029e-12,-1.5104127108696e-12,-1.4914325259954e-12,-0.0013311823985049,0.001331182393907,-0.0013641445823642,0.0013641445804483,-0.0013641445825764,0.001364144580481,-0.0013641445833046,0.0013641445800428,-0.0013641445827837,0.0013641445799572,-0.0013030442581496,0.0013030442520743,-0.0013030442529203,0.0013030442476211,-0.001303044258914,0.0013030442479983,-0.001303044259135,0.0013030442456467,-4.3919035068332e-11,4.4020248182223e-11,-0.0013311823960589,0.0013311823961778,8.2601329527259e-14,7.7302432581394e-14,-0.0013641445964448,0.0013641445664966,-0.0013641445962533,0.0013641445663454,-0.0013641445662812,0.0013641445966531,-0.0013641445662392,0.0013641445963301,-0.0013030442068034,-0.0013030442068034,0.0013030442064079,0.0013030442946832,0.0035872584540632,0.003477606959858,0.70483015937473,0.87726751581883,43648,1000,0.0055311941289624,0.0055311941286112,0.0055311941282483,20.606638281658,20.617856096652,8.0053106253261e-05,8.0053106253261e-05,8.0053106253261e-05,409491.13544932,0.016732324837774
26697600,0.99994839219723,0.016371095221252,0.0054570317404868,0.0054570317404874,0.0054570317402781,-0.001331258728224,0.0013312587280901,4.3796576338774e-11,-4.4032286373288e-11,-7.9531735065969e-13,7.7320249684153e-13,-0.0013643062484362,0.0013643062765822,-0.001364306277313,0.0013643062478334,-0.0013643062498742,0.0013643062791969,-0.0013643062786863,0.0013643062500629,-0.0013031223146625,0.001303122402591,-0.001303122402389,0.0013031223152202,-2.6937168852688e-12,-4.2913423730244e-12,-1.2989252893123e-12,-1.2549768966114e-12,-0.0013312587302907,0.0013312587259345,-0.0013643062643491,0.0013643062623049,-0.0013643062644215,0.0013643062626207,-0.00136430626493,0.0013643062621171,-0.0013643062643161,0.0013643062617039,-0.0013031223609565,0.0013031223545767,-0.0013031223560235,0.0013031223505741,-0.0013031223615271,0.0013031223506018,-0.0013031223617223,0.0013031223485518,-4.3988786643351e-11,4.3918847868168e-11,-0.0013312587280313,0.0013312587279521,-4.802068006001e-14,-7.7264286687902e-14,-0.0013643062783334,0.0013643062484729,-0.0013643062781831,0.0013643062479885,-0.0013643062484842,0.0013643062785708,-0.0013643062481429,0.0013643062782185,-0.0013031223093052,-0.0013031223093052,0.0013031223090118,0.0013031223972836,0.0035874281846949,0.0034774388290364,0.70126986789894,0.83761353910525,43648,1000,0.0055315102365756,0.0055315102363911,0.0055315102358904,20.795805042129,20.807841807777,8.1566440337033e-05,8.1566440337033e-05,8.1566440337033e-05,412784.18833134,0.016733289806341
26784000,0.99994955035427,0.016371112847805,0.0054570376160045,0.0054570376160051,0.0054570376157958,-0.0013313412188894,0.0013313412188108,4.3881719737701e-11,-4.3947649841229e-11,-8.0021420106427e-13,7.0794678447639e-13,-0.00136447184611,0.0013644718743809,-0.0013644718752333,0.0013644718455263,-0.0013644718474382,0.0013644718771266,-0.0013644718765767,0.0013644718475709,-0.0013032049512247,0.0013032050402035,-0.001303205039809,0.0013032049529021,-2.8236033879135e-12,-4.3672219961305e-12,-1.476969438421e-12,-1.3416727187018e-12,-0.0013313412210857,0.0013313412166343,-0.0013644718619255,0.0013644718604667,-0.0013644718621414,0.0013644718603206,-0.0013644718626892,0.0013644718601903,-0.0013644718628197,0.0013644718597219,-0.0013032049990018,0.0013032049926508,-0.0013032049937869,0.0013032049885403,-0.001303204999006,0.0013032049883053,-0.0013032049994718,0.0013032049866609,-4.3947373614373e-11,4.3956021056082e-11,-0.0013313412187536,0.0013313412187586,4.5959772431089e-14,-7.6539455889808e-14,-0.0013644718763627,0.0013644718464914,-0.0013644718760919,0.0013644718460697,-0.0013644718467876,0.0013644718767741,-0.0013644718461569,0.0013644718763584,-0.0013032049472416,-0.0013032049472416,0.0013032049471816,0.0013032050348638,0.0035876246901309,0.0034772740932333,0.69689141229827,0.79795956239171,43648,1000,0.0055318518859365,0.0055318518859776,0.005531851885547,20.985702843754,20.997827518903,8.3085622750031e-05,8.3085622750031e-05,8.3085622750031e-05,416393.13195768,0.016734332603923
26870400,0.99995069571069,0.016371130151612,0.0054570433839401,0.0054570433839407,0.0054570433837313,-0.0013314263291647,0.0013314263292378,4.3972529669403e-11,-4.3864503440118e-11,-6.2544706949194e-13,8.0963314861601e-13,-0.0013646376568371,0.0013646376850772,-0.0013646376855117,0.001364637656229,-0.0013646376575606,0.0013646376873073,-0.0013646376867491,0.0013646376582475,-0.0013032893466985,0.0013032894359628,-0.0013032894351607,0.0013032893480263,-2.7152476981055e-12,-4.1761150107883e-12,-1.3976476263538e-12,-1.2010271329749e-12,-0.0013314263313351,0.0013314263270965,-0.0013646376722434,0.0013646376706787,-0.0013646376727264,0.0013646376709559,-0.0013646376731496,0.0013646376702716,-0.0013646376728194,0.0013646376704678,-0.001303289394656,0.0013032893881655,-0.0013032893896362,0.0013032893840395,-0.0013032893946688,0.0013032893841638,-0.0013032893944633,0.0013032893828386,-4.3991844079361e-11,4.3921191090702e-11,-0.0013314263292219,0.0013314263291025,4.1468674336935e-14,-1.3800881333725e-13,-0.0013646376869168,0.0013646376569589,-0.001364637686541,0.0013646376565596,-0.0013646376570557,0.0013646376869247,-0.0013646376565779,0.0013646376864108,-0.0013032893427092,-0.0013032893427092,0.0013032893429736,0.0013032894305604,0.0035878333176975,0.0034771126770876,0.6918593486435,0.75830558567815,43648,1000,0.0055322044082286,0.0055322044082889,0.0055322044080669,21.17567122508,21.187813230028,8.4605369800644e-05,8.4605369800644e-05,8.4605369800644e-05,420272.8885004,0.016735408494919
26956800,0.99995182808511,0.016371147120139,0.0054570490401157,0.0054570490401163,0.0054570490399069,-0.0013315117758543,0.0013315117756616,4.3779320101234e-11,-4.408401273426e-11,-7.3536029995349e-13,6.9351651942873e-13,-0.001364802364222,0.0013648023923708,-0.0013648023929063,0.001364802363329,-0.0013648023652424,0.0013648023948022,-0.0013648023942704,0.0013648023654974,-0.0013033733304545,0.0013033734179503,-0.0013033734182639,0.0013033733313056,-2.7404065765778e-12,-4.1974211834288e-12,-1.4687251314554e-12,-1.2306808741323e-12,-0.0013315117779956,0.0013315117736226,-0.0013648023797515,0.0013648023780711,-0.0013648023802502,0.0013648023783016,-0.0013648023806066,0.0013648023776477,-0.0013648023801833,0.0013648023775946,-0.0013033733769466,0.0013033733705815,-0.0013033733723627,0.0013033733664333,-0.0013033733772381,0.0013033733670342,-0.0013033733774347,0.0013033733655702,-4.3947276587926e-11,4.3999489463446e-11,-0.001331511775779,0.0013315117757273,7.0140769012359e-14,-1.5252019355396e-13,-0.0013648023941892,0.0013648023643054,-0.0013648023938299,0.0013648023637242,-0.0013648023642762,0.0013648023942435,-0.001364802363995,0.0013648023936441,-0.0013033733258809,-0.0013033733258809,0.0013033733250625,0.0013033734128439,0.0035880449140846,0.0034769545079404,0.68631672535939,0.71865160896457,43648,1000,0.005532558337766,0.0055325583379779,0.005532558337746,21.365647060779,21.377798941154,8.6125176486234e-05,8.6125176486234e-05,8.6125176486234e-05,424400.01663421,0.016736488622824
27043200,0.99995294730198,0.016371163744038,0.0054570545814153,0.0054570545814159,0.0054570545812065,-0.0013315957333856,0.001331595733374,4.3847591074426e-11,-4.4003603484825e-11,-7.0084817780454e-13,7.1305709894803e-13,-0.0013649649932456,0.0013649650212177,-0.0013649650215501,0.001364964992594,-0.0013649649931663,0.00136496502349,-0.0013649650228774,0.0013649649944414,-0.00130345511938,0.0013034552071144,-0.0013034552070188,0.001303455119958,-2.6724489467544e-12,-4.1122016103577e-12,-1.3822902131593e-12,-1.1748510796942e-12,-0.0013315957355484,0.0013315957311758,-0.0013649650088471,0.0013649650069574,-0.0013649650089084,0.0013649650071812,-0.0013649650095978,0.0013649650062597,-0.0013649650094518,0.0013649650064671,-0.0013034551662768,0.0013034551600153,-0.0013034551610065,0.0013034551562743,-0.0013034551664046,0.0013034551557655,-0.0013034551664669,0.0013034551541757,-4.3936196926402e-11,4.3996709371906e-11,-0.0013315957333713,0.0013315957333192,7.5110440721712e-14,-1.1554602897166e-13,-0.0013649650229675,0.0013649649929656,-0.0013649650231822,0.0013649649923434,-0.0013649649927733,0.0013649650225518,-0.0013649649927671,0.0013649650225028,-0.0013034551153972,-0.0013034551153972,0.0013034551151322,0.0013034552026036,0.0035882521743475,0.0034767995155033,0.68036976215704,0.67899763225101,43648,1000,0.005532906108635,0.0055329061085619,0.0055329061084919,21.555624060455,21.567784652279,8.764499248364e-05,8.764499248364e-05,8.764499248364e-05,428758.0543311,0.016737549922333
27129600,0.99995405319224,0.01637118001625,0.0054570600054859,0.0054570600054865,0.0054570600052772,-0.001331676804144,0.0013316768038291,4.3663554696611e-11,-4.4181300879821e-11,-7.272121959313e-13,6.2399940783466e-13,-0.001365124768243,0.0013651247960051,-0.001365124797096,0.001365124767572,-0.0013651247690285,0.001365124798242,-0.0013651247981658,0.0013651247690911,-0.0013035333500687,0.0013035334375302,-0.0013035334373112,0.0013035333503892,-2.8704662504029e-12,-4.2471538994226e-12,-1.4943966707369e-12,-1.3182057885415e-12,-0.0013316768062894,0.0013316768018311,-0.001365124783843,0.0013651247821099,-0.0013651247844306,0.0013651247823655,-0.0013651247847539,0.0013651247816688,-0.0013651247842907,0.0013651247818243,-0.0013035333964392,0.0013035333900701,-0.001303533390963,0.0013035333859645,-0.0013035333968015,0.0013035333857345,-0.0013035333963678,0.0013035333838416,-4.393861532311e-11,4.39850483752e-11,-0.0013316768039892,0.0013316768039448,7.6988089243191e-14,-8.4284042827405e-14,-0.0013651247982111,0.0013651247680668,-0.0013651247981247,0.001365124767827,-0.001365124768328,0.001365124798096,-0.001365124767863,0.0013651247978881,-0.0013035333450029,-0.0013035333450029,0.0013035333445451,0.0013035334321931,0.003588449468279,0.0034766476315496,0.6740918825845,0.63934365553745,43648,1000,0.0055332419254196,0.0055332419257249,0.0055332419253387,21.745601443099,21.757770363405,8.9164811544789e-05,8.9164811544789e-05,8.9164811544789e-05,433337.56530143,0.016738574727065
27216000,0.99995514559344,0.01637119593139,0.0054570653105327,0.0054570653105332,0.0054570653103239,-0.0013317539221912,0.001331753922082,4.3862695495349e-11,-4.3975169882864e-11,-5.9433072595723e-13,6.508095299803e-13,-0.0013652810682089,0.0013652810961474,-0.0013652810968659,0.0013652810674428,-0.0013652810689274,0.0013652810982294,-0.0013652810981683,0.0013652810692121,-0.0013036069732825,0.0013036070606498,-0.0013036070616453,0.0013036069730971,-2.8959642361628e-12,-4.170116429335e-12,-1.4909889807219e-12,-1.3588179008106e-12,-0.0013317539243615,0.0013317539198847,-0.0013652810839653,0.0013652810823118,-0.0013652810840049,0.001365281081862,-0.0013652810847302,0.0013652810817246,-0.0013652810843684,0.0013652810816293,-0.0013036070198604,0.0013036070135027,-0.0013036070149576,0.0013036070094985,-0.0013036070209937,0.001303607009037,-0.0013036070205135,0.0013036070075558,-4.4052676338624e-11,4.3860517238364e-11,-0.0013317539221851,0.0013317539220026,-8.8294832065253e-14,-2.0159584138543e-13,-0.0013652810979671,0.0013652810681092,-0.0013652810980021,0.0013652810680052,-0.0013652810683611,0.0013652810980891,-0.0013652810679506,0.0013652810976365,-0.0013036069693209,-0.0013036069693209,0.0013036069676823,0.001303607056774,0.0035886324630385,0.0034764987896947,0.66753401608949,0.59968967882389,43648,1000,0.0055335613717905,0.0055335613717347,0.0055335613716134,21.93557902201,21.947756074531,9.0684632176077e-05,9.0684632176077e-05,9.0684632176077e-05,438135.07792325,0.016739549570657
27302400,0.99995622231278,0.016371211641212,0.0054570705471402,0.0054570705471407,0.0054570705469314,-0.0013317644900289,0.0013317644898575,4.3812806431191e-11,-4.402450578745e-11,-6.5979584368988e-13,5.8624861991884e-13,-0.0013653636269784,0.001365363654999,-0.0013653636556911,0.0013653636262515,-0.0013653636278332,0.0013653636571607,-0.0013653636569612,0.0013653636281298,-0.0013036166612126,0.0013036167488019,-0.0013036167488992,0.001303616661293,-2.8610836546818e-12,-4.1337789511847e-12,-1.4543404826613e-12,-1.3281358969483e-12,-0.0013317644921452,0.0013317644877402,-0.0013653636426323,0.0013653636408906,-0.0013653636428863,0.0013653636408663,-0.0013653636434387,0.0013653636404886,-0.0013653636429943,0.0013653636404574,-0.0013036167075719,0.001303616701477,-0.0013036167026835,0.001303616697449,-0.0013036167084018,0.0013036166970904,-0.0013036167080579,0.0013036166955632,-4.4023296618507e-11,4.3890468146914e-11,-0.0013317644899627,0.0013317644898255,-5.0097293091496e-14,-1.5982564684796e-13,-0.0013653636569045,0.0013653636269776,-0.0013653636567122,0.0013653636266423,-0.0013653636270878,0.0013653636569677,-0.0013653636267408,0.0013653636564773,-0.0013036166565733,-0.0013036166565733,0.001303616655986,0.0013036167441078,0.0035885383480244,0.0034763529673733,0.66856465650321,0.60576459798305,43648,1000,0.0055336050537697,0.0055336050537676,0.0055336050535663,22.094287326822,22.104535214246,9.1954298614577e-05,9.1954298614577e-05,9.1954298614577e-05,443071.75962233,0.016739683233527
27388800,0.99995728067583,0.016371227395425,0.0054570757985445,0.0054570757985451,0.0054570757983358,-0.0013320382126547,0.001332038212427,4.3790702224106e-11,-4.4065001020937e-11,-7.4975180147947e-13,5.5640329637887e-13,-0.001365638621985,0.0013656386500526,-0.001365638650728,0.0013656386212776,-0.001365638622928,0.0013656386522296,-0.0013656386519973,0.0013656386231982,-0.0013038843830287,0.0013038844708776,-0.0013038844705926,0.0013038843833284,-2.8234535101392e-12,-4.1563109099077e-12,-1.4493502527564e-12,-1.3356812252672e-12,-0.0013320382147346,0.0013320382103497,-0.0013656386375555,0.0013656386357993,-0.0013656386379367,0.0013656386359706,-0.0013656386383808,0.0013656386354931,-0.0013656386379401,0.0013656386354464,-0.0013038844295157,0.0013038844234635,-0.0013038844245724,0.0013038844193385,-0.0013038844300353,0.0013038844190887,-0.001303884429872,0.0013038844175007,-4.4000462080792e-11,4.3932175990415e-11,-0.0013320382125346,0.0013320382124437,2.7207404126598e-15,-9.6084152930377e-14,-0.0013656386520053,0.0013656386220068,-0.0013656386517096,0.0013656386215891,-0.0013656386220798,0.0013656386519998,-0.0013656386217338,0.0013656386515225,-0.0013038843781968,-0.0013038843781968,0.0013038843781036,0.0013038844658775,0.0035895371255018,0.0034762101692121,0.68204767115856,0.6936596777507,43648,1000,0.0055347392881901,0.0055347392881953,0.0055347392879759,22.211793415736,22.219426561152,9.2894347325888e-05,9.2894347325888e-05,9.2894347325888e-05,441829.42069042,0.016743142896791
27475200,0.99995832065652,0.016371242953558,0.0054570809845887,0.0054570809845893,0.00545708098438,-0.0013329106365145,0.0013329106362934,4.3799997175446e-11,-4.4040417948403e-11,-7.2976994132334e-13,5.4740833587462e-13,-0.0013663332712199,0.0013663332992791,-0.0013663332999741,0.0013663332705114,-0.0013663332721705,0.0013663333014599,-0.0013663333012418,0.0013663332724309,-0.0013047645902744,0.0013047646781252,-0.0013047646778005,0.0013047645906135,-2.8196231565657e-12,-4.1218286103771e-12,-1.4290450201262e-12,-1.35021895762e-12,-0.001332910638593,0.0013329106342142,-0.0013663332867943,0.00136633328503,-0.001366333287173,0.0013663332851998,-0.0013663332876248,0.0013663332847312,-0.001366333287183,0.0013663332846754,-0.0013047646367151,0.0013047646307066,-0.0013047646317585,0.0013047646265214,-0.0013047646372866,0.0013047646263612,-0.0013047646370903,0.0013047646248007,-4.3987767086263e-11,4.3929271020336e-11,-0.0013329106363937,0.00133291063631,-5.2260462302279e-15,-6.9197327245622e-14,-0.0013663333012242,0.0013663332712311,-0.0013663333009287,0.0013663332708157,-0.0013663332713072,0.001366333301226,-0.0013663332709683,0.0013663333007623,-0.0013047645854287,-0.0013047645854287,0.0013047645853969,0.0013047646730656,0.0035930166811288,0.0034760702682427,0.6854254357858,0.71481564294861,43648,1000,0.0055383545568236,0.0055383545568223,0.0055383545566078,22.326920681909,22.334317908059,9.3815365455273e-05,9.3815365455273e-05,9.3815365455273e-05,429437.61833901,0.016754169308193
27561600,0.99995934237747,0.016371258317509,0.0054570861059057,0.0054570861059063,0.005457086105697,-0.0013332843821952,0.0013332843819891,4.3768232675241e-11,-4.4042137601752e-11,-7.3428327403236e-13,5.7581617391703e-13,-0.0013666656255593,0.0013666656536254,-0.0013666656543029,0.0013666656249019,-0.0013666656265093,0.0013666656558624,-0.0013666656556341,0.0013666656268196,-0.0013051398835079,0.0013051399711973,-0.0013051399709461,0.0013051398836248,-2.7731445764544e-12,-4.1083204348073e-12,-1.4069148726576e-12,-1.3308972537672e-12,-0.001333284384258,0.001333284379915,-0.0013666656411149,0.0013666656393768,-0.0013666656415263,0.0013666656395427,-0.0013666656420199,0.0013666656390958,-0.0013666656415131,0.0013666656390321,-0.0013051399297679,0.001305139923925,-0.0013051399248102,0.0013051399196705,-0.0013051399303072,0.001305139919671,-0.0013051399302611,0.0013051399179673,-4.3963396771936e-11,4.3923351260005e-11,-0.0013332843820729,0.0013332843820094,1.3047248474339e-15,-6.0791084050582e-14,-0.0013666656555729,0.0013666656256375,-0.0013666656552898,0.0013666656251964,-0.0013666656256476,0.0013666656555678,-0.0013666656253245,0.0013666656551048,-0.0013051398785952,-0.0013051398785952,0.0013051398785162,0.0013051399663406,0.0035944334898597,0.0034759332057465,0.68879801988495,0.73597160814651,43648,1000,0.0055399032833855,0.005539903283362,0.005539903283174,22.441832820447,22.449209254966,9.4734662563577e-05,9.4734662563577e-05,9.4734662563577e-05,426134.99834778,0.01675889310027
27648000,0.99996034597718,0.016371273484392,0.0054570911615335,0.005457091161534,0.0054570911613247,-0.0013336564023209,0.0013336564021109,4.3775181227674e-11,-4.40325251307e-11,-7.2632728178835e-13,5.7565917871312e-13,-0.0013669965073192,0.0013669965353761,-0.0013669965360486,0.0013669965066123,-0.001366996508277,0.0013669965375757,-0.0013669965373166,0.0013669965085382,-0.0013055134317699,0.001305513519536,-0.0013055135191994,0.0013055134320284,-2.7991056657139e-12,-4.1272942669344e-12,-1.3939542391843e-12,-1.3655989583598e-12,-0.0013336564044067,0.0013336564000376,-0.0013669965228608,0.0013669965211463,-0.0013669965232844,0.0013669965213113,-0.00136699652371,0.0013669965208225,-0.0013669965232985,0.0013669965207696,-0.001305513478143,0.0013055134721823,-0.0013055134732075,0.0013055134679735,-0.0013055134787159,0.0013055134678139,-0.0013055134784993,0.0013055134662225,-4.3941854606505e-11,4.3942741844106e-11,-0.0013336564021881,0.0013336564021322,-2.0943801357716e-14,-3.67459362604e-14,-0.0013669965373509,0.0013669965073365,-0.0013669965370137,0.0013669965069547,-0.0013669965074352,0.0013669965373255,-0.0013669965070671,0.001366996536889,-0.0013055134268393,-0.0013055134268393,0.0013055134268233,0.0013055135145263,0.0035958459310306,0.0034757989225654,0.6921812110792,0.75712757334442,43648,1000,0.0055414448572568,0.0055414448572826,0.0055414448570258,22.556724359766,22.564100601873,9.5653794878128e-05,9.5653794878128e-05,9.5653794878128e-05,422881.89447548,0.016763595096455
27734400,0.99996133159828,0.01637128845428,0.005457096151496,0.0054570961514966,0.0054570961512873,-0.0013340266381461,0.0013340266379526,4.3778888232074e-11,-4.3997426497057e-11,-7.1333926679858e-13,5.7478202903885e-13,-0.0013673260088549,0.0013673260369162,-0.0013673260375944,0.0013673260081568,-0.0013673260097998,0.0013673260390928,-0.0013673260388409,0.0013673260100683,-0.0013058851007437,0.0013058851885558,-0.0013058851882995,0.0013058851011968,-2.8346646382352e-12,-4.1499365164057e-12,-1.4167376902243e-12,-1.3824693253346e-12,-0.0013340266402371,0.0013340266358504,-0.0013673260244121,0.0013673260226692,-0.0013673260247977,0.0013673260228577,-0.0013673260252412,0.0013673260223752,-0.0013673260248331,0.0013673260223074,-0.001305885147191,0.001305885141169,-0.0013058851423555,0.0013058851368982,-0.0013058851478222,0.001305885136816,-0.0013058851475458,0.0013058851352061,-4.393916571806e-11,4.3914534294063e-11,-0.0013340266380141,0.0013340266379633,-1.637638206571e-14,-3.5646616902675e-14,-0.0013673260388296,0.0013673260088756,-0.001367326038518,0.0013673260084684,-0.0013673260089398,0.0013673260388456,-0.0013673260085774,0.0013673260383886,-0.0013058850959762,-0.0013058850959762,0.0013058850958837,0.0013058851835021,0.0035972537454216,0.0034756673617,0.69559445166428,0.77828353854233,43648,1000,0.0055429790349702,0.0055429790349471,0.0055429790347189,22.671614014388,22.67899194878,9.6572912115106e-05,9.6572912115106e-05,9.6572912115106e-05,419674.50512915,0.016768274555069
27820800,0.99996229938641,0.016371303227737,0.0054571010759816,0.0054571010759821,0.0054571010757728,-0.0013343949484622,0.0013343949481773,4.3737599728704e-11,-4.4047677903087e-11,-6.9105241823475e-13,4.4828301114408e-13,-0.0013676540789743,0.0013676541069811,-0.0013676541076894,0.0013676540782473,-0.0013676540799691,0.0013676541091168,-0.0013676541089521,0.0013676540800957,-0.0013062547556396,0.0013062548433903,-0.0013062548431413,0.0013062547558748,-2.9622979155968e-12,-4.1296187841573e-12,-1.5543959260361e-12,-1.3609786583303e-12,-0.0013343949505629,0.0013343949460556,-0.0013676540945789,0.0013676540926706,-0.0013676540949593,0.0013676540928567,-0.0013676540953873,0.0013676540923726,-0.0013676540949315,0.0013676540923792,-0.0013062548021809,0.001306254795902,-0.0013062547971028,0.0013062547918493,-0.0013062548027478,0.0013062547915346,-0.0013062548023658,0.0013062547901772,-4.3903476573045e-11,4.3959482509161e-11,-0.0013343949482535,0.0013343949482724,1.0325175749439e-13,-7.3324054118125e-14,-0.0013676541088568,0.0013676540789979,-0.0013676541085703,0.0013676540785796,-0.0013676540789341,0.0013676541089633,-0.0013676540786776,0.0013676541084795,-0.0013062547507589,-0.0013062547507589,0.0013062547507703,0.0013062548384486,0.0035986563407353,0.003475538467449,0.69905897775269,0.79943950374023,43648,1000,0.0055445052307309,0.0055445052306873,0.0055445052304954,22.786503621647,22.793883295686,9.7492028973176e-05,9.7492028973176e-05,9.7492028973176e-05,416508.50324581,0.016772929690888
27907200,0.99996324948997,0.016371317805751,0.0054571059353198,0.0054571059353204,0.0054571059351111,-0.0013347611649395,0.0013347611646533,4.3728697647715e-11,-4.4058962970101e-11,-6.9434096483073e-13,4.4297399686023e-13,-0.0013679806616271,0.0013679806896535,-0.0013679806903654,0.0013679806609346,-0.001367980662626,0.00136798069181,-0.0013679806916744,0.0013679806627979,-0.0013066222331671,0.0013066223209337,-0.0013066223206758,0.0013066222335218,-2.8753592185731e-12,-4.0386803857924e-12,-1.4483423423709e-12,-1.2520453979314e-12,-0.0013347611669702,0.0013347611626299,-0.001367980677243,0.0013679806754193,-0.001367980677575,0.00136798067564,-0.0013679806780322,0.0013679806751455,-0.0013679806775411,0.0013679806751326,-0.0013066222796699,0.001306622273564,-0.0013066222744978,0.0013066222695182,-0.0013066222801843,0.0013066222692282,-0.0013066222798948,0.0013066222678494,-4.3983733591836e-11,4.3880765855077e-11,-0.0013347611648277,0.0013347611646743,1.5637110532301e-14,-1.6481134747941e-13,-0.0013679806916256,0.001367980661615,-0.0013679806913793,0.0013679806611805,-0.0013679806617258,0.0013679806915775,-0.0013679806614451,0.0013679806910926,-0.0013066222284306,-0.0013066222284306,0.0013066222282942,0.001306622315873,0.003600053019859,0.0034754121853649,0.70259442045206,0.82059546893814,43648,1000,0.0055460227469959,0.0055460227470111,0.0055460227468078,22.901393353454,22.908774642593,9.8411146827635e-05,9.8411146827635e-05,9.8411146827635e-05,413379.31845742,0.016777558377897
27993600,0.9999641820601,0.016371332189587,0.0054571107299316,0.0054571107299322,0.0054571107297229,-0.0013351251240332,0.0013351251237503,4.3711549936272e-11,-4.4071922750659e-11,-6.974730456184e-13,4.5275146287124e-13,-0.0013683057105337,0.00136830573858,-0.0013683057392237,0.0013683057097821,-0.0013683057114955,0.0013683057406986,-0.0013683057405583,0.0013683057117221,-0.0013069873752455,0.001306987462528,-0.0013069874626572,0.0013069873751865,-2.8770129327592e-12,-4.0531253562731e-12,-1.4547166770511e-12,-1.2769900182433e-12,-0.00133512512606,0.0013351251217253,-0.0013683057260796,0.0013683057242885,-0.0013683057264414,0.0013683057245086,-0.0013683057268372,0.0013683057240054,-0.0013683057263814,0.0013683057240052,-0.0013069874214363,0.0013069874154852,-0.0013069874164359,0.0013069874113888,-0.0013069874220907,0.0013069874109283,-0.001306987421734,0.0013069874096777,-4.3961697176798e-11,4.3898466873147e-11,-0.0013351251238893,0.0013351251237937,2.3911710690123e-14,-1.3773023361238e-13,-0.0013683057404449,0.0013683057105167,-0.0013683057402252,0.0013683057100724,-0.0013683057105762,0.0013683057405062,-0.0013683057102748,0.0013683057399891,-0.0013069873703994,-0.0013069873703994,0.0013069873700081,0.001306987457893,0.0036014431048357,0.0034752884621834,0.70621438800912,0.84175143413605,43648,1000,0.0055475309054837,0.0055475309054871,0.0055475309052755,23.016283199149,23.0236659895,9.933026559319e-05,9.933026559319e-05,9.933026559319e-05,410282.63607993,0.016782158548456
28080000,0.99996509646859,0.016371346368423,0.0054571154562104,0.005457115456211,0.0054571154560016,-0.001335459176003,0.0013354591757594,4.3721632922361e-11,-4.4044592526755e-11,-7.061296635176e-13,4.9093241411644e-13,-0.0013686020003833,0.0013686020284249,-0.0013686020290887,0.0013686019997255,-0.0013686020013261,0.0013686020305675,-0.0013686020303642,0.0013686020016119,-0.001307322303312,0.0013073223908496,-0.0013073223907012,0.0013073223035661,-2.886347882877e-12,-4.1102133769792e-12,-1.4787137968968e-12,-1.2667264494353e-12,-0.0013354591780589,0.0013354591737013,-0.0013686020159572,0.0013686020141905,-0.0013686020162998,0.001368602014395,-0.0013686020167642,0.0013686020138902,-0.0013686020162719,0.0013686020138909,-0.0013073223498157,0.0013073223436909,-0.0013073223446537,0.0013073223395488,-0.0013073223502316,0.001307322339221,-0.0013073223499762,0.0013073223378443,-4.3977616778701e-11,4.3865259475845e-11,-0.0013354591758977,0.0013354591757556,2.8664447850206e-14,-1.6683366805184e-13,-0.0013686020303677,0.0013686020004011,-0.0013686020301106,0.0013686019999539,-0.0013686020004947,0.0013686020303273,-0.0013686020001923,0.0013686020298214,-0.0013073222986131,-0.0013073222986131,0.0013073222983531,0.0013073223859485,0.0036027108686401,0.0034751672417443,0.70992161462768,0.86290739933395,43648,1000,0.0055489151348403,0.005548915134836,0.0055489151346145,23.116913752382,23.123413297331,0.00010013531001905,0.00010013531001905,0.00010013531001905,407225.26009289,0.016786380726446
28166400,0.9999659919954,0.016371360329537,0.0054571201099152,0.0054571201099157,0.0054571201097064,-0.0013357574398189,0.00133575743958,4.3732196834935e-11,-4.4026926360562e-11,-6.9357598820024e-13,5.1646492823331e-13,-0.0013688647129656,0.0013688647409989,-0.0013688647416285,0.0013688647121862,-0.0013688647138931,0.0013688647430623,-0.0013688647429747,0.0013688647141635,-0.0013076207023484,0.0013076207901955,-0.0013076207898637,0.0013076207023247,-2.8864294686199e-12,-4.1241132464653e-12,-1.4935243444447e-12,-1.2881706766818e-12,-0.0013357574418962,0.0013357574375011,-0.0013688647284291,0.0013688647266908,-0.0013688647288156,0.0013688647268616,-0.0013688647293196,0.0013688647264264,-0.0013688647288829,0.0013688647263726,-0.0013076207485035,0.0013076207427365,-0.0013076207436286,0.0013076207385769,-0.0013076207490153,0.001307620738245,-0.0013076207487451,0.0013076207369262,-4.393748232831e-11,4.3898552782287e-11,-0.0013357574396816,0.0013357574395974,4.1047040158746e-14,-1.4788824682146e-13,-0.0013688647429048,0.0013688647129231,-0.0013688647426188,0.0013688647124896,-0.0013688647129687,0.0013688647429186,-0.0013688647127699,0.0013688647424856,-0.0013076206972199,-0.0013076206972199,0.001307620697135,0.0013076207852296,0.003603831554148,0.0034750484683139,0.71370583755269,0.88406336453186,43648,1000,0.0055501510686096,0.0055501510686063,0.0055501510683612,23.200257421593,23.205654901352,0.00010080205937275,0.00010080205937275,0.00010080205937275,404211.50023955,0.016790150579174
28252800,0.99996686885963,0.016371374074239,0.0054571246914824,0.005457124691483,0.0054571246912737,-0.0013360514644796,0.0013360514642109,4.371509829846e-11,-4.4034371250773e-11,-7.4452901985539e-13,4.887312460665e-13,-0.0013691224770075,0.0013691225049803,-0.0013691225056409,0.00136912247621,-0.0013691224779438,0.0013691225072698,-0.001369122507103,0.0013691224782382,-0.0013079156713715,0.0013079157586639,-0.0013079157580839,0.0013079156714074,-2.8629143046391e-12,-4.1215210315381e-12,-1.4962412320339e-12,-1.3098335443079e-12,-0.0013360514665349,0.0013360514621442,-0.001369122492617,0.0013691224907161,-0.0013691224929348,0.0013691224910255,-0.0013691224933605,0.0013691224905666,-0.0013691224929521,0.0013691224904321,-0.0013079157170918,0.0013079157111889,-0.0013079157123886,0.0013079157073459,-0.0013079157175279,0.0013079157068779,-0.0013079157170282,0.0013079157056184,-4.3937516591969e-11,4.3889393003288e-11,-0.0013360514643411,0.001336051464233,4.5690663005138e-15,-1.6504922256543e-13,-0.0013691225069968,0.0013691224770532,-0.0013691225067212,0.0013691224766213,-0.0013691224770883,0.0013691225069347,-0.0013691224767613,0.0013691225064879,-0.00130791566601,-0.00130791566601,0.0013079156661309,0.0013079157534866,0.0036049369345198,0.0034749320918124,0.71754532371185,0.90521932972976,43648,1000,0.0055513694339215,0.0055513694338977,0.0055513694336804,23.282599158575,23.287896505372,0.0001014607932686,0.0001014607932686,0.0001014607932686,401202.03788528,0.016793866854401
28339200,0.99996772733083,0.016371387604052,0.00545712920142,0.0054571292014206,0.0054571292012113,-0.0013363431994907,0.0013363431992167,4.3720859122471e-11,-4.4022526200866e-11,-7.3879831257162e-13,4.9541086553812e-13,-0.0013693786188428,0.0013693786468651,-0.0013693786475691,0.0013693786181111,-0.0013693786197502,0.0013693786490465,-0.0013693786488461,0.0013693786200535,-0.0013082083908866,0.0013082084785703,-0.0013082084783257,0.0013082083911918,-2.8962892850563e-12,-4.1569560666691e-12,-1.5120402787956e-12,-1.3375639324577e-12,-0.0013363432015808,0.0013363431971479,-0.0013693786343848,0.0013693786325934,-0.0013693786348155,0.0013693786328249,-0.0013693786352098,0.0013693786322657,-0.001369378634773,0.0013693786322905,-0.0013082084371491,0.0013082084311343,-0.0013082084322866,0.001308208427091,-0.0013082084378196,0.001308208426811,-0.0013082084376404,0.0013082084254363,-4.3969711020216e-11,4.385040081212e-11,-0.0013363431993575,0.0013363431992095,-1.4972983762095e-14,-1.7411959253067e-13,-0.0013693786487909,0.0013693786188034,-0.0013693786485851,0.0013693786183681,-0.001369378618947,0.0013693786488077,-0.001369378618632,0.0013693786482976,-0.0013082083859804,-0.0013082083859804,0.0013082083858314,0.0013082084734473,0.0036060353507533,0.0034748180632719,0.72140916607217,0.92637529492767,43648,1000,0.0055525783087968,0.005552578308841,0.005552578308506,23.364849977438,23.370138109393,0.0001021187998195,0.0001021187998195,0.0001021187998195,398221.41192264,0.016797554199924
28425600,0.99996856768174,0.01637140091993,0.0054571336400462,0.0054571336400467,0.0054571336398374,-0.0013366330978013,0.0013366330974756,4.3678500240035e-11,-4.4046092775041e-11,-8.0736627669092e-13,4.8067466866e-13,-0.0013696335673987,0.0013696335952292,-0.0013696335960158,0.0013696335667122,-0.0013696335683584,0.0013696335976136,-0.0013696335972841,0.0013696335684668,-0.0013084992410502,0.0013084993286804,-0.001308499328547,0.001308499241374,-2.73348296456e-12,-4.048415500156e-12,-1.4379095140278e-12,-1.2378278322682e-12,-0.0013366330997848,0.0013366330955086,-0.0013696335828095,0.0013696335811388,-0.001369633583354,0.0013696335812559,-0.0013696335837746,0.001369633580832,-0.0013696335831481,0.0013696335808431,-0.0013084992874063,0.0013084992814636,-0.0013084992826531,0.0013084992773186,-0.0013084992878791,0.0013084992771178,-0.0013084992877898,0.0013084992757189,-4.4023251472827e-11,4.3778569653571e-11,-0.0013366330977116,0.0013366330974584,-2.5128644101878e-14,-2.0953306949679e-13,-0.0013696335972578,0.0013696335671824,-0.0013696335970421,0.001369633566732,-0.0013696335673667,0.0013696335972273,-0.0013696335671867,0.001369633596621,-0.001308499236399,-0.001308499236399,0.0013084992360315,0.0013084993236491,0.0036071285972211,0.0034747063345426,0.72526138054379,0.94753126012558,43648,1000,0.0055537795705745,0.0055537795706085,0.0055537795703529,23.447091990119,23.452379713413,0.00010277673592096,0.00010277673592096,0.00010277673592096,395276.10160643,0.016801218340346
28512000,0.99996939018409,0.016371414022223,0.0054571380074771,0.0054571380074777,0.0054571380072683,-0.0013369215247146,0.0013369215245438,4.3778164313013e-11,-4.3936574826622e-11,-6.4904881906293e-13,6.0197625709738e-13,-0.0013698875250137,0.0013698875528825,-0.0013698875537173,0.0013698875243852,-0.0013698875261028,0.0013698875551217,-0.0013698875549918,0.0013698875261651,-0.001308788570471,0.0013087886582011,-0.0013087886577042,0.001308788570525,-2.7913266680628e-12,-4.0734177951766e-12,-1.4060448698238e-12,-1.2371727640448e-12,-0.0013369215267678,0.0013369215224789,-0.0013698875404146,0.0013698875386573,-0.0013698875406238,0.0013698875389716,-0.0013698875414085,0.0013698875384941,-0.0013698875409055,0.0013698875383879,-0.0013087886167894,0.0013087886109014,-0.0013087886120038,0.0013087886068168,-0.0013087886172606,0.0013087886068273,-0.001308788617212,0.0013087886051531,-4.3913020163848e-11,4.3877779711008e-11,-0.0013369215246435,0.0013369215244993,-1.7512406184483e-15,-1.5347128214591e-13,-0.0013698875548997,0.001369887524945,-0.001369887554687,0.0013698875244861,-0.0013698875250752,0.001369887555016,-0.0013698875248346,0.0013698875542335,-0.0013087885657146,-0.0013087885657146,0.0013087885656296,0.0013087886534997,0.0036082180608075,0.0034745968582585,0.72906440017692,0.96868722532348,43648,1000,0.0055549747342664,0.0055549747342423,0.005554974734027,23.529333109475,23.534621317433,0.0001034346648758,0.0001034346648758,0.0001034346648758,392371.57685841,0.016804863893573
28598400,0.99997019510813,0.016371426869237,0.0054571422898149,0.0054571422898155,0.0054571422896062,-0.0013372088767011,0.0013372088765823,4.3786198949913e-11,-4.3921286999537e-11,-7.5137092848684e-13,7.0535674595323e-13,-0.0013701392302462,0.0013701392582893,-0.0013701392589333,0.00137013922956,-0.0013701392311389,0.0013701392605158,-0.0013701392601424,0.0013701392314997,-0.0013090774704409,0.001309077558242,-0.001309077557766,0.0013090774708318,-2.7593508801953e-12,-4.2430355546469e-12,-1.4847599945425e-12,-1.3014472122693e-12,-0.0013372088788514,0.0013372088744228,-0.0013701392458005,0.001370139243967,-0.0013701392461183,0.001370139244199,-0.0013701392466936,0.0013701392436154,-0.001370139246213,0.0013701392436324,-0.0013090775169856,0.0013090775107492,-0.001309077511936,0.0013090775066601,-0.0013090775173803,0.0013090775065547,-0.0013090775173346,0.001309077504902,-4.3936387567637e-11,4.384814632217e-11,-0.0013372088766462,0.0013372088765311,3.6694673120571e-14,-1.2995335354366e-13,-0.0013701392601782,0.0013701392302489,-0.0013701392599365,0.0013701392298016,-0.0013701392303173,0.0013701392601862,-0.0013701392300359,0.0013701392596661,-0.0013090774657326,-0.0013090774657326,0.0013090774656004,0.0013090775531829,0.003609305133967,0.0034744895781262,0.73045162193235,0.9587823118705,43648,1000,0.0055561654418429,0.0055561654418238,0.005556165441623,23.611573246524,23.616862921454,0.00010409258597219,0.00010409258597219,0.00010409258597219,389496.06527102,0.016808495860959
28684800,0.99997098272258,0.016371439392107,0.0054571464641052,0.0054571464641058,0.0054571464638965,-0.0013372854491653,0.001337285448991,4.3752305573568e-11,-4.3954278991654e-11,-7.9202721587693e-13,6.4715317109132e-13,-0.0013702435591303,0.0013702435871634,-0.0013702435878428,0.0013702435584326,-0.0013702435600313,0.0013702435893941,-0.0013702435890674,0.0013702435604101,-0.0013091556938878,0.0013091557816824,-0.0013091557812705,0.0013091556943251,-2.7697532682918e-12,-4.235657309459e-12,-1.4885503199272e-12,-1.3360857129104e-12,-0.0013372854512918,0.0013372854468636,-0.0013702435747007,0.0013702435729099,-0.0013702435750506,0.0013702435731061,-0.0013702435755728,0.0013702435725506,-0.0013702435750982,0.0013702435725225,-0.0013091557404555,0.001309155734278,-0.0013091557355026,0.0013091557301372,-0.0013091557407876,0.0013091557300124,-0.0013091557408193,0.0013091557283468,-4.3924510459886e-11,4.3859024372206e-11,-0.0013372854490748,0.0013372854489756,1.4580731039264e-14,-1.2209038786952e-13,-0.0013702435890966,0.001370243559155,-0.0013702435888306,0.0013702435587165,-0.0013702435592179,0.0013702435891125,-0.0013702435589051,0.0013702435886117,-0.0013091556891765,-0.0013091556891765,0.001309155689084,0.0013091557766405,0.0036095276921423,0.0034743844304374,0.72767940984161,0.91361234623909,43648,1000,0.0055564826377487,0.0055564826377469,0.0055564826375294,23.693812125959,23.699104525474,0.00010475049700767,0.00010475049700767,0.00010475049700767,389543.81305378,0.016809463799925
28771200,0.99997175329463,0.016371451575523,0.0054571505252436,0.0054571505252442,0.0054571505250349,-0.0013371335889202,0.0013371335887425,4.3745220084143e-11,-4.3945664901867e-11,-7.7811317035324e-13,6.3593357266588e-13,-0.0013701841179901,0.0013701841460085,-0.0013701841466908,0.0013701841172876,-0.0013701841189074,0.0013701841482397,-0.0013701841479246,0.0013701841192571,-0.0013090051283096,0.0013090052161096,-0.0013090052157126,0.0013090051287729,-2.7714524516771e-12,-4.2120967351007e-12,-1.4808949655577e-12,-1.3359028067333e-12,-0.0013371335910384,0.0013371335866205,-0.0013701841335454,0.0013701841317587,-0.0013701841339016,0.0013701841319476,-0.0013701841344157,0.0013701841314116,-0.0013701841339494,0.0013701841313777,-0.0013090051748657,0.001309005168685,-0.0013090051698982,0.0013090051645937,-0.0013090051752619,0.0013090051644474,-0.001309005175206,0.0013090051628011,-4.3923106208667e-11,4.3844787983588e-11,-0.0013371335888281,0.0013371335887273,1.1754023275598e-14,-1.1769581623831e-13,-0.0013701841479455,0.001370184118004,-0.0013701841476698,0.0013701841175744,-0.0013701841180725,0.0013701841479551,-0.001370184117749,0.0013701841474636,-0.0013090051235956,-0.0013090051235956,0.0013090051235076,0.0013090052110437,0.003608810112897,0.0034742813653993,0.72365121425873,0.86844238060768,43648,1000,0.0055558531866262,0.0055558531866185,0.005555853186404,23.776050684759,23.781346129494,0.00010540840547808,0.00010540840547808,0.00010540840547808,393177.6881974,0.016807544559938
28857600,0.99997250823001,0.016371463591099,0.0054571545304356,0.0054571545304362,0.0054571545302269,-0.0013370362670974,0.0013370362669432,4.3750491099587e-11,-4.3926062677173e-11,-7.6227512478289e-13,6.7890073063693e-13,-0.0013701722007594,0.0013701722286872,-0.0013701722293474,0.0013701721999647,-0.0013701722015525,0.0013701722308498,-0.0013701722304418,0.001370172202,-0.0013089096051858,0.0013089096927681,-0.0013089096925048,0.0013089096055728,-2.779198509158e-12,-4.2468876722615e-12,-1.4974597242216e-12,-1.3598380461164e-12,-0.0013370362692404,0.0013370362647968,-0.0013701722161795,0.0013701722144245,-0.0013701722164829,0.0013701722145471,-0.0013701722171095,0.0013701722139675,-0.0013701722166047,0.0013701722139838,-0.0013089096516479,0.0013089096452345,-0.0013089096468316,0.0013089096413794,-0.0013089096520735,0.0013089096410389,-0.0013089096520796,0.0013089096393814,-4.3905781620274e-11,4.3848187026808e-11,-0.0013370362670309,0.0013370362669787,2.4815800717852e-14,-9.7032506311773e-14,-0.0013701722306293,0.0013701722007206,-0.0013701722303076,0.001370172200273,-0.0013701722007609,0.0013701722306922,-0.0013701722004685,0.0013701722302699,-0.0013089096002291,-0.0013089096002291,0.0013089096000658,0.0013089096876775,0.0036083194676268,0.0034741803855528,0.72848282849822,0.9002125475851,43648,1000,0.0055554497461438,0.0055554497461369,0.0055554497460798,23.883660929763,23.890533391068,0.00010626928743811,0.00010626928743811,0.00010626928743811,397105.93020531,0.016806314626622
28944000,0.99997324895876,0.016371475059775,0.0054571583533278,0.0054571583533283,0.005457158353119,-0.0013375020386672,0.0013375020384719,4.3722837062046e-11,-4.3977170233519e-11,-8.2879562203913e-13,6.1821223168774e-13,-0.001370584172032,0.0013705842001291,-0.0013705842007997,0.0013705841713687,-0.0013705841729253,0.0013705842023243,-0.0013705842020108,0.0013705841733662,-0.001309375624644,0.0013093757121566,-0.0013093757122824,0.0013093756253374,-2.8337691361804e-12,-4.3070374817849e-12,-1.6267766266201e-12,-1.4270741391588e-12,-0.0013375020408528,0.0013375020362818,-0.0013705841877196,0.0013705841858202,-0.0013705841880091,0.0013705841859623,-0.0013705841884859,0.0013705841854129,-0.0013705841880567,0.0013705841853953,-0.0013093756715415,0.0013093756648163,-0.0013093756663157,0.0013093756608124,-0.0013093756717349,0.0013093756605635,-0.0013093756718049,0.0013093756592415,-4.3988116781462e-11,4.3788534025637e-11,-0.0013375020385708,0.0013375020384502,5.1040528982169e-14,-1.3222210776419e-13,-0.0013705842020821,0.0013705841721273,-0.0013705842018467,0.0013705841717009,-0.0013705841721311,0.0013705842019741,-0.001370584171814,0.0013705842016825,-0.0013093756201008,-0.0013093756201008,0.0013093756194073,0.0013093757070614,0.0036101576743114,0.0034740813455075,0.70881521685628,0.7620546278223,43648,1000,0.0055573797969178,0.0055573797969086,0.0055573797966733,24.019581313716,24.0282795395,0.00010735665050973,0.00010735665050973,0.00010735665050973,393104.64184449,0.016812201736549
29030400,0.99997397565077,0.016371485997188,0.005457161999132,0.0054571619991326,0.0054571619989232,-0.0013368648517782,0.0013368648515964,4.3736397353671e-11,-4.3941465324279e-11,-7.6929585148098e-13,6.3529576862094e-13,-0.0013701956989573,0.0013701957269711,-0.0013701957276645,0.0013701956982573,-0.0013701956998772,0.0013701957291858,-0.0013701957288942,0.0013701957002139,-0.0013087334254882,0.0013087335132472,-0.0013087335129076,0.0013087334259598,-2.7862148830479e-12,-4.2174275722473e-12,-1.4747208894656e-12,-1.3448499451691e-12,-0.0013368648538959,0.0013368648494743,-0.0013701957145141,0.0013701957127292,-0.0013701957148656,0.0013701957129187,-0.0013701957153798,0.0013701957123846,-0.0013701957149071,0.0013701957123532,-0.0013087334720379,0.0013087334658863,-0.0013087334670439,0.0013087334617578,-0.001308733472512,0.0013087334616191,-0.0013087334724041,0.0013087334599521,-4.3917250534613e-11,4.3837557675057e-11,-0.0013368648516801,0.001336864851582,7.1613106386404e-15,-1.0720422498451e-13,-0.0013701957288991,0.0013701956989592,-0.0013701957286204,0.001370195698541,-0.0013701956990287,0.0013701957289069,-0.001370195698712,0.0013701957284206,-0.0013087334207957,-0.0013087334207957,0.001308733420665,0.0013087335082002,0.0036074378744897,0.0034739842057617,0.68907659854734,0.64315694384157,43648,1000,0.005554739158865,0.0055547391588556,0.0055547391586318,24.157153472839,24.166025687932,0.00010845722778271,0.00010845722778271,0.00010845722778271,408097.88455719,0.016804148378438
29116800,0.9999746884096,0.016371496546366,0.0054571655155248,0.0054571655155253,0.005457165515316,-0.0013363204214707,0.0013363204212426,4.3717436932899e-11,-4.3964065045638e-11,-7.8202152154402e-13,6.2322101984917e-13,-0.0013698635276911,0.0013698635557558,-0.0013698635564814,0.0013698635270228,-0.001369863528729,0.0013698635581433,-0.0013698635577055,0.0013698635289534,-0.0013081828793385,0.0013081829670924,-0.0013081829668045,0.0013081828798642,-2.7941884041681e-12,-4.2269713983371e-12,-1.5042575459645e-12,-1.3606246985553e-12,-0.0013363204235678,0.0013363204191188,-0.0013698635432259,0.001369863541494,-0.0013698635437039,0.0013698635416463,-0.001369863544172,0.001369863541111,-0.0013698635436793,0.0013698635411927,-0.0013081829258265,0.0013081829194847,-0.0013081829207307,0.0013081829154124,-0.0013081829258785,0.0013081829152439,-0.00130818292606,0.0013081829137693,-4.3914957545838e-11,4.3843614578258e-11,-0.0013363204213576,0.0013363204212953,6.0521504050771e-14,-6.6704491635333e-14,-0.0013698635578055,0.0013698635277772,-0.0013698635573941,0.0013698635273676,-0.0013698635277927,0.0013698635577679,-0.0013698635275504,0.0013698635573019,-0.0013081828745357,-0.0013081828745357,0.0013081828744111,0.0013081829617521,0.003605094554359,0.0034738889644249,0.67784015642818,0.5792568332461,43648,1000,0.0055524829672492,0.0055524829671941,0.0055524829671241,24.294878308598,24.303771836364,0.00010955902646879,0.00010955902646879,0.00010955902646879,422663.27143116,0.016797267330513
29203200,0.9999753873361,0.016371506963653,0.0054571689879537,0.0054571689879542,0.0054571689877449,-0.001336131092177,0.0013361310919951,4.3723180816251e-11,-4.3951712658289e-11,-7.7381488989805e-13,6.5826530221158e-13,-0.0013698019957414,0.0013698020237587,-0.0013698020244421,0.0013698019949972,-0.0013698019966184,0.0013698020260006,-0.0013698020256661,0.0013698019969956,-0.0013079830122145,0.0013079830998139,-0.001307983099478,0.0013079830125879,-2.7600033308516e-12,-4.2187884130275e-12,-1.4910898011713e-12,-1.3255480054183e-12,-0.0013361310943002,0.0013361310898695,-0.0013698020113323,0.0013698020094763,-0.0013698020116556,0.0013698020096605,-0.0013698020121553,0.0013698020091434,-0.0013698020117433,0.0013698020091101,-0.0013079830585608,0.0013079830523632,-0.0013079830536324,0.0013079830481675,-0.0013079830591486,0.0013079830482627,-0.0013079830589595,0.001307983046635,-4.3900482046879e-11,4.3850488897664e-11,-0.0013361310920869,0.0013361310920032,3.2587269187178e-14,-1.1685963590069e-13,-0.0013698020256966,0.001369801995729,-0.0013698020253978,0.0013698019953406,-0.0013698019958247,0.001369802025699,-0.0013698019954719,0.0013698020252369,-0.0013079830073961,-0.0013079830073961,0.0013079830072691,0.0013079830947377,0.0036042232095035,0.0034737956530167,0.68276976668446,0.60854115325235,43648,1000,0.0055516983269548,0.0055516983269498,0.0055516983267849,24.432619288958,24.441517984796,0.00011066095431166,0.00011066095431166,0.00011066095431166,431050.99669072,0.016794874509712
29289600,0.99997607253384,0.016371516908452,0.0054571723028866,0.0054571723028872,0.0054571723026779,-0.001336608312873,0.0013366083126929,4.3725882204313e-11,-4.3945620197351e-11,-7.667868104834e-13,6.4089742102372e-13,-0.0013702237710505,0.0013702237990617,-0.0013702237997438,0.0013702237703431,-0.001370223771971,0.0013702238012921,-0.0013702238009828,0.0013702237723107,-0.0013084631240408,0.001308463211763,-0.0013084632113609,0.0013084631244165,-2.778831343904e-12,-4.2132475822961e-12,-1.4823583326175e-12,-1.3075129387302e-12,-0.0013366083149858,0.0013366083105767,-0.0013702237866075,0.0013702237848198,-0.0013702237869609,0.0013702237850203,-0.0013702237874787,0.0013702237844728,-0.0013702237869993,0.0013702237844547,-0.0013084631705049,0.00130846316434,-0.0013084631655262,0.0013084631602838,-0.0013084631709616,0.0013084631601159,-0.0013084631708632,0.0013084631584605,-4.3904667183731e-11,4.3843794484527e-11,-0.0013366083127821,0.0013366083126782,1.8298440995188e-14,-1.4054694168152e-13,-0.0013702238009941,0.0013702237710518,-0.0013702238007217,0.0013702237706183,-0.0013702237711239,0.0013702238010047,-0.0013702237708183,0.0013702238005052,-0.0013084631192869,-0.0013084631192869,0.0013084631191856,0.0013084632067206,0.0036061194811324,0.0034737041360266,0.665042731954,0.51172604602813,43648,1000,0.0055536758057137,0.0055536758057067,0.0055536758054951,24.57036020888,24.579264133228,0.00011176288167104,0.00011176288167104,0.00011176288167104,426493.40693159,0.016800906295053
29376000,0.99997674410981,0.016371526512565,0.0054571755042579,0.0054571755042584,0.0054571755040491,-0.0013361678921301,0.0013361678918801,4.3690208941166e-11,-4.4010999847106e-11,-7.6242564959623e-13,5.9307529372159e-13,-0.0013699657239845,0.0013699657517433,-0.0013699657525749,0.0013699657230447,-0.0013699657248134,0.0013699657540486,-0.0013699657537617,0.0013699657252392,-0.0013080132888678,0.0013080133770062,-0.0013080133767769,0.0013080132893614,-2.8215809791085e-12,-4.2040001589162e-12,-1.4548844660429e-12,-1.2956139787058e-12,-0.0013361678942629,0.0013361678897986,-0.001369965739529,0.0013699657377649,-0.0013699657399718,0.001369965737803,-0.0013699657405186,0.00136996573741,-0.0013699657400748,0.0013699657371381,-0.0013080133353126,0.0013080133292637,-0.0013080133307011,0.0013080133257192,-0.0013080133360864,0.0013080133252395,-0.0013080133358306,0.0013080133235685,-4.3902118673351e-11,4.3873318406121e-11,-0.0013361678920197,0.0013361678919626,-3.4915992163936e-15,-1.4755834513502e-13,-0.0013699657538561,0.0013699657240026,-0.0013699657534968,0.0013699657236643,-0.0013699657240618,0.0013699657539217,-0.001369965723648,0.0013699657535078,-0.0013080132842274,-0.0013080132842274,0.0013080132840269,0.0013080133719995,0.0036042067334609,0.0034736144118419,0.65527345155804,0.46039400112839,43648,1000,0.0055518506777717,0.005551850677878,0.005551850677714,24.708101938993,24.71701028166,0.00011286481551194,0.00011286481551194,0.00011286481551194,439968.43936929,0.016795339814829
29462400,0.99997740217427,0.016371535545902,0.0054571785153701,0.0054571785153707,0.0054571785151614,-0.0013360419943019,0.0013360419941246,4.3748783269407e-11,-4.394279869531e-11,-7.6838382051937e-13,6.2488096913886e-13,-0.0013699495445557,0.0013699495725768,-0.001369949573254,0.0013699495438544,-0.0013699495454742,0.0013699495747972,-0.0013699495744867,0.0013699495458102,-0.0013078757792227,0.0013078758670538,-0.0013078758666924,0.0013078757797636,-2.7805102337916e-12,-4.2006424379628e-12,-1.4994514574931e-12,-1.3141753528451e-12,-0.0013360419964183,0.0013360419920048,-0.0013699495601324,0.0013699495583308,-0.0013699495604602,0.0013699495585277,-0.001369949560988,0.0013699495579892,-0.0013699495604958,0.0013699495579594,-0.0013078758258028,0.0013078758196109,-0.0013078758208405,0.0013078758155676,-0.0013078758262162,0.0013078758153965,-0.0013078758261281,0.0013078758137592,-4.3945103124912e-11,4.3823338344742e-11,-0.0013360419942247,0.0013360419940948,1.3482676348787e-14,-1.5546610355843e-13,-0.0013699495745132,0.0013699495445735,-0.0013699495742483,0.0013699495441231,-0.0013699495446431,0.0013699495745259,-0.0013699495443485,0.0013699495740262,-0.0013078757745456,-0.0013078757745456,0.0013078757743876,0.0013078758619085,0.003603601227018,0.0034735263765584,0.62925949224701,0.32867198137889,43648,1000,0.0055513289177617,0.0055513289177545,0.00555132891754,24.845843734636,24.854756430091,0.00011396674987709,0.00011396674987709,0.00011396674987709,447502.48561352,0.016793748695873
29548800,0.99997804684069,0.016371544337622,0.0054571814459435,0.0054571814459441,0.0054571814457347,-0.001335246197264,0.001335246197081,4.3751012965998e-11,-4.3961111429987e-11,-7.6353061584027e-13,6.2403034806592e-13,-0.0013694334540643,0.0013694334820889,-0.0013694334827739,0.0013694334533634,-0.0013694334549865,0.0013694334843098,-0.0013694334840103,0.0013694334553238,-0.0013070539331971,0.0013070540209914,-0.0013070540206041,0.0013070539335995,-2.7878483037362e-12,-4.2006924952572e-12,-1.4898471038407e-12,-1.3193815761515e-12,-0.0013352461993781,0.0013352461949647,-0.0013694334696276,0.0013694334678401,-0.0013694334699815,0.0013694334680437,-0.0013694334704925,0.0013694334674987,-0.0013694334700212,0.0013694334674761,-0.0013070539797541,0.0013070539735726,-0.0013070539747449,0.0013070539695049,-0.0013070539801422,0.0013070539692962,-0.0013070539800525,0.0013070539676556,-4.3932404012861e-11,4.3855793500318e-11,-0.0013352461971754,0.0013352461970643,1.8889099421567e-14,-1.3421675271151e-13,-0.001369433484035,0.0013694334540768,-0.0013694334837638,0.0013694334536391,-0.001369433454159,0.0013694334840332,-0.0013694334538447,0.0013694334835368,-0.0013070539284634,-0.0013070539284634,0.0013070539283559,0.0013070540159454,0.0036002070807568,0.003473440086626,0.62526363819998,0.31012996753392,43648,1000,0.0055480312305169,0.0055480312305124,0.0055480312302988,24.983585962553,24.992502578523,0.00011506868770042,0.00011506868770042,0.00011506868770042,469299.16633888,0.016783690585008
29635200,0.99997867770388,0.016371553154199,0.0054571843848026,0.0054571843848031,0.0054571843845938,-0.0013353241631417,0.0013353241629647,4.3753660296888e-11,-4.3970490555226e-11,-7.775991860551e-13,6.2990099225119e-13,-0.0013695548817987,0.0013695549098056,-0.0013695549105078,0.0013695548810993,-0.0013695548827417,0.0013695549120637,-0.0013695549117098,0.0013695548830501,-0.0013071272250602,0.0013071273127996,-0.0013071273122857,0.0013071272254981,-2.7385482215846e-12,-4.1740294274426e-12,-1.4645469943887e-12,-1.3333389438811e-12,-0.001335324165232,0.0013353241608578,-0.0013695548973363,0.0013695548956439,-0.0013695548977368,0.0013695548958327,-0.0013695548982157,0.0013695548952589,-0.0013695548977017,0.001369554895193,-0.0013071272712657,0.001307127265118,-0.0013071272664756,0.0013071272609749,-0.0013071272717768,0.0013071272610373,-0.0013071272717802,0.0013071272595561,-4.3960349276799e-11,4.3843627166109e-11,-0.0013353241630918,0.0013353241629209,-4.1321914114477e-14,-1.5783964869531e-13,-0.0013695549118912,0.0013695548817856,-0.0013695549116041,0.0013695548813158,-0.0013695548819096,0.0013695549118665,-0.001369554881571,0.0013695549113118,-0.0013071272199825,-0.0013071272199825,0.0013071272199535,0.0013071273074245,0.0036004496846542,0.0034733555806909,0.64093379862942,0.39400691979346,43648,1000,0.0055483542692989,0.0055483542692644,0.0055483542691048,25.107303821666,25.115347663448,0.00011605843057333,0.00011605843057333,0.00011605843057333,472255.37697911,0.016784676083648
29721600,0.99997929439762,0.016371561977605,0.0054571873259378,0.0054571873259384,0.0054571873257291,-0.0013362289884068,0.0013362289882368,4.3706447739199e-11,-4.4013688235566e-11,-7.0317828309202e-13,6.5020743072696e-13,-0.0013702828439855,0.0013702828719999,-0.0013702828727374,0.0013702828432968,-0.0013702828448388,0.0013702828742405,-0.0013702828738213,0.0013702828452369,-0.0013080464816177,0.0013080465691804,-0.0013080465693728,0.0013080464819688,-2.8041757461205e-12,-4.1827907480256e-12,-1.475013851104e-12,-1.3667710990223e-12,-0.0013362289905391,0.001336228986106,-0.0013702828594929,0.0013702828577427,-0.0013702828598597,0.0013702828579556,-0.001370282860399,0.0013702828574098,-0.0013702828599107,0.0013702828572779,-0.0013080465280225,0.0013080465219215,-0.0013080465233766,0.0013080465177095,-0.0013080465285932,0.0013080465175987,-0.0013080465282157,0.0013080465160448,-4.3966447119926e-11,4.383059062319e-11,-0.0013362289883472,0.0013362289882199,-1.4538555857098e-14,-1.0574426958515e-13,-0.0013702828739385,0.0013702828439803,-0.0013702828736667,0.0013702828435861,-0.0013702828441169,0.0013702828739342,-0.0013702828437491,0.0013702828734538,-0.0013080464768673,-0.0013080464768673,0.0013080464762451,0.0013080465642197,0.003604135339633,0.0034732728174328,0.65611549910829,0.47788387205301,43648,1000,0.0055521036642951,0.0055521036642981,0.0055521036641365,25.216594796588,25.223709057217,0.0001169327583727,0.0001169327583727,0.0001169327583727,457324.62292931,0.016796112417573
29808000,0.99997989709126,0.01637157079543,0.0054571902652126,0.0054571902652132,0.0054571902650038,-0.0013370969659391,0.0013370969657475,4.3750363221141e-11,-4.3970216269487e-11,-7.5903687076815e-13,6.098963680846e-13,-0.0013709752570525,0.0013709752850808,-0.0013709752857662,0.0013709752563509,-0.0013709752579829,0.0013709752872974,-0.001370975287014,0.0013709752583079,-0.0013089303225088,0.0013089304102684,-0.0013089304099169,0.0013089303229112,-2.7805449386137e-12,-4.1762434186303e-12,-1.4309365211656e-12,-1.3634583178725e-12,-0.0013370969680416,0.0013370969636408,-0.0013709752726,0.0013709752708388,-0.0013709752729846,0.0013709752710016,-0.0013709752734574,0.0013709752705055,-0.0013709752730155,0.0013709752704411,-0.0013089303689836,0.0013089303629253,-0.0013089303640753,0.0013089303587455,-0.0013089303694567,0.0013089303586105,-0.0013089303693532,0.0013089303569981,-4.3924686925083e-11,4.387286136126e-11,-0.0013370969658276,0.0013370969657516,-1.2195950951482e-14,-6.5128363314383e-14,-0.0013709752870142,0.0013709752570569,-0.0013709752867161,0.0013709752566584,-0.0013709752571325,0.0013709752870196,-0.0013709752567888,0.0013709752865612,-0.0013089303177385,-0.0013089303177385,0.0013089303176848,0.0013089304052617,0.0036076663255976,0.0034731917581694,0.67066509045351,0.56176082431252,43648,1000,0.0055557003731889,0.00555570037318,0.0055557003729662,25.325040056439,25.332070450983,0.00011780032045151,0.00011780032045151,0.00011780032045151,443422.50612448,0.016807083059137
29894400,0.99998048598413,0.016371579591044,0.005457193197084,0.0054571931970846,0.0054571931968753,-0.001337934502218,0.0013379345020321,4.3753901289526e-11,-4.3956535099202e-11,-7.5899351915134e-13,6.1197248113136e-13,-0.0013716467921424,0.0013716468201643,-0.0013716468208487,0.0013716467914381,-0.0013716467930699,0.0013716468223816,-0.0013716468220942,0.0013716467933956,-0.0013097791081834,0.0013097791959887,-0.001309779195584,0.0013097791086233,-2.7854782584924e-12,-4.183338084246e-12,-1.4406636357737e-12,-1.3694540464719e-12,-0.0013379345043278,0.001337934499919,-0.0013716468076882,0.0013716468059321,-0.0013716468080742,0.0013716468060944,-0.0013716468085513,0.001371646805594,-0.001371646808112,0.0013716468055332,-0.0013097791546951,0.0013097791486122,-0.0013097791497745,0.0013097791444386,-0.0013097791551437,0.0013097791442831,-0.0013097791550545,0.0013097791426742,-4.3918731312905e-11,4.3868554728119e-11,-0.0013379345021095,0.0013379345020339,-1.1034309968228e-14,-6.7690373282031e-14,-0.0013716468221034,0.0013716467921534,-0.0013716468217999,0.0013716467917502,-0.0013716467922283,0.0013716468221096,-0.0013716467918821,0.0013716468216484,-0.0013097791034121,-0.0013097791034121,0.0013097791034033,0.0013097791909374,0.0036110699362065,0.0034731123635374,0.68440467843413,0.64563777657206,43648,1000,0.0055591709522622,0.0055591709522552,0.0055591709520411,25.43340835538,25.44043184475,0.00011866726684304,0.00011866726684304,0.00011866726684304,430578.24178154,0.01681766901927
29980800,0.99998106127836,0.016371588417748,0.0054571961393188,0.0054571961393194,0.00545719613911,-0.0013387465476179,0.0013387465474118,4.3745637424334e-11,-4.3966534911362e-11,-7.4419950051022e-13,5.6466075000169e-13,-0.00137229773643,0.0013722977644676,-0.0013722977651512,0.0013722977357356,-0.0013722977373755,0.0013722977666668,-0.0013722977664119,0.0013722977376693,-0.001310599909017,0.0013105999967954,-0.0013105999964205,0.0013105999094507,-2.8040829254267e-12,-4.1398270605368e-12,-1.4699334768942e-12,-1.2911937313884e-12,-0.0013387465497016,0.0013387465453238,-0.0013722977519966,0.0013722977502022,-0.0013722977523469,0.0013722977504082,-0.00137229775284,0.0013722977498862,-0.0013722977523644,0.0013722977498694,-0.0013105999555424,0.001310599949458,-0.0013105999505134,0.0013105999453367,-0.001310599956022,0.0013105999450949,-0.001310599955862,0.0013105999436027,-4.3941020131997e-11,4.3848168645017e-11,-0.001338746547518,0.0013387465474043,3.029880968628e-14,-1.3224090130771e-13,-0.0013722977663997,0.0013722977364274,-0.0013722977661348,0.0013722977359893,-0.0013722977365044,0.0013722977663899,-0.0013722977361984,0.0013722977658957,-0.0013105999043096,-0.0013105999043096,0.0013105999042387,0.0013105999917457,0.0036143663864079,0.0034730346134806,0.70278239687564,0.77423136867587,43648,1000,0.0055625359143647,0.0055625359143556,0.0055625359141421,25.541771205598,25.548793238517,0.00011953416964478,0.00011953416964478,0.00011953416964478,418686.34220449,0.016827932843194
30067200,0.99998162317614,0.016371596902278,0.0054571989674954,0.005457198967496,0.0054571989672867,-0.0013398464842324,0.0013398464839401,4.3694906327076e-11,-4.4007953587226e-11,-6.6509156426219e-13,3.9990131270117e-13,-0.0013731539294206,0.0013731539574363,-0.0013731539581231,0.0013731539287137,-0.001373153930438,0.0013731539595542,-0.001373153959459,0.0013731539305685,-0.00131170845339,0.0013117085409847,-0.0013117085407973,0.0013117084536246,-2.8884504657033e-12,-3.9801187042233e-12,-1.4322661864276e-12,-1.2715890950025e-12,-0.0013398464862368,0.001339846481932,-0.0013731539449701,0.0013731539431844,-0.001373153945326,0.0013731539433852,-0.001373153945735,0.0013731539429481,-0.0013731539452659,0.0013731539429246,-0.0013117084997249,0.0013117084937577,-0.0013117084947153,0.0013117084896422,-0.0013117085003285,0.001311708489276,-0.0013117084999438,0.0013117084880215,-4.392698985473e-11,4.3852813767818e-11,-0.0013398464840841,0.0013398464839814,2.1930094756541e-14,-1.2289262806751e-13,-0.0013731539593715,0.0013731539294247,-0.0013731539591049,0.0013731539289902,-0.0013731539294977,0.0013731539593762,-0.0013731539291821,0.0013731539588833,-0.0013117084485376,-0.0013117084485376,0.0013117084484514,0.0013117085359933,0.0036188506763594,0.0034729583728313,0.69156266506513,0.70027482735307,43648,1000,0.0055670939149879,0.00556709391498,0.0055670939147662,25.650128413992,25.657154632285,0.00012040102731194,0.00012040102731194,0.00012040102731194,402532.82391629,0.016841835482391
30153600,0.99998217187976,0.01637160484024,0.0054572016134826,0.0054572016134831,0.0054572016132738,-0.0013395584926094,0.0013395584922323,4.3636950274064e-11,-4.4089557388404e-11,-7.0519875077988e-13,3.4991972195739e-13,-0.0013730007822501,0.0013730008102817,-0.0013730008109956,0.0013730007815206,-0.001373000783309,0.0013730008123063,-0.0013730008123362,0.0013730007833068,-0.0013114163937024,0.0013114164810157,-0.0013114164810604,0.0013114163937805,-2.8662697903666e-12,-3.9482127377522e-12,-1.4292494844682e-12,-1.2897148353912e-12,-0.0013395584945663,0.0013395584902835,-0.0013730007977805,0.0013730007960406,-0.001373000798149,0.0013730007962133,-0.0013730007985106,0.0013730007958116,-0.0013730007980936,0.0013730007958273,-0.0013114164399525,0.001311416433967,-0.0013114164349333,0.0013114164297709,-0.0013114164405071,0.0013114164295677,-0.001311416440165,0.0013114164283063,-4.393837833035e-11,4.3865602671243e-11,-0.001339558492428,0.0013395584923277,1.4359796612188e-14,-1.0928251443538e-13,-0.0013730008122172,0.0013730007822474,-0.0013730008119296,0.001373000781817,-0.0013730007823342,0.0013730008122,-0.0013730007819939,0.0013730008116853,-0.0013114163888697,-0.0013114163888697,0.0013114163886207,0.0013114164762547,0.003617591864714,0.0034728835510947,0.66249761737437,0.53603222639823,43648,1000,0.0055659004099849,0.0055659004100017,0.0055659004098068,25.758485160873,25.765516026052,0.00012126788128698,0.00012126788128698,0.00012126788128698,410951.59028852,0.016838195529577
30240000,0.99998270759148,0.016371612494919,0.0054572041650424,0.0054572041650429,0.0054572041648336,-0.0013386144237582,0.0013386144234547,4.3692771980514e-11,-4.4014082635282e-11,-6.9893029521807e-13,3.8899029308415e-13,-0.0013723639053665,0.0013723639333769,-0.0013723639340572,0.0013723639046457,-0.0013723639063844,0.001372363935503,-0.0013723639354018,0.0013723639065175,-0.0013104555185653,0.0013104556062112,-0.0013104556060252,0.0013104555188995,-2.8471550801902e-12,-3.9613318075619e-12,-1.4177535121328e-12,-1.2590088028512e-12,-0.0013386144257448,0.0013386144214656,-0.0013723639208963,0.0013723639191232,-0.0013723639212486,0.0013723639193295,-0.0013723639216652,0.0013723639188739,-0.0013723639211899,0.0013723639188361,-0.0013104555650297,0.0013104555590707,-0.0013104555599888,0.0013104555549061,-0.0013104555655091,0.0013104555545952,-0.0013104555651556,0.0013104555533173,-4.3945595080471e-11,4.3838717316102e-11,-0.0013386144236101,0.0013386144234886,1.879007303499e-14,-1.2241449561531e-13,-0.0013723639353062,0.0013723639053547,-0.0013723639350389,0.0013723639048993,-0.0013723639054312,0.0013723639352969,-0.0013723639051258,0.0013723639347987,-0.0013104555138376,-0.0013104555138376,0.001310455513755,0.0013104556012688,0.0036136061848216,0.0034728101904133,0.65448115417504,0.49251518427336,43648,1000,0.0055619882564749,0.0055619882564696,0.0055619882562384,25.866843651746,25.873877419819,0.00012213474921397,0.00012213474921397,0.00012213474921397,432879.60140938,0.016826263108016
30326400,0.9999832305133,0.016371619869506,0.0054572066232382,0.0054572066232388,0.0054572066230294,-0.0013384984007457,0.0013384984004499,4.3682061837113e-11,-4.3994515174231e-11,-6.8214186691656e-13,4.0808870964063e-13,-0.0013723343675725,0.0013723343955766,-0.0013723343962635,0.0013723343668373,-0.001372334368573,0.0013723343977337,-0.0013723343975977,0.0013723343686987,-0.001310332961588,0.0013103330490791,-0.0013103330489193,0.0013103329618278,-2.8520416367916e-12,-3.9683830039174e-12,-1.4183959042729e-12,-1.2592510307454e-12,-0.0013384984027436,0.0013384983984513,-0.0013723343831016,0.0013723343813058,-0.0013723343834514,0.0013723343815213,-0.0013723343839264,0.0013723343810743,-0.0013723343833928,0.0013723343810559,-0.0013103330078617,0.0013103330019001,-0.001310333002909,0.0013103329978709,-0.0013103330084184,0.001310332997487,-0.0013103330080584,0.001310332996175,-4.3926011472854e-11,4.3827177492165e-11,-0.0013384984006058,0.0013384984004911,5.1846945523168e-15,-1.3783502452873e-13,-0.0013723343975134,0.0013723343675747,-0.0013723343972763,0.0013723343671435,-0.001372334367641,0.0013723343975757,-0.0013723343673219,0.0013723343970357,-0.0013103329567838,-0.0013103329567838,0.0013103329566228,0.0013103330441115,0.0036130571039945,0.0034727382605497,0.6462559090369,0.4489981421485,43648,1000,0.0055615074226417,0.0055615074226401,0.0055615074224371,25.975202337868,25.982238813586,0.00012300161870294,0.00012300161870294,0.00012300161870294,438918.23562422,0.016824796729133
30412800,0.99998374178423,0.016371626928823,0.0054572089763436,0.0054572089763442,0.0054572089761348,-0.0013384346093381,0.0013384346090296,4.3686487584263e-11,-4.4011457068433e-11,-7.2560206864899e-13,4.1197694379892e-13,-0.0013723573948776,0.00137235742293,-0.001372357423537,0.0013723573941352,-0.0013723573958845,0.0013723574250137,-0.0013723574248702,0.0013723573960111,-0.0013102632331043,0.0013102633204997,-0.0013102633206687,0.0013102632333087,-2.835501436201e-12,-3.9979897465105e-12,-1.4230877609399e-12,-1.2679670291835e-12,-0.0013384346112898,0.0013384346069801,-0.0013723574104389,0.0013723574085003,-0.0013723574108117,0.0013723574088316,-0.0013723574111479,0.0013723574083492,-0.0013723574107166,0.001372357408375,-0.0013102632792865,0.0013102632733262,-0.0013102632741902,0.0013102632691384,-0.0013102632797124,0.0013102632686944,-0.0013102632792235,0.0013102632675556,-4.3946038361047e-11,4.3828513804283e-11,-0.0013384346091555,0.0013384346090416,2.050819701807e-14,-1.1819377161435e-13,-0.0013723574247958,0.0013723573948707,-0.0013723574246194,0.0013723573944498,-0.0013723573949531,0.0013723574248541,-0.0013723573946227,0.0013723574242943,-0.0013102632281494,-0.0013102632281494,0.0013102632277532,0.0013102633154079,0.0036127274082637,0.0034726677218826,0.63286330942349,0.37972806822775,43648,1000,0.0055612430204974,0.0055612430202948,0.005561243020144,26.114949571678,26.123956663091,0.00012411959657343,0.00012411959657343,0.00012411959657343,445194.33117412,0.016823990535581
30499200,0.99998424240015,0.016371634085336,0.0054572113618482,0.0054572113618488,0.0054572113616394,-0.0013382130734597,0.0013382130732279,4.3690277762593e-11,-4.3944710519259e-11,-7.1651375805535e-13,5.3558416768308e-13,-0.0013722830922781,0.0013722831202665,-0.0013722831209589,0.0013722830915635,-0.0013722830932376,0.0013722831224374,-0.0013722831222432,0.0013722830934687,-0.0013100276849666,0.0013100277725992,-0.0013100277723722,0.001310027685407,-2.8412616719945e-12,-4.1212400989439e-12,-1.45050477631e-12,-1.2979904649293e-12,-0.0013382130755217,0.0013382130711565,-0.001372283107787,0.0013722831060233,-0.0013722831081461,0.0013722831062076,-0.0013722831086187,0.0013722831057271,-0.0013722831081414,0.0013722831056842,-0.001310027731426,0.0013100277254326,-0.0013100277264447,0.0013100277213071,-0.0013100277319731,0.0013100277209974,-0.0013100277317701,0.0013100277195273,-4.391636291467e-11,4.3796468606771e-11,-0.0013382130733484,0.0013382130732277,4.3520141077799e-15,-1.3215716857157e-13,-0.001372283122195,0.0013722830922571,-0.0013722831219117,0.0013722830918217,-0.0013722830923398,0.0013722831221991,-0.0013722830920183,0.0013722831217182,-0.0013100276803253,-0.0013100276803253,0.0013100276801647,0.0013100277676262,0.0036117438898396,0.0034725986617796,0.65520164597717,0.50541939280744,43648,1000,0.005560324958888,0.0055603249588686,0.0055603249586571,26.284459468599,26.295405071381,0.00012547567574879,0.00012547567574879,0.00012547567574879,456109.84367391,0.016821190578384
30585600,0.99998473247286,0.016371641158617,0.0054572137196085,0.005457213719609,0.0054572137193997,-0.0013395245079167,0.0013395245076893,4.3657951338378e-11,-4.3939274979428e-11,-7.4512541340068e-13,5.2522818993345e-13,-0.0013733349828779,0.0013733350109141,-0.0013733350115554,0.0013733349821997,-0.0013733349838201,0.0013733350130865,-0.0013733350128554,0.0013733349840932,-0.0013113593943548,0.0013113594814826,-0.0013113594813423,0.0013113593945091,-2.8286977028739e-12,-4.1262320640899e-12,-1.4850135162094e-12,-1.3298920491814e-12,-0.0013395245099934,0.0013395245056209,-0.0013733349984293,0.0013733349966491,-0.0013733349987882,0.0013733349968502,-0.0013733349992004,0.0013733349963402,-0.0013733349987213,0.0013733349963362,-0.0013113594406215,0.0013113594343443,-0.001311359435472,0.0013113594300744,-0.001311359440826,0.0013113594300017,-0.0013113594408518,0.0013113594285282,-4.3876454163267e-11,4.3804893967029e-11,-0.001339524507812,0.0013395245076878,2.1696690122186e-15,-1.3111990614158e-13,-0.0013733350128722,0.0013733349829193,-0.0013733350125977,0.0013733349824732,-0.0013733349830395,0.0013733350128742,-0.0013733349826641,0.0013733350123335,-0.0013113593893419,-0.0013113593893419,0.0013113593891095,0.0013113594764522,0.0036171360603606,0.0034725310001682,0.66161086450416,0.54258644128895,43648,1000,0.0055657592138152,0.0055657592138323,0.0055657592135953,26.455723977902,26.466853479671,0.00012684579182321,0.00012684579182321,0.00012684579182321,435894.80861781,0.016837766533499
30672000,0.99998521206887,0.016371648144018,0.0054572160480754,0.005457216048076,0.0054572160478666,-0.0013401306387241,0.001340130638488,4.3691698072145e-11,-4.3954188641473e-11,-7.5591873073107e-13,4.9803749117886e-13,-0.0013738686867285,0.0013738687147511,-0.0013738687154331,0.0013738686860532,-0.0013738686877033,0.0013738687169302,-0.0013738687166903,0.0013738686879452,-0.0013119702681703,0.0013119703557826,-0.0013119703554827,0.0013119702684751,-2.824855996706e-12,-4.1072892310157e-12,-1.4264049831304e-12,-1.2911895844563e-12,-0.0013401306407899,0.0013401306364485,-0.0013738687023099,0.0013738687005773,-0.0013738687027037,0.0013738687007842,-0.0013738687031684,0.001373868700286,-0.0013738687027031,0.0013738687002634,-0.0013119703146049,0.0013119703085225,-0.0013119703096312,0.001311970304425,-0.00131197031503,0.0013119703041576,-0.0013119703150366,0.0013119703028104,-4.387763039204e-11,4.3844420259528e-11,-0.0013401306386089,0.0013401306385272,7.0969890742083e-15,-1.1393346058746e-13,-0.0013738687167177,0.0013738686867947,-0.0013738687163823,0.0013738686863201,-0.001373868686835,0.0013738687167264,-0.0013738686864904,0.0013738687162122,-0.0013119702634426,-0.0013119702634426,0.0013119702633654,0.0013119703508442,0.0036195973430002,0.0034724647072966,0.66738661502984,0.57665384232419,43648,1000,0.0055682708198424,0.005568270819897,0.005568270819685,26.627149430199,26.638301887961,0.0001282171954416,0.0001282171954416,0.0001282171954416,430013.43146101,0.0168454278843
30758400,0.99998568125455,0.016371655072713,0.0054572183576403,0.0054572183576409,0.0054572183574316,-0.0013407090945774,0.0013407090945602,4.3898454050009e-11,-4.3716372671294e-11,-7.0535304018409e-13,5.2888772519598e-13,-0.0013743837718003,0.0013743837996551,-0.0013743837999703,0.0013743837710155,-0.0013743837723705,0.0013743838019341,-0.0013743838015618,0.0013743837730783,-0.0013125513157842,0.0013125514045185,-0.0013125514027127,0.0013125513162293,-2.9901907693716e-12,-4.2597391031885e-12,-1.4897509891299e-12,-1.3765359771826e-12,-0.0013407090967682,0.0013407090922614,-0.001374383787171,0.0013743837853626,-0.001374383787631,0.001374383785657,-0.0013743837881865,0.0013743837849316,-0.0013743837878303,0.0013743837851751,-0.0013125513623516,0.0013125513565049,-0.001312551357607,0.0013125513519544,-0.0013125513627863,0.0013125513513138,-0.0013125513629435,0.0013125513500801,-4.3885388243278e-11,4.3804808999036e-11,-0.0013407090945371,0.0013407090944533,6.6769136719294e-15,-9.3376470942321e-14,-0.0013743838013609,0.0013743837716996,-0.0013743838014029,0.0013743837715002,-0.0013743837716199,0.0013743838014686,-0.0013743837714738,0.0013743838009029,-0.0013125513104239,-0.0013125513104239,0.0013125513116301,0.0013125513985621,0.0036219448019762,0.0034723997635918,0.67653509854826,0.63237306579079,43648,1000,0.0055706677458275,0.005570667745604,0.0055706677455225,26.798591064313,26.809750296251,0.0001295887285145,0.0001295887285145,0.0001295887285145,424772.54338487,0.01685273948094
30844800,0.99998614010005,0.016371662013805,0.0054572206713376,0.0054572206713382,0.0054572206711288,-0.0013414368929579,0.001341436892702,4.3657134245693e-11,-4.3928283256394e-11,-7.1121497875295e-13,4.7523248197389e-13,-0.001375002610726,0.0013750026387076,-0.0013750026393899,0.0013750026100244,-0.0013750026117076,0.0013750026408596,-0.0013750026406951,0.0013750026119108,-0.0013132862690178,0.0013132863565783,-0.0013132863562945,0.0013132862693154,-2.8428257418603e-12,-4.0561512638337e-12,-1.4123738823592e-12,-1.3006900589292e-12,-0.0013414368949955,0.0013414368906628,-0.0013750026262562,0.0013750026244833,-0.0013750026266301,0.0013750026246659,-0.0013750026270571,0.001375002624212,-0.001375002626603,0.0013750026241776,-0.0013132863153375,0.0013132863094158,-0.0013132863103938,0.0013132863052607,-0.0013132863158919,0.0013132863049033,-0.0013132863156699,0.0013132863035226,-4.386586028102e-11,4.3796546016171e-11,-0.0013414368928238,0.0013414368927318,4.7583840463984e-15,-9.1640288687379e-14,-0.0013750026406431,0.0013750026107305,-0.0013750026403647,0.0013750026103178,-0.0013750026108015,0.0013750026406426,-0.0013750026104781,0.0013750026401647,-0.0013132862642282,-0.0013132862642282,0.0013132862642031,0.00131328635162,0.003624912196079,0.0034723361600878,0.69285498591978,0.74307751585792,43648,1000,0.0055736835182964,0.0055736835182931,0.0055736835180803,26.97003667957,26.981198704541,0.00013096029343656,0.00013096029343656,0.00013096029343656,416767.20176067,0.016861938724321
30931200,0.99998658867954,0.016371668842866,0.0054572229476914,0.005457222947692,0.0054572229474827,-0.001342534007575,0.0013425340073315,4.3656730199213e-11,-4.3941965309005e-11,-6.8587810571821e-13,5.1551619251065e-13,-0.0013758900443211,0.0013758900722405,-0.0013758900729301,0.0013758900435535,-0.0013758900452753,0.0013758900743943,-0.0013758900742063,0.0013758900454984,-0.0013143911911676,0.0013143912787865,-0.0013143912781974,0.0013143911912012,-2.8333248556352e-12,-4.059282344652e-12,-1.4622580054923e-12,-1.3306550258729e-12,-0.0013425340096409,0.0013425340052681,-0.0013758900598479,0.0013758900580332,-0.0013758900602063,0.0013758900582176,-0.0013758900606828,0.0013758900577688,-0.0013758900602531,0.0013758900577276,-0.0013143912373854,0.0013143912311803,-0.0013143912324632,0.0013143912273465,-0.0013143912382142,0.001314391227051,-0.0013143912376871,0.0013143912258028,-4.3829355543274e-11,4.384632984825e-11,-0.0013425340074259,0.0013425340073778,-4.3252796303822e-15,-1.2014065331492e-13,-0.0013758900741516,0.0013758900443132,-0.0013758900738433,0.0013758900439124,-0.0013758900443308,0.0013758900742092,-0.0013758900439992,0.0013758900737227,-0.0013143911862169,-0.0013143911862169,0.0013143911865184,0.0013143912740498,0.0036294074886108,0.0034722738358504,0.69715415226745,0.77014088914354,43648,1000,0.0055782297126337,0.0055782297126388,0.0055782297124207,27.141480785947,27.152647112831,0.00013233184628757,0.00013233184628757,0.00013233184628757,402619.35078943,0.016875806072116
31017600,0.99998702707118,0.016371675547793,0.0054572251826672,0.0054572251826678,0.0054572251824584,-0.0013430440045096,0.0013430440042665,4.3661145240807e-11,-4.3923430404646e-11,-7.1836334861045e-13,5.0136715416583e-13,-0.0013763510066534,0.0013763510346535,-0.0013763510353191,0.0013763510059616,-0.001376351007631,0.0013763510368075,-0.0013763510366219,0.0013763510078629,-0.0013149031493355,0.0013149032368833,-0.001314903236625,0.0013149031496967,-2.8196330386167e-12,-4.0663646577039e-12,-1.4355508213784e-12,-1.3008288782178e-12,-0.0013430440065515,0.0013430440022156,-0.0013763510221901,0.0013763510204198,-0.0013763510225633,0.0013763510206104,-0.0013763510230077,0.0013763510201524,-0.0013763510225344,0.0013763510201165,-0.0013149031957536,0.0013149031896699,-0.0013149031906996,0.001314903185516,-0.0013149031961721,0.0013149031852776,-0.0013149031959532,0.0013149031838298,-4.3871281438937e-11,4.3789724753967e-11,-0.0013430440043852,0.0013430440042871,1.7567286860857e-14,-1.0250860372664e-13,-0.0013763510366056,0.0013763510066839,-0.0013763510363377,0.0013763510062545,-0.0013763510067652,0.0013763510366021,-0.0013763510064419,0.0013763510361174,-0.0013149031445387,-0.0013149031445387,0.001314903144453,0.001314903231853,0.0036314734236257,0.0034722127612686,0.70020539153731,0.78770223647543,43648,1000,0.0055803429431038,0.0055803429430851,0.0055803429428887,27.312924504942,27.324095521121,0.00013370339603953,0.00013370339603953,0.00013370339603953,398930.41895101,0.016882252479192
31104000,0.99998745669697,0.016371682213706,0.0054572274046379,0.0054572274046385,0.0054572274044292,-0.001343592679749,0.001343592679541,4.3687480024532e-11,-4.3907963759494e-11,-7.2952594877715e-13,5.6327520409387e-13,-0.0013768675071184,0.0013768675351065,-0.0013768675357922,0.0013768675064095,-0.0013768675080685,0.0013768675373011,-0.0013768675370612,0.0013768675083418,-0.0013154539610518,0.0013154540486912,-0.0013154540483724,0.0013154539614734,-2.8199752046344e-12,-4.1395278343838e-12,-1.4183240535267e-12,-1.3347285778993e-12,-0.0013435926818311,0.0013435926774561,-0.0013768675226571,0.0013768675208981,-0.0013768675230355,0.0013768675210713,-0.0013768675234942,0.0013768675205861,-0.0013768675230495,0.0013768675205362,-0.0013154540074421,0.0013154540014376,-0.0013154540025088,0.0013154539972804,-0.0013154540079596,0.0013154539970225,-0.0013154540077862,0.0013154539954854,-4.3867515583393e-11,4.3804977493889e-11,-0.0013435926796321,0.0013435926795519,-3.3879259129536e-15,-7.2160383785102e-14,-0.0013768675370555,0.001376867507135,-0.0013768675367617,0.0013768675067269,-0.0013768675072099,0.0013768675370643,-0.0013768675068701,0.0013768675365991,-0.0013154539562606,-0.0013154539562606,0.0013154539562046,0.0013154540436298,0.0036337058693966,0.003472152934248,0.71022922088257,0.86308056669197,43648,1000,0.005582616408187,0.0055826164081813,0.0055826164079676,27.538448887698,27.553020224961,0.00013550759110158,0.00013550759110158,0.00013550759110158,396330.00878153,0.016889187848825
31190400,0.99998787799136,0.016371688825281,0.0054572296084965,0.0054572296084971,0.0054572296082877,-0.0013445576254245,0.0013445576252103,4.3667284288557e-11,-4.3903714536364e-11,-7.4290236366627e-13,5.5486728447945e-13,-0.0013776939040051,0.0013776939319776,-0.001377693932662,0.0013776939033078,-0.0013776939049383,0.0013776939341626,-0.0013776939339152,0.0013776939052325,-0.0013164217769037,0.0013164218645576,-0.0013164218641523,0.0013164217772707,-2.817331579513e-12,-4.1416732982531e-12,-1.461540674465e-12,-1.3541951596792e-12,-0.001344557627513,0.0013445576231176,-0.0013776939195263,0.001377693917772,-0.0013776939199096,0.0013776939179408,-0.0013776939203706,0.0013776939174604,-0.0013776939199302,0.0013776939174018,-0.0013164218234369,0.001316421817214,-0.0013164218184411,0.0013164218131295,-0.0013164218237327,0.0013164218127918,-0.0013164218235993,0.0013164218113399,-4.3842174592837e-11,4.3805797674715e-11,-0.0013445576253013,0.0013445576252261,6.1067252084426e-15,-8.6340362361196e-14,-0.0013776939339317,0.0013776939040274,-0.0013776939336342,0.0013776939036196,-0.0013776939040961,0.0013776939339227,-0.0013776939037527,0.00137769393346,-0.0013164217720943,-0.0013164217720943,0.0013164217721297,0.0013164218595351,0.0036376611195271,0.0034720943254188,0.71828557127619,0.92744920702684,43648,1000,0.0055866148505111,0.0055866148505026,0.0055866148502887,27.782785110791,27.798660846662,0.00013746228088633,0.00013746228088633,0.00013746228088633,387644.54968694,0.016901384868847
31276800,0.99998829093047,0.016371695255425,0.0054572317518778,0.0054572317518784,0.0054572317516691,-0.001345443208855,0.0013454432086517,4.3680911931065e-11,-4.3904039702901e-11,-7.4475113071712e-13,5.8194322203403e-13,-0.001378463137723,0.0013784631657059,-0.0013784631663894,0.0013784631370149,-0.0013784631386631,0.0013784631679051,-0.0013784631676471,0.001378463138961,-0.0013173084195042,0.0013173085070719,-0.0013173085066804,0.0013173084198254,-2.7965002158968e-12,-4.1497900502919e-12,-1.3813908876919e-12,-1.3931411757875e-12,-0.0013454432109437,0.0013454432065587,-0.0013784631532427,0.0013784631515125,-0.0013784631536651,0.0013784631516491,-0.0013784631540861,0.0013784631511904,-0.0013784631536852,0.0013784631511001,-0.0013173084658058,0.0013173084598432,-0.0013173084609225,0.0013173084556496,-0.001317308466322,0.0013173084554244,-0.0013173084662163,0.0013173084538527,-4.383089484919e-11,4.3831000551843e-11,-0.0013454432087174,0.0013454432086826,-3.0520832315405e-14,-5.2879855144959e-15,-0.001378463167631,0.001378463137717,-0.0013784631673009,0.0013784631373513,-0.0013784631377912,0.0013784631676404,-0.0013784631374199,0.0013784631672138,-0.0013173084146499,-0.0013173084146499,0.0013173084147264,0.0013173085021252,0.003641288648961,0.0034720368770283,0.71266364705992,0.86462826064949,43648,1000,0.0055902844164834,0.0055902844164743,0.0055902844162623,28.028285262359,28.044301468363,0.00013942628209888,0.00013942628209888,0.00013942628209888,380595.86668816,0.01691257884135
31363200,0.99998869547011,0.016371701484929,0.005457233828379,0.0054572338283796,0.0054572338281702,-0.0013455030270333,0.0013455030268404,4.3690380582981e-11,-4.3911681057698e-11,-7.369543100811e-13,6.1156543474282e-13,-0.0013786430793854,0.0013786431073598,-0.0013786431080537,0.0013786430786748,-0.0013786430803231,0.0013786431095641,-0.0013786431093142,0.0013786430806258,-0.0013173687652688,0.0013173688529303,-0.0013173688524956,0.0013173687655773,-2.7997415874634e-12,-4.1748874600539e-12,-1.378739674567e-12,-1.4018980259188e-12,-0.0013455030291312,0.0013455030247386,-0.0013786430948991,0.0013786430931764,-0.0013786430953239,0.0013786430933046,-0.0013786430957482,0.0013786430928612,-0.0013786430953498,0.0013786430927636,-0.0013173688115801,0.0013173688056349,-0.0013173688067721,0.0013173688014083,-0.0013173688122093,0.0013173688012754,-0.0013173688120118,0.0013173687996124,-4.3834565854691e-11,4.3844452523248e-11,-0.0013455030269001,0.0013455030268668,-3.9582173144722e-14,-3.1367571153998e-15,-0.0013786431092875,0.0013786430793709,-0.0013786431089517,0.0013786430790044,-0.0013786430794535,0.0013786431092993,-0.0013786430790677,0.0013786431088689,-0.001317368760399,-0.001317368760399,0.0013173687605157,0.0013173688479935,0.0036415125212825,0.0034719805586381,0.70472923046648,0.79905950129702,43648,1000,0.0055905320240109,0.0055905320240028,0.0055905320237896,28.273893152023,28.289942090064,0.00014139114521619,0.00014139114521619,0.00014139114521619,386180.82149479,0.016913335255083
31449600,0.99998909157093,0.016371707502419,0.0054572358342092,0.0054572358342098,0.0054572358340004,-0.0013455496701439,0.001345549669924,4.3674051670054e-11,-4.3918409146277e-11,-7.6919320755786e-13,5.8477178268227e-13,-0.0013788081126323,0.0013788081403678,-0.0013788081411783,0.0013788081117671,-0.001378808113218,0.0013788081426428,-0.0013788081424401,0.0013788081136248,-0.0013174149641218,0.001317415052005,-0.0013174150514695,0.0013174149646557,-2.8352020335829e-12,-4.2136419820122e-12,-1.5222710250769e-12,-1.5241028808796e-12,-0.0013455496723077,0.0013455496677868,-0.0013788081282508,0.001378808126348,-0.0013788081284152,0.0013788081262423,-0.0013788081290126,0.0013788081258277,-0.0013788081285611,0.0013788081258832,-0.0013174150106891,0.0013174150043801,-0.0013174150058264,0.0013174150001368,-0.0013174150111512,0.0013174150001345,-0.0013174150109936,0.0013174149984696,-4.3892651668444e-11,4.3777210048048e-11,-0.0013455496699946,0.0013455496699333,-2.4866034477363e-14,-8.605237115913e-15,-0.001378808142194,0.001378808112298,-0.0013788081420426,0.001378808112068,-0.0013788081125049,0.0013788081422133,-0.0013788081122259,0.0013788081418456,-0.0013174149593134,-0.0013174149593134,0.0013174149594434,0.001317415046804,0.0036416783719623,0.0034719253425842,0.69536100387995,0.73349074194454,43648,1000,0.0055907250704712,0.0055907250705262,0.0055907250701811,28.519513769108,28.535582711765,0.00014335611015286,0.00014335611015286,0.00014335611015286,392642.02126212,0.016913925091704
31536000,0.99998947920059,0.016371713302384,0.0054572377675307,0.0054572377675313,0.005457237767322,-0.0013455935688664,0.0013455935687042,4.3639531959901e-11,-4.400395065069e-11,-7.3175929231474e-13,6.1353560984944e-13,-0.0013789690185183,0.0013789690467419,-0.0013789690472507,0.0013789690176279,-0.0013789690193905,0.001378969048994,-0.0013789690485043,0.0013789690198118,-0.0013174564053416,0.0013174564925615,-0.0013174564922894,0.0013174564052089,-2.885396794285e-12,-4.2551794777761e-12,-1.4306373538344e-12,-1.627714774431e-12,-0.0013455935711298,0.0013455935664783,-0.00137896903435,0.001378969032373,-0.0013789690346944,0.0013789690326508,-0.0013789690350758,0.001378969032014,-0.0013789690350207,0.0013789690318053,-0.0013174564513156,0.0013174564453207,-0.0013174564470022,0.0013174564411851,-0.0013174564522634,0.00131745644097,-0.0013174564520632,0.0013174564395375,-4.3637957449178e-11,4.4083512161317e-11,-0.0013455935684785,0.0013455935688183,-1.9790571882202e-16,2.1007108247263e-13,-0.0013789690480754,0.0013789690186478,-0.0013789690479994,0.0013789690182845,-0.0013789690184086,0.0013789690484141,-0.0013789690179904,0.0013789690483193,-0.0013174564001831,-0.0013174564001831,0.0013174564004199,0.0013174564883669,0.0036418303888583,0.0034718712035609,0.68499480632603,0.66792198259207,43648,1000,0.0055909067750295,0.0055909067751071,0.0055909067744621,28.765137905936,28.781223333466,0.00014532110324749,0.00014532110324749,0.00014532110324749,399680.59908278,0.016914480216347
31622400,0.99998985833399,0.016371718882136,0.0054572396274482,0.0054572396274487,0.0054572396272394,-0.0013456293904402,0.0013456293901265,4.3638788982599e-11,-4.3991072279409e-11,-7.9124282807473e-13,5.307979021355e-13,-0.0013791233261852,0.0013791233541712,-0.0013791233547834,0.0013791233254661,-0.0013791233272538,0.0013791233562245,-0.0013791233560876,0.0013791233272865,-0.001317487661609,0.0013174877489741,-0.0013174877495027,0.0013174876620555,-2.7065738454387e-12,-4.0537852772895e-12,-1.2370681201828e-12,-1.3881620337792e-12,-0.0013456293923796,0.0013456293881454,-0.0013791233417882,0.0013791233399655,-0.0013791233421837,0.0013791233400508,-0.0013791233425543,0.0013791233398185,-0.001379123342021,0.0013791233396888,-0.0013174877079315,0.0013174877020656,-0.0013174877031217,0.0013174876980801,-0.0013174877084945,0.0013174876978356,-0.0013174877082425,0.0013174876962762,-4.393700496054e-11,4.377160110175e-11,-0.0013456293902297,0.0013456293901607,-1.1740247225859e-13,4.5179208041501e-14,-0.0013791233561122,0.0013791233262372,-0.0013791233556612,0.0013791233257985,-0.0013791233263011,0.0013791233560369,-0.0013791233257535,0.0013791233557105,-0.001317487657299,-0.001317487657299,0.0013174876566259,0.0013174877443897,0.003641947319569,0.0034718181176255,0.67388530085451,0.60235322323963,43648,1000,0.0055910550329862,0.0055910550328998,0.005591055032621,29.010763525621,29.026863955166,0.00014728610820497,0.00014728610820497,0.00014728610820497,407268.75849036,0.016914933230135
31708800,0.99999022885434,0.016371724239334,0.0054572414131807,0.0054572414131813,0.0054572414129719,-0.0013456443984434,0.0013456443981957,4.366126553125e-11,-4.3928372253675e-11,-7.7939124895587e-13,5.8341652996666e-13,-0.0013792590728829,0.0013792591007817,-0.0013792591015811,0.0013792590720948,-0.0013792590737535,0.0013792591029061,-0.0013792591027366,0.0013792590740425,-0.0013174964193971,0.0013174965073715,-0.001317496506338,0.0013174964196688,-2.8327430498796e-12,-4.2217595575552e-12,-1.3718676492085e-12,-1.492398202377e-12,-0.0013456444005334,0.0013456443960612,-0.0013792590884255,0.0013792590865758,-0.0013792590887022,0.0013792590866589,-0.0013792590892684,0.0013792590861521,-0.0013792590888291,0.0013792590861087,-0.001317496465865,0.0013174964595483,-0.0013174964608986,0.0013174964548689,-0.0013174964664733,0.0013174964556025,-0.001317496466486,0.0013174964534042,-4.3841643609058e-11,4.3825029969535e-11,-0.0013456443982494,0.0013456443982666,-4.6549519120614e-14,8.7642557874135e-14,-0.0013792591027037,0.0013792590727264,-0.0013792591023073,0.0013792590725029,-0.0013792590728059,0.0013792591028056,-0.0013792590725169,0.0013792591023609,-0.0013174964143343,-0.0013174964143343,0.0013174964153791,0.0013174965023406,0.0036419763467232,0.003471766061382,0.66218355721678,0.53678446388715,43648,1000,0.0055911170669296,0.0055911170668375,0.0055911170666746,29.251694428483,29.267511874844,0.00014921355542786,0.00014921355542786,0.00014921355542786,415399.03685147,0.016915123141617
31795200,0.99999058620414,0.016371729281956,0.0054572430940548,0.0054572430940553,0.005457243093846,-0.0013452140486756,0.0013452140484873,4.3687437614063e-11,-4.3898029768853e-11,-7.626995235825e-13,6.1059593494861e-13,-0.0013789615840762,0.0013789616120603,-0.001378961612743,0.0013789615833758,-0.0013789615850018,0.0013789616142764,-0.0013789616139871,0.0013789615853305,-0.0013170521568546,0.001317052244516,-0.0013170522441353,0.0013170521572784,-2.787575723828e-12,-4.1876946570381e-12,-1.3431328505663e-12,-1.45881781647e-12,-0.0013452140507829,0.0013452140463764,-0.0013789615995732,0.0013789615978748,-0.0013789616000148,0.0013789615979783,-0.001378961600433,0.00137896159754,-0.0013789616000494,0.0013789615974187,-0.0013170522031868,0.0013170521972975,-0.0013170521984511,0.0013170521929314,-0.0013170522037803,0.0013170521928454,-0.0013170522036984,0.0013170521912456,-4.3823686187057e-11,4.3838741638888e-11,-0.0013452140485326,0.001345214048523,-6.7634374992741e-14,6.0216131026766e-14,-0.0013789616139931,0.0013789615840881,-0.0013789616136339,0.0013789615837449,-0.001378961584156,0.0013789616140031,-0.0013789615837509,0.0013789616136007,-0.0013170521520147,-0.0013170521520147,0.0013170521521092,0.0013170522395397,0.0036401409429041,0.003471714983351,0.64637596912181,0.45226358797313,43648,1000,0.0055893337834046,0.005589333783397,0.0055893337831824,29.269691089772,29.271394129255,0.00014935752871817,0.00014935752871817,0.00014935752871817,424297.54455011,0.016909683536297
31881600,0.99999093058673,0.016371734468977,0.0054572448230616,0.0054572448230622,0.0054572448228528,-0.0013445999178251,0.0013445999176098,4.3653198424753e-11,-4.3898714806749e-11,-7.462763782395e-13,5.6682133105624e-13,-0.0013785134669158,0.0013785134948967,-0.0013785134955852,0.0013785134662202,-0.0013785134678654,0.00137851349709,-0.0013785134968514,0.0013785134681546,-0.0013164250953513,0.001316425182907,-0.0013164251826272,0.0013164250957515,-2.8147101301847e-12,-4.1548776595748e-12,-1.3573101821645e-12,-1.400331103199e-12,-0.0013445999199065,0.0013445999155275,-0.0013785134824338,0.0013785134807204,-0.0013785134828483,0.0013785134808472,-0.0013785134832706,0.0013785134804031,-0.0013785134828511,0.0013785134803021,-0.0013164251416268,0.0013164251357624,-0.0013164251368229,0.0013164251314348,-0.0013164251422819,0.0013164251313107,-0.0013164251421273,0.0013164251297582,-4.3822518928598e-11,4.3806528534741e-11,-0.0013445999176835,0.0013445999176447,-4.670269091191e-14,9.6697045971621e-15,-0.0013785134968364,0.0013785134669298,-0.0013785134964979,0.0013785134665586,-0.0013785134670034,0.0013785134968502,-0.0013785134666226,0.0013785134964147,-0.0013164250905289,-0.0013164250905289,0.0013164250905152,0.0013164251779283,0.0036375364799386,0.0034716649882814,0.68979310318266,0.76226457269967,43648,1000,0.0055867890029074,0.0055867890029055,0.0055867890026866,29.274879305047,29.275276383666,0.00014939903444038,0.00014939903444038,0.00014939903444038,436514.39656773,0.016901920871478
31968000,0.99999126244663,0.016371739492347,0.0054572464975185,0.0054572464975191,0.0054572464973098,-0.0013468446878098,0.001346844687605,4.3663207354281e-11,-4.3889001279961e-11,-7.497895650317e-13,5.7927065662024e-13,-0.0013801459445606,0.0013801459725323,-0.0013801459732164,0.0013801459438587,-0.0013801459455007,0.0013801459747325,-0.0013801459744744,0.0013801459457983,-0.0013186985863511,0.0013186986739491,-0.0013186986736052,0.0013186985867483,-2.8031241311878e-12,-4.1593384644768e-12,-1.3708399747209e-12,-1.4136929597093e-12,-0.0013468446899007,0.0013468446855102,-0.0013801459600645,0.0013801459583421,-0.001380145960481,0.0013801459584706,-0.0013801459609089,0.0013801459580213,-0.0013801459605016,0.0013801459579257,-0.0013186986326754,0.0013186986267523,-0.0013186986278645,0.0013186986224553,-0.001318698633253,0.0013186986223079,-0.0013186986331306,0.0013186986207543,-4.3821521870822e-11,4.3807769849761e-11,-0.0013468446876721,0.0013468446876352,-4.5519550585446e-14,1.077811191255e-14,-0.0013801459744677,0.0013801459445707,-0.0013801459741314,0.0013801459442015,-0.0013801459446408,0.0013801459744756,-0.0013801459442598,0.0013801459740479,-0.00131869858153,-0.00131869858153,0.0013186985815669,0.0013186986689658,0.0036467837006368,0.0034716159717292,0.69337037619216,0.78347041116359,43648,1000,0.0055960909262914,0.0055960909262834,0.0055960909260689,29.278889872778,29.279158638077,0.00014943111898222,0.00014943111898222,0.00014943111898222,395976.83623074,0.016930294953214
32054400,0.99999158223433,0.016371744362515,0.0054572481209079,0.0054572481209084,0.0054572481206991,-0.0013469883827426,0.0013469883825421,4.3665903742497e-11,-4.388747744416e-11,-7.5085970881013e-13,5.851728292541e-13,-0.0013802522472809,0.0013802522752542,-0.0013802522759377,0.0013802522465791,-0.0013802522482117,0.001380252277454,-0.0013802522771886,0.0013802522485192,-0.0013188435714592,0.0013188436590652,-0.0013188436587028,0.0013188435718629,-2.8054397663291e-12,-4.1680381987059e-12,-1.3784790060597e-12,-1.4202269659822e-12,-0.0013469883848393,0.0013469883804416,-0.0013802522627767,0.001380252261059,-0.0013802522631982,0.001380252261185,-0.0013802522636259,0.0013802522607357,-0.0013802522632207,0.0013802522606389,-0.0013188436177978,0.0013188436118481,-0.0013188436129853,0.0013188436075552,-0.0013188436183638,0.0013188436074184,-0.001318843618235,0.0013188436058491,-4.3821280672309e-11,4.3809140278483e-11,-0.0013469883826065,0.0013469883825699,-4.5764013705501e-14,9.1436030221453e-15,-0.0013802522771902,0.0013802522472868,-0.0013802522768544,0.0013802522469213,-0.0013802522473591,0.0013802522771955,-0.0013802522469768,0.0013802522767702,-0.0013188435666291,-0.0013188435666291,0.0013188435666777,0.0013188436540641,0.003647330023583,0.0034715679165108,0.6971123479446,0.80523991285448,43648,1000,0.0055966863612175,0.0055966863612099,0.0055966863609933,29.282784958027,29.283040892488,0.00014946227966422,0.00014946227966422,0.00014946227966422,393032.07221395,0.016932111292194
32140800,0.99999189038617,0.01637174908698,0.0054572496957293,0.0054572496957299,0.0054572496955206,-0.001347133377535,0.0013471333773214,4.3661424055818e-11,-4.3889610673109e-11,-7.6104739758323e-13,5.7951864904425e-13,-0.001380360822517,0.0013803608504743,-0.0013803608511745,0.0013803608217901,-0.0013803608234742,0.0013803608526818,-0.0013803608524244,0.0013803608237529,-0.0013189891735966,0.0013189892612149,-0.0013189892608714,0.0013189891739855,-2.8033558888137e-12,-4.1702399549731e-12,-1.3768034101891e-12,-1.4170588568835e-12,-0.0013471333796234,0.0013471333752213,-0.0013803608380194,0.0013803608362736,-0.0013803608384397,0.0013803608364059,-0.0013803608388499,0.001380360835965,-0.0013803608384473,0.0013803608358575,-0.0013189892199157,0.0013189892140006,-0.0013189892151432,0.0013189892097248,-0.0013189892205021,0.0013189892095982,-0.0013189892204359,0.0013189892079758,-4.3814136184685e-11,4.3814068069119e-11,-0.0013471333773826,0.0013471333773586,-4.0143685402673e-14,1.3214566892288e-14,-0.0013803608524018,0.0013803608225268,-0.0013803608520695,0.0013803608221694,-0.0013803608225834,0.0013803608524437,-0.0013803608222083,0.0013803608519953,-0.0013189891687521,-0.0013189891687521,0.0013189891688167,0.0013189892562179,0.0036478829067323,0.0034715208045126,0.70174154180992,0.83311157431456,43648,1000,0.0055972871822083,0.0055972871821839,0.0055972871819698,29.286668551138,29.286923146899,0.00014949334840911,0.00014949334840911,0.00014949334840911,390067.67239789,0.016933944069942
32227200,0.99999218732303,0.016371753670605,0.0054572512236043,0.0054572512236049,0.0054572512233955,-0.0013473152981056,0.0013473152979251,4.3675047345519e-11,-4.3876303609043e-11,-7.5478305954269e-13,5.9344575299255e-13,-0.0013804951623154,0.0013804951902986,-0.0013804951909516,0.0013804951616336,-0.0013804951632284,0.0013804951925198,-0.0013804951921994,0.0013804951635955,-0.001319172263714,0.0013191723513621,-0.0013191723509941,0.0013191722641587,-2.8050817184437e-12,-4.1796092569827e-12,-1.3828892830934e-12,-1.4191925564063e-12,-0.0013473153002186,0.0013473152958081,-0.0013804951778367,0.0013804951760883,-0.0013804951782389,0.0013804951762039,-0.0013804951786953,0.0013804951757552,-0.0013804951782661,0.001380495175662,-0.0013191723100597,0.0013191723041215,-0.0013191723052222,0.0013191722997714,-0.0013191723106051,0.0013191722996656,-0.0013191723105384,0.0013191722981178,-4.3827048378462e-11,4.3801555833712e-11,-0.0013473152979792,0.0013473152979365,-4.3791073977455e-14,5.97331751925e-15,-0.0013804951922422,0.001380495162349,-0.0013804951919115,0.0013804951619686,-0.0013804951623957,0.001380495192248,-0.0013804951620243,0.0013804951917541,-0.0013191722588784,-0.0013191722588784,0.0013191722589024,0.0013191723463265,0.0036485894011737,0.0034714746175369,0.706485987971,0.86098323577464,43648,1000,0.0055980410170974,0.0055980410170889,0.0055980410168591,29.290550998696,29.29080540131,0.00014952440798957,0.00014952440798957,0.00014952440798957,386471.47016368,0.016936243594673
32313600,0.99999247345066,0.016371758117977,0.0054572527060618,0.0054572527060623,0.005457252705853,-0.0013474935981861,0.0013474935979753,4.3654745201029e-11,-4.3894476465639e-11,-7.7234475833897e-13,5.9564992095084e-13,-0.001380626041326,0.0013806260693277,-0.0013806260700304,0.0013806260406192,-0.0013806260422693,0.0013806260715263,-0.0013806260713156,0.0013806260426119,-0.0013193522052199,0.0013193522928586,-0.0013193522925784,0.0013193522056999,-2.8107981320465e-12,-4.2051958870934e-12,-1.3800956625543e-12,-1.4219771183986e-12,-0.0013474936003008,0.0013474935958837,-0.0013806260569212,0.001380626055141,-0.0013806260573064,0.0013806260552387,-0.0013806260577157,0.0013806260548339,-0.0013806260573146,0.0013806260547222,-0.0013193522516074,0.0013193522456779,-0.0013193522467703,0.0013193522413473,-0.0013193522522677,0.0013193522412883,-0.0013193522520399,0.001319352239649,-4.3829859292591e-11,4.3795969386727e-11,-0.0013474935980717,0.0013474935980209,-5.0579895995367e-14,4.4026596194178e-15,-0.0013806260712528,0.0013806260413842,-0.0013806260710014,0.0013806260410448,-0.0013806260414484,0.0013806260712859,-0.0013806260410803,0.0013806260708191,-0.0013193522004401,-0.0013193522004401,0.001319352200451,0.0013193522878403,0.0036492819724324,0.0034714293376915,0.71132427543392,0.88885489723472,43648,1000,0.0055987798463073,0.0055987798463551,0.0055987798461645,29.294433332094,29.294687655721,0.00014955546665675,0.00014955546665675,0.00014955546665675,382911.3849019,0.016938497354525
32400000,0.99999274916021,0.016371762433151,0.005457254144453,0.0054572541444536,0.0054572541442443,-0.00134766846429,0.0013476684641018,4.3671979086311e-11,-4.3881097874346e-11,-7.6487810408719e-13,5.9537075300865e-13,-0.0013807552968871,0.0013807553249136,-0.0013807553255926,0.00138075529619,-0.0013807552978121,0.001380755327074,-0.0013807553268177,0.0013807552981395,-0.0013195283067357,0.0013195283943773,-0.0013195283940087,0.0013195283071674,-2.7854333775106e-12,-4.1724159473216e-12,-1.3730037615599e-12,-1.4093721799415e-12,-0.0013476684663684,0.0013476684619914,-0.0013807553123403,0.0013807553106881,-0.0013807553127801,0.0013807553108157,-0.0013807553132184,0.0013807553103205,-0.0013807553127861,0.0013807553102783,-0.0013195283530963,0.0013195283471828,-0.0013195283483092,0.001319528342891,-0.0013195283536931,0.0013195283427496,-0.0013195283535849,0.0013195283411955,-4.3824161378423e-11,4.3805761322885e-11,-0.0013476684641589,0.0013476684641081,-5.843177377295e-14,-8.6565002557416e-15,-0.0013807553267425,0.0013807552969391,-0.0013807553264746,0.0013807552965257,-0.001380755296971,0.0013807553267933,-0.0013807552966137,0.0013807553263521,-0.0013195283019629,-0.0013195283019629,0.0013195283019815,0.0013195283893744,0.0036499614645272,0.0034713849473002,0.716203846459,0.9167265586948,43648,1000,0.0055995044446418,0.0055995044445756,0.0055995044443833,29.298315651434,29.298569910132,0.00014958652521147,0.00014958652521147,0.00014958652521147,379407.22486955,0.016940707715433
32486400,0.99999301481112,0.01637176652046,0.0054572555068894,0.00545725550689,0.0054572555066807,-0.0013478381071687,0.0013478381069889,4.366106489032e-11,-4.3906303221987e-11,-7.4354552048886e-13,6.2569412076822e-13,-0.0013808794813674,0.0013808795093293,-0.0013808795100291,0.0013808794806564,-0.0013808794822308,0.0013808795115523,-0.0013808795111956,0.0013808794825975,-0.0013196995866226,0.0013196996742031,-0.0013196996739694,0.0013196995871034,-2.7791132176459e-12,-4.1734046818223e-12,-1.3790464887234e-12,-1.4180379740309e-12,-0.0013478381092796,0.0013478381048799,-0.0013808794968536,0.0013808794951361,-0.0013808794972754,0.0013808794953155,-0.0013808794977152,0.0013808794947993,-0.0013808794973195,0.0013808794947046,-0.0013196996329046,0.0013196996269479,-0.0013196996282235,0.0013196996227206,-0.0013196996335312,0.0013196996227184,-0.0013196996334187,0.0013196996210546,-4.3833542944763e-11,4.38105981163e-11,-0.001347838107053,0.0013478381070052,-6.6400000937315e-14,-1.4250417600701e-14,-0.0013808795112622,0.0013808794813483,-0.001380879510937,0.0013808794809847,-0.0013808794814212,0.0013808795112566,-0.0013808794810385,0.0013808795108361,-0.0013196995819229,-0.0013196995819229,0.0013196995817941,0.0013196996693059,0.0036506201627529,0.0034713414022342,0.70409223023041,0.81481010692511,43648,1000,0.0056002073979089,0.005600207397913,0.005600207397703,29.301029013471,29.301209604224,0.00014960823210777,0.00014960823210777,0.00014960823210777,375949.64406005,0.016942852051892
32572800,0.99999327038291,0.016371770365703,0.0054572567886369,0.0054572567886375,0.0054572567884282,-0.0013471441436085,0.0013471441434175,4.3674855939601e-11,-4.3890795754553e-11,-7.4921240619292e-13,6.0289799364485e-13,-0.0013803692131672,0.0013803692411387,-0.0013803692418242,0.0013803692124593,-0.0013803692140936,0.0013803692433495,-0.0013803692430673,0.0013803692144138,-0.0013190041969766,0.0013190042846099,-0.0013190042842134,0.0013190041973488,-2.7949670862623e-12,-4.1735502656101e-12,-1.3883904679772e-12,-1.4110889804356e-12,-0.0013471441457136,0.00134714414131,-0.0013803692286783,0.0013803692269466,-0.0013803692290934,0.0013803692270831,-0.0013803692295382,0.0013803692266144,-0.0013803692291289,0.0013803692265257,-0.0013190042433302,0.0013190042373528,-0.0013190042384841,0.0013190042330868,-0.0013190042438746,0.0013190042329433,-0.0013190042437377,0.0013190042313718,-4.3826339870695e-11,4.3816286677813e-11,-0.0013471441434814,0.0013471441434365,-4.3857807232918e-14,-7.7227640748586e-15,-0.0013803692430692,0.0013803692131652,-0.0013803692427444,0.0013803692127978,-0.001380369213244,0.0013803692430766,-0.0013803692128679,0.001380369242642,-0.0013190041921426,-0.0013190041921426,0.0013190041921995,0.0013190042796264,0.0036477096937001,0.0034712986794765,0.68852644586499,0.71055228244282,43648,1000,0.0055973316901308,0.0055973316901258,0.0055973316899071,29.27720728024,29.275707101139,0.00014941765824192,0.00014941765824192,0.00014941765824192,385880.23212118,0.016934080222265
32659200,0.9999935162492,0.016371773970004,0.0054572579900707,0.0054572579900712,0.0054572579898619,-0.0013464230812284,0.0013464230810172,4.3666187557356e-11,-4.389982171411e-11,-7.4606344356804e-13,5.7128148891913e-13,-0.0013798322671147,0.0013798322950912,-0.0013798322957722,0.0013798322664123,-0.0013798322680581,0.0013798322972818,-0.0013798322970353,0.0013798322683468,-0.0013182779249998,0.0013182780126058,-0.0013182780122709,0.0013182779253765,-2.8050182497944e-12,-4.1490707193258e-12,-1.3869037486895e-12,-1.396662656444e-12,-0.001346423083312,0.0013464230789266,-0.00137983228262,0.0013798322808886,-0.0013798322830249,0.0013798322810217,-0.0013798322834583,0.0013798322805762,-0.0013798322830437,0.0013798322804886,-0.0013182779713489,0.0013182779653907,-0.0013182779665084,0.0013182779611373,-0.0013182779718974,0.0013182779609717,-0.0013182779717611,0.0013182779594169,-4.3832153016636e-11,4.3810783698866e-11,-0.001346423081092,0.0013464230810441,-3.8646437024936e-14,-1.5325796513319e-14,-0.0013798322970193,0.0013798322671238,-0.0013798322966947,0.0013798322667484,-0.0013798322671888,0.0013798322970254,-0.0013798322668197,0.0013798322965913,-0.0013182779201897,-0.0013182779201897,0.0013182779202155,0.0013182780076335,0.0036446795989025,0.0034712567611901,0.67102637330702,0.60629445796053,43648,1000,0.0055943437492087,0.0055943437491941,0.0055943437489818,29.251860566522,29.250204598055,0.00014921488453217,0.00014921488453217,0.00014921488453217,397374.56711045,0.016924965847696
32745600,0.99999375278954,0.016371777339226,0.0054572591131446,0.0054572591131452,0.0054572591129358,-0.0013456757143908,0.0013456757141926,4.3671252755558e-11,-4.389231506108e-11,-7.5249924695866e-13,5.9175598108451e-13,-0.0013792725920804,0.0013792726200547,-0.001379272620739,0.0013792725913782,-0.0013792725930133,0.0013792726222588,-0.0013792726219892,0.0013792725933225,-0.0013175217038289,0.0013175217914539,-0.001317521791102,0.0013175217042446,-2.7998838184124e-12,-4.1709064640235e-12,-1.3981903744791e-12,-1.3971397006941e-12,-0.0013456757164892,0.0013456757120905,-0.0013792726075912,0.0013792726058569,-0.0013792726079941,0.0013792726059963,-0.0013792726084424,0.0013792726055316,-0.0013792726080198,0.0013792726054462,-0.0013175217502017,0.0013175217442077,-0.0013175217453592,0.0013175217399681,-0.0013175217507385,0.0013175217398133,-0.0013175217506206,0.0013175217382369,-4.3836603439503e-11,4.3803926555406e-11,-0.0013456757142654,0.001345675714211,-3.541944737196e-14,-2.2778539425374e-14,-0.0013792726219911,0.0013792725920924,-0.0013792726216693,0.0013792725917112,-0.0013792725921626,0.0013792726219999,-0.0013792725917947,0.0013792726215583,-0.0013175216990316,-0.0013175216990316,0.0013175216990382,0.0013175217864488,0.0036415355221022,0.0034712156314381,0.65217912195021,0.50203663347825,43648,1000,0.0055912468479045,0.0055912468478968,0.0055912468476829,29.226373488883,29.22470209497,0.00014901098791106,0.00014901098791106,0.00014901098791106,410165.23521853,0.016915518996628
32832000,0.99999398036991,0.016371780487804,0.0054572601626706,0.0054572601626712,0.0054572601624619,-0.0013448914592253,0.0013448914590185,4.3666368551826e-11,-4.389472504628e-11,-7.476207489346e-13,5.7276062020327e-13,-0.0013786839229692,0.0013786839509451,-0.0013786839516277,0.0013786839222676,-0.001378683923911,0.0013786839531449,-0.0013786839528868,0.0013786839242053,-0.0013167247787773,0.0013167248663818,-0.0013167248660383,0.0013167247791732,-2.8035124722654e-12,-4.1506958461499e-12,-1.3858505455701e-12,-1.3922767904292e-12,-0.0013448914613131,0.0013448914569271,-0.0013786839384781,0.001378683936746,-0.0013786839388854,0.001378683936886,-0.0013786839393208,0.0013786839364277,-0.0013786839389029,0.0013786839363427,-0.0013167248251119,0.0013167248191583,-0.0013167248202791,0.0013167248149111,-0.0013167248256684,0.0013167248147357,-0.0013167248255438,0.0013167248131973,-4.3831849790606e-11,4.3806214544333e-11,-0.0013448914590933,0.0013448914590437,-3.6299067558991e-14,-1.6221357389843e-14,-0.0013786839528803,0.0013786839229805,-0.001378683952557,0.0013786839226043,-0.0013786839230512,0.0013786839528876,-0.0013786839226816,0.0013786839524517,-0.0013167247739638,-0.0013167247739638,0.0013167247739803,0.0013167248613842,0.0036382343880613,0.00347117527715,0.63366780665076,0.40460927212687,43648,1000,0.0055879971218793,0.0055879971218718,0.005587997121658,29.200872532111,29.199199591885,0.00014880698025688,0.00014880698025688,0.00014880698025688,424322.67581195,0.0169056059033
32918400,0.99999419934165,0.016371783667227,0.0054572612224784,0.0054572612224789,0.0054572612222696,-0.0013441134773539,0.0013441134770775,4.3638393229983e-11,-4.3939104337582e-11,-7.5628466072863e-13,4.8891612277158e-13,-0.0013780982018459,0.0013780982298212,-0.0013780982304873,0.0013780982011207,-0.0013780982028228,0.0013780982319644,-0.0013780982317817,0.0013780982029994,-0.0013159316351279,0.0013159317226711,-0.0013159317223833,0.0013159316354985,-2.8185411307973e-12,-4.0916127099227e-12,-1.37413575639e-12,-1.3868064869549e-12,-0.0013441134793984,0.0013441134750302,-0.0013780982173595,0.0013780982155649,-0.0013780982177517,0.0013780982157304,-0.0013780982181755,0.0013780982153235,-0.0013780982177478,0.0013780982152383,-0.0013159316814471,0.0013159316755573,-0.001315931676708,0.0013159316713988,-0.0013159316819971,0.0013159316710261,-0.001315931681842,0.0013159316696719,-4.3839184831231e-11,4.3814913131538e-11,-0.0013441134771909,0.0013441134771319,-6.4689759066383e-14,-3.9313857812159e-14,-0.0013780982317297,0.0013780982018829,-0.0013780982314271,0.001378098201476,-0.001378098201924,0.0013780982317882,-0.0013780982015366,0.0013780982313256,-0.0013159316303775,-0.0013159316303775,0.0013159316304008,0.00131593171776,0.0036349561026476,0.0034711357523426,0.66508892889179,0.59136693301626,43648,1000,0.0055847734147606,0.0055847734147548,0.0055847734145356,29.175369723226,29.1736970888,0.00014860295778581,0.00014860295778581,0.00014860295778581,438865.77806435,0.016895772141823
33004800,0.99999441004186,0.016371786751366,0.0054572622505246,0.0054572622505252,0.0054572622503159,-0.0013454412988425,0.0013454412986142,4.3661833102146e-11,-4.3915870459126e-11,-7.3274655627215e-13,5.2760047040308e-13,-0.0013790588089786,0.0013790588369606,-0.001379058837643,0.0013790588082787,-0.0013790588099411,0.0013790588391476,-0.0013790588389252,0.0013790588102015,-0.0013172836518515,0.0013172837393977,-0.0013172837390855,0.0013172836521927,-2.8235598010098e-12,-4.1100220887052e-12,-1.374386160505e-12,-1.3937480101903e-12,-0.0013454413009081,0.001345441296544,-0.0013790588244859,0.0013790588227674,-0.0013790588248956,0.001379058822908,-0.001379058825311,0.0013790588224683,-0.0013790588248915,0.0013790588223804,-0.0013172836981412,0.0013172836922386,-0.0013172836933553,0.0013172836879917,-0.0013172836987205,0.0013172836877314,-0.0013172836985303,0.0013172836862885,-4.384209556584e-11,4.3812742697844e-11,-0.0013454412987054,0.0013454412986461,-4.852378233764e-14,-1.6365441223475e-14,-0.0013790588389149,0.0013790588090002,-0.0013790588385838,0.0013790588086139,-0.0013790588090747,0.0013790588389105,-0.0013790588086944,0.0013790588384683,-0.0013172836470263,-0.0013172836470263,0.0013172836470455,0.0013172837344352,0.0036404277239099,0.0034710970054219,0.67063774241192,0.62503185655509,43648,1000,0.0055902755906873,0.0055902755906776,0.0055902755904692,29.14986697877,29.148194585715,0.00014839893583016,0.00014839893583016,0.00014839893583016,411512.08552294,0.016912555857256
33091200,0.99999461279404,0.016371789825261,0.0054572632751563,0.0054572632751569,0.0054572632749475,-0.0013456240445105,0.0013456240442745,4.3666122500519e-11,-4.390973358778e-11,-7.4270178155862e-13,5.2544759499548e-13,-0.0013791800312064,0.0013791800591875,-0.0013791800598984,0.0013791800305186,-0.0013791800322093,0.0013791800613469,-0.0013791800611303,0.0013791800324518,-0.001317469647694,0.0013174697355742,-0.0013174697351758,0.0013174696483112,-2.7980041699521e-12,-4.0924135678099e-12,-1.3599717185034e-12,-1.3675763685395e-12,-0.0013456240465533,0.0013456240422244,-0.001379180046744,0.0013791800449975,-0.0013791800471238,0.0013791800451913,-0.0013791800475433,0.0013791800446987,-0.0013791800471089,0.0013791800446279,-0.0013174696942199,0.0013174696881988,-0.0013174696893174,0.0013174696839902,-0.0013174696947261,0.0013174696838387,-0.0013174696945482,0.0013174696824531,-4.383436821367e-11,4.3818494110377e-11,-0.001345624044373,0.0013456240443123,-4.7733630005663e-14,-2.6774976160504e-14,-0.0013791800611653,0.0013791800312717,-0.0013791800608298,0.0013791800308332,-0.0013791800313047,0.0013791800611459,-0.0013791800309655,0.0013791800607084,-0.0013174696428666,-0.0013174696428666,0.0013174696429878,0.0013174697303617,0.0036411444557694,0.0034710590433384,0.69415430435378,0.79978099776203,43648,1000,0.0055910328635054,0.0055910328634902,0.0055910328632989,29.124363253229,29.122692082631,0.00014819490602583,0.00014819490602583,0.00014819490602583,406675.45824881,0.016914865758206
33177600,0.99999480790861,0.016371792799776,0.0054572642666615,0.0054572642666621,0.0054572642664528,-0.0013467524933893,0.001346752493171,4.3665844509012e-11,-4.3905948762227e-11,-7.3605033769684e-13,5.5012831160476e-13,-0.0013799816272889,0.0013799816552678,-0.0013799816559518,0.0013799816265885,-0.0013799816282413,0.0013799816574541,-0.0013799816572238,0.0013799816285157,-0.0013186082004465,0.0013186082880659,-0.0013186082877226,0.0013186082008099,-2.816776890576e-12,-4.1301006517895e-12,-1.3832442722487e-12,-1.3936146907337e-12,-0.001346752495467,0.0013467524910887,-0.0013799816428048,0.0013799816410707,-0.0013799816432087,0.0013799816412103,-0.0013799816436372,0.0013799816407618,-0.0013799816432157,0.0013799816406803,-0.0013186082467867,0.0013186082408413,-0.0013186082419521,0.0013186082365892,-0.0013186082473541,0.0013186082364068,-0.0013186082471965,0.0013186082348964,-4.3832423831893e-11,4.3816259031599e-11,-0.0013467524932503,0.0013467524932034,-3.7425974309234e-14,-1.391642780386e-14,-0.0013799816572059,0.0013799816273056,-0.0013799816568823,0.0013799816269207,-0.0013799816273715,0.0013799816572164,-0.0013799816270046,0.0013799816567729,-0.0013186081956164,-0.0013186081956164,0.0013186081956584,0.0013186082830887,0.0036457713238839,0.0034710218264346,0.69793762883368,0.82129808892253,43648,1000,0.0055957090145398,0.0055957090145301,0.0055957090143189,29.09886025056,29.097189579546,0.00014799088200448,0.00014799088200448,0.00014799088200448,385940.23697332,0.01692912942563
33264000,0.9999949957843,0.016371795681001,0.0054572652270698,0.0054572652270704,0.0054572652268611,-0.0013468535332074,0.0013468535329918,4.3666239438124e-11,-4.3904303106618e-11,-7.3785622370473e-13,5.6302397647458e-13,-0.0013800466299304,0.0013800466579037,-0.0013800466585969,0.0013800466292237,-0.0013800466308811,0.0013800466601024,-0.0013800466598607,0.0013800466311595,-0.0013187104767055,0.0013187105643287,-0.0013187105639699,0.001318710477109,-2.8155118703979e-12,-4.1430954312785e-12,-1.3864306160846e-12,-1.4006515051756e-12,-0.0013468535352911,0.0013468535309039,-0.0013800466454402,0.0013800466437089,-0.0013800466458462,0.0013800466438435,-0.0013800466462811,0.0013800466433927,-0.0013800466458598,0.0013800466433057,-0.0013187105230633,0.0013187105171076,-0.0013187105182284,0.0013187105128516,-0.001318710523662,0.001318710512653,-0.0013187105234847,0.0013187105111531,-4.3837956574636e-11,4.3809576971025e-11,-0.0013468535330724,0.0013468535330204,-3.9956573471755e-14,-1.2100336225387e-14,-0.0013800466598469,0.001380046629932,-0.0013800466595156,0.0013800466295569,-0.0013800466300124,0.0013800466598504,-0.0013800466296419,0.0013800466594143,-0.0013187104719041,-0.0013187104719041,0.0013187104719485,0.0013187105593175,0.0036461513133587,0.0034709853411747,0.70184213141452,0.84281518008304,43648,1000,0.0055961277098344,0.0055961277098256,0.0055961277096138,29.082779709484,29.081704558563,0.00014786223767587,0.00014786223767587,0.00014786223767587,383053.68779716,0.016930406575038
33350400,0.99999517812863,0.016371798493643,0.0054572661646169,0.0054572661646175,0.0054572661644082,-0.0013472194155238,0.0013472194152769,4.3628149778207e-11,-4.392178621958e-11,-7.5683252634465e-13,5.4028067126694e-13,-0.0013803739702788,0.0013803739982174,-0.0013803739989165,0.0013803739695353,-0.0013803739712068,0.0013803740004467,-0.0013803740001863,0.0013803739714803,-0.0013190799312583,0.0013190800187546,-0.0013190800184201,0.0013190799314926,-2.8128911857522e-12,-4.1367556249552e-12,-1.4107140507129e-12,-1.4378456042155e-12,-0.0013472194176077,0.0013472194131899,-0.0013803739857971,0.0013803739840079,-0.001380373986208,0.0013803739841587,-0.0013803739866102,0.0013803739836858,-0.0013803739861922,0.0013803739836243,-0.0013190799775425,0.001319079971403,-0.0013190799727243,0.0013190799672244,-0.0013190799780244,0.0013190799671162,-0.0013190799779161,0.0013190799655708,-4.3813633141229e-11,4.3813213889331e-11,-0.0013472194153671,0.0013472194153263,-4.6267498324391e-14,-5.9022902773188e-15,-0.0013803740001579,0.001380373970236,-0.0013803739998577,0.0013803739698913,-0.0013803739703416,0.0013803740001857,-0.0013803739699494,0.0013803739997414,-0.0013190799263452,-0.0013190799263452,0.0013190799263641,0.0013190800138021,0.0036476411069824,0.0034709495804301,0.70587630666725,0.86433227124355,43648,1000,0.0055976437654301,0.0055976437654236,0.0055976437652079,29.205225045561,29.212920771612,0.00014884180036448,0.00014884180036448,0.00014884180036448,380094.37024074,0.01693503150455
33436800,0.99999535513685,0.016371801240204,0.0054572670801375,0.0054572670801381,0.0054572670799287,-0.0013475979944474,0.001347597994168,4.3641177380223e-11,-4.3902802975976e-11,-7.4320941310965e-13,5.7125437210047e-13,-0.0013807191287032,0.0013807191564688,-0.0013807191574303,0.0013807191278328,-0.0013807191296732,0.0013807191588229,-0.0013807191584746,0.0013807191297665,-0.0013194593213792,0.0013194594090645,-0.0013194594086832,0.0013194593217988,-2.9551359579191e-12,-4.3015011215052e-12,-1.5339197868623e-12,-1.5708279828716e-12,-0.0013475979966404,0.0013475979919569,-0.0013807191441196,0.0013807191421853,-0.0013807191446356,0.0013807191423384,-0.0013807191450526,0.0013807191418828,-0.0013807191447939,0.0013807191418141,-0.0013194593678008,0.001319459361684,-0.001319459363035,0.0013194593572858,-0.0013194593684739,0.0013194593573151,-0.0013194593682862,0.0013194593557307,-4.3839557878658e-11,4.3779830703283e-11,-0.0013475979942703,0.0013475979941967,-4.3750839912461e-14,6.6472969296417e-15,-0.0013807191584043,0.001380719128461,-0.0013807191581932,0.0013807191283041,-0.0013807191286714,0.0013807191583777,-0.0013807191283498,0.0013807191580799,-0.0013194593164955,-0.0013194593164955,0.0013194593165184,0.0013194594039271,0.0036491870980396,0.0034709145301109,0.71002681761315,0.88584936240405,43648,1000,0.0055992124116407,0.0055992124116031,0.0055992124113332,29.335629039345,29.344136984661,0.00014988503231476,0.00014988503231476,0.00014988503231476,377259.85083354,0.016939816971485
33523200,0.99999552692243,0.016371803921807,0.0054572679740051,0.0054572679740057,0.0054572679737964,-0.0013479754455072,0.0013479754453801,4.3659430763771e-11,-4.3876598541209e-11,-7.4080619240874e-13,6.1208641882712e-13,-0.0013810634197936,0.0013810634478654,-0.0013810634484989,0.0013810634191974,-0.0013810634207479,0.0013810634501748,-0.00138106344965,0.0013810634211775,-0.0013198378514612,0.0013198379383683,-0.0013198379388922,0.0013198378515607,-2.7887764518525e-12,-4.1684438333728e-12,-1.2924606338619e-12,-1.35541274013e-12,-0.0013479754475695,0.0013479754432859,-0.0013810634353621,0.0013810634336516,-0.0013810634358564,0.001381063433995,-0.0013810634362257,0.0013810634334764,-0.0013810634356709,0.0013810634333673,-0.0013198378970553,0.0013198378912129,-0.0013198378926249,0.0013198378869224,-0.001319837897704,0.0013198378872342,-0.0013198378979586,0.00131983788524,-4.382355589692e-11,4.3788753665986e-11,-0.0013479754453843,0.0013479754453603,-8.4223191745188e-14,-5.8559681630159e-15,-0.0013810634497119,0.0013810634198759,-0.0013810634493542,0.001381063419496,-0.0013810634199019,0.0013810634498491,-0.0013810634195948,0.001381063449413,-0.0013198378464572,-0.0013198378464572,0.0013198378456576,0.0013198379336321,0.0036507295446515,0.0034708801759443,0.71426561618312,0.90736645356456,43648,1000,0.0056007763779743,0.0056007763779085,0.0056007763776787,29.466763952156,29.47535319771,0.00015093411161725,0.00015093411161725,0.00015093411161725,374444.30947486,0.016944588197893
33609600,0.99999569359113,0.016371806507972,0.0054572688360602,0.0054572688360607,0.0054572688358514,-0.0013483507302365,0.0013483507300353,4.3655363299794e-11,-4.3883436979358e-11,-7.5451359718635e-13,5.9590591313046e-13,-0.0013814048529259,0.0013814048808904,-0.0013814048815742,0.0013814048522171,-0.0013814048538585,0.0013814048830894,-0.0013814048828223,0.0013814048541571,-0.0013202150570329,0.0013202151446203,-0.0013202151442795,0.0013202150574137,-2.8026203230494e-12,-4.1797296062473e-12,-1.3693128154922e-12,-1.4182553791541e-12,-0.0013483507323329,0.0013483507279352,-0.0013814048684173,0.001381404866694,-0.0013814048688387,0.0013814048668257,-0.0013814048692632,0.001381404866375,-0.0013814048688595,0.0013814048662776,-0.0013202151033231,0.0013202150973763,-0.001320215098571,0.0013202150931406,-0.0013202151039421,0.0013202150929739,-0.0013202151037962,0.0013202150913707,-4.3809902637547e-11,4.3805920994477e-11,-0.0013483507300995,0.001348350730065,-5.2169876834309e-14,9.8689926266967e-15,-0.0013814048828196,0.0013814048529274,-0.0013814048824849,0.0013814048525637,-0.001381404852999,0.0013814048828344,-0.0013814048526157,0.001381404882408,-0.0013202150521882,-0.0013202150521882,0.0013202150522152,0.0013202151396356,0.0036522638220366,0.0034708464955658,0.70999652648601,0.85812931190057,43648,1000,0.0056023313617495,0.0056023313617417,0.0056023313615273,29.597965510841,29.606569410759,0.00015198372408673,0.00015198372408673,0.00015198372408673,371636.4945238,0.016949332048415
33696000,0.99999585524772,0.016371809050491,0.0054572696835663,0.0054572696835669,0.0054572696833576,-0.001348286549527,0.0013482865493416,4.3693752774081e-11,-4.3859232071743e-11,-7.6019754119282e-13,5.9274565673295e-13,-0.001381432532783,0.0013814325607471,-0.0013814325614481,0.0013814325320679,-0.0013814325337062,0.0013814325629614,-0.0013814325626695,0.0013814325340352,-0.0013201513758055,0.0013201514635893,-0.0013201514631484,0.0013201513763879,-2.8091846519254e-12,-4.1888905028587e-12,-1.3817350536485e-12,-1.4382707676977e-12,-0.0013482865516391,0.0013482865472217,-0.0013814325482768,0.0013814325465689,-0.0013814325486979,0.0013814325466759,-0.0013814325491507,0.0013814325462304,-0.0013814325487408,0.0013814325461169,-0.0013201514222401,0.0013201514162529,-0.0013201514175413,0.0013201514120463,-0.0013201514228717,0.0013201514119056,-0.0013201514227547,0.00132015141036,-4.3807568002986e-11,4.3822455812879e-11,-0.0013482865493946,0.0013482865493607,-6.9826484495888e-14,-6.2789258301847e-16,-0.001381432562666,0.0013814325327725,-0.0013814325623152,0.001381432532413,-0.0013814325328394,0.0013814325626883,-0.0013814325324577,0.0013814325622612,-0.0013201513711384,-0.0013201513711384,0.0013201513712547,0.0013201514585821,0.0036519850543917,0.0034708134882915,0.7195651757619,0.94143566578773,43648,1000,0.0056020652461836,0.0056020652461675,0.0056020652459491,29.729182942288,29.737785623809,0.0001530334635383,0.0001530334635383,0.0001530334635383,375852.83057474,0.016948520963247
33782400,0.9999960119962,0.01637181151295,0.0054572705043861,0.0054572705043867,0.0054572705041774,-0.0013490588224362,0.0013490588222302,4.3670369900176e-11,-4.3866977246898e-11,-7.4989967931484e-13,5.9012938371711e-13,-0.0013820621077563,0.0013820621357792,-0.001382062136409,0.0013820621070961,-0.0013820621086887,0.0013820621379398,-0.0013820621375445,0.0013820621088693,-0.0013209219346243,0.0013209220222074,-0.0013209220218079,0.0013209219351159,-2.8100939182656e-12,-4.1754382079348e-12,-1.3976695962709e-12,-1.4221224374887e-12,-0.0013490588245611,0.0013490588201478,-0.0013820621232972,0.0013820621214938,-0.001382062123588,0.0013820621216222,-0.0013820621240982,0.0013820621211603,-0.0013820621235969,0.0013820621211179,-0.0013209219809824,0.0013209219750743,-0.0013209219763422,0.0013209219708609,-0.0013209219816616,0.0013209219706522,-0.001320921981553,0.0013209219690486,-4.3800237844564e-11,4.3814651345418e-11,-0.0013490588223064,0.0013490588222922,-4.6804217222115e-14,-9.1264858980028e-15,-0.0013820621376298,0.0013820621077757,-0.0013820621373369,0.0013820621073898,-0.0013820621077815,0.0013820621377641,-0.0013820621074534,0.0013820621372463,-0.0013209219298915,-0.0013209219298915,0.0013209219299793,0.0013209220171177,0.0036551559899472,0.0034707811313136,0.71880528640482,0.91236165570769,43648,1000,0.0056052653391071,0.0056052653391951,0.0056052653389668,29.86039433736,29.869001836858,0.00015408315469888,0.00015408315469888,0.00015408315469888,367389.37674242,0.01695828288342
33868800,0.99999616394003,0.016371813852082,0.0054572712840969,0.0054572712840974,0.0054572712838881,-0.0013491156178757,0.0013491156176822,4.3697259372839e-11,-4.3878135670722e-11,-7.68731927532e-13,5.5944337997699e-13,-0.0013821738443048,0.001382173872322,-0.0013821738729534,0.0013821738436398,-0.0013821738452826,0.0013821738745208,-0.001382173874246,0.0013821738455792,-0.0013209825893305,0.0013209826771568,-0.0013209826767369,0.0013209825900326,-2.7737987917627e-12,-4.1281697696002e-12,-1.3672955829997e-12,-1.3726124499848e-12,-0.0013491156199438,0.0013491156156004,-0.0013821738597965,0.0013821738581111,-0.0013821738601986,0.001382173858275,-0.0013821738605849,0.0013821738577893,-0.0013821738602455,0.001382173857701,-0.0013209826358561,0.0013209826300388,-0.0013209826311226,0.0013209826259507,-0.001320982636213,0.0013209826256883,-0.0013209826362731,0.0013209826241117,-4.3866496379235e-11,4.3786258565739e-11,-0.0013491156177802,0.0013491156176936,-4.4454289010809e-14,-2.5193759759698e-14,-0.001382173874314,0.0013821738443617,-0.0013821738739042,0.0013821738439185,-0.0013821738444828,0.0013821738742578,-0.0013821738440671,0.0013821738738235,-0.0013209825848978,-0.0013209825848978,0.0013209825849182,0.0013209826721234,0.0036553796763481,0.0034707493991569,0.70436592312008,0.79912606441466,43648,1000,0.0056055005138838,0.0056055005138555,0.0056055005137097,29.9915989287,30.000218049907,0.0001551327914296,0.0001551327914296,0.0001551327914296,369295.72910192,0.016959000961282
33955200,0.99999631118215,0.016371816109277,0.0054572720364952,0.0054572720364958,0.0054572720362864,-0.001348667911129,0.0013486679109296,4.3705667821849e-11,-4.388901245609e-11,-7.3648220685648e-13,5.5955149432123e-13,-0.0013819219225153,0.0013819219505176,-0.0013819219512235,0.0013819219217639,-0.0013819219234663,0.0013819219527837,-0.0013819219524756,0.0013819219237875,-0.0013205331513325,0.0013205332389555,-0.0013205332385844,0.0013205331516892,-2.8138640383851e-12,-4.1368631510822e-12,-1.447809182188e-12,-1.3015439446083e-12,-0.0013486679132146,0.0013486679088454,-0.0013819219380065,0.001381921936324,-0.001381921938355,0.001381921936428,-0.0013819219388037,0.001381921935966,-0.0013819219384354,0.0013819219358872,-0.0013205331977744,0.0013205331916428,-0.0013205331928155,0.0013205331876315,-0.0013205331983212,0.0013205331873292,-0.0013205331981674,0.0013205331858964,-4.3892075774273e-11,4.3779556417544e-11,-0.0013486679110431,0.0013486679109033,-9.8096709095226e-15,-1.4090943060774e-13,-0.0013819219524936,0.0013819219224847,-0.0013819219521472,0.0013819219220777,-0.0013819219226359,0.0013819219524341,-0.0013819219222452,0.0013819219519658,-0.0013205331466415,-0.0013205331466415,0.0013205331465494,0.001320533233982,0.0036535149245133,0.0034707182897518,0.701433501315,0.77434335722282,43648,1000,0.0056036451492737,0.0056036451492765,0.0056036451490412,30.122809589838,30.131434262956,0.00015618247671871,0.00015618247671871,0.00015618247671871,380413.95927841,0.01695334194677
34041600,0.99999645392011,0.016371818287546,0.0054572727625848,0.0054572727625854,0.005457272762376,-0.0013487848026195,0.0013487848024014,4.3675857908992e-11,-4.3928142672454e-11,-7.6220247994332e-13,5.464219542432e-13,-0.0013820829086976,0.0013820829366551,-0.0013820829373644,0.00138208290799,-0.0013820829095764,0.0013820829388916,-0.0013820829386336,0.0013820829099601,-0.001320649335002,0.0013206494225658,-0.0013206494221462,0.0013206493351681,-2.8214275720303e-12,-4.1557790438029e-12,-1.4740215578885e-12,-1.3435678666886e-12,-0.0013487848047212,0.0013487848003038,-0.001382082924161,0.0013820829223969,-0.0013820829245565,0.0013820829225764,-0.0013820829250138,0.0013820829220432,-0.0013820829245828,0.001382082921993,-0.0013206493814151,0.0013206493752781,-0.0013206493763751,0.0013206493712198,-0.0013206493818489,0.0013206493709698,-0.0013206493817268,0.0013206493694033,-4.3836759111218e-11,4.3844120092227e-11,-0.0013487848024904,0.0013487848024255,1.7688312575369e-14,-9.8274968355411e-14,-0.001382082938564,0.0013820829086693,-0.0013820829383111,0.0013820829082335,-0.0013820829087426,0.0013820829385739,-0.0013820829084023,0.0013820829381097,-0.0013206493301865,-0.0013206493301865,0.0013206493302166,0.0013206494177684,0.0036539837712054,0.0034706877910292,0.69841514988443,0.75098643361818,43648,1000,0.0056041293972116,0.0056041293972201,0.0056041293969941,30.265872463467,30.275253871846,0.00015732697970773,0.00015732697970773,0.00015732697970773,382611.94196261,0.0169548196483
34128000,0.99999659324046,0.016371820403599,0.0054572734679357,0.0054572734679363,0.005457273467727,-0.0013491568913983,0.00134915689113,4.3671758151884e-11,-4.3968862546137e-11,-7.5419272463584e-13,5.3612873928209e-13,-0.0013824934049397,0.001382493432871,-0.0013824934335869,0.0013824934041747,-0.0013824934058655,0.0013824934350465,-0.0013824934348823,0.0013824934060908,-0.0013210227206844,0.0013210228082282,-0.0013210228080124,0.0013210227210481,-2.8746448286325e-12,-4.1922643409668e-12,-1.5525663642809e-12,-1.4269022032348e-12,-0.0013491568934851,0.0013491568890441,-0.0013824934204051,0.0013824934186584,-0.0013824934207368,0.001382493418839,-0.0013824934212525,0.0013824934183248,-0.00138249342084,0.00138249341825,-0.0013210227670308,0.0013210227609299,-0.001321022762113,0.0013210227567906,-0.0013210227676567,0.0013210227566911,-0.0013210227674215,0.0013210227552069,-4.3897528019475e-11,4.3818713456618e-11,-0.0013491568912464,0.0013491568911611,2.6119819704496e-14,-8.4770880896013e-14,-0.0013824934348101,0.0013824934049143,-0.001382493434521,0.0013824934044234,-0.0013824934049256,0.0013824934347778,-0.0013824934046146,0.0013824934343237,-0.0013210227158938,-0.0013210227158938,0.0013210227157404,0.0013210228032092,0.003655520543411,0.0034706578957437,0.69515866131714,0.72762951001354,43648,1000,0.005605671043759,0.0056056710437608,0.0056056710435085,30.536282140176,30.55378250381,0.00015949025712141,0.00015949025712141,0.00015949025712141,384655.03620081,0.016959523250427
34214400,0.99999672919217,0.016371822443172,0.0054572741477935,0.0054572741477941,0.0054572741475848,-0.0013495430203431,0.0013495430200844,4.366865507021e-11,-4.398358739042e-11,-7.57297218031e-13,5.2737600667206e-13,-0.0013829196427505,0.001382919670747,-0.0013829196713815,0.0013829196419777,-0.0013829196437163,0.0013829196728408,-0.0013829196725735,0.001382919643804,-0.0013214083431701,0.001321408430783,-0.0013214084306788,0.0013214083435359,-2.7888590963866e-12,-4.0992312418876e-12,-1.3657799234197e-12,-1.2426639786449e-12,-0.0013495430223694,0.0013495430181346,-0.0013829196582283,0.0013829196565195,-0.0013829196585608,0.0013829196566841,-0.0013829196589118,0.0013829196562863,-0.0013829196585073,0.0013829196561502,-0.0013214083895673,0.0013214083837981,-0.0013214083847782,0.0013214083799428,-0.0013214083902979,0.0013214083795227,-0.0013214083902893,0.0013214083776408,-4.3919331882794e-11,4.3809189806382e-11,-0.0013495430202399,0.0013495430201257,-3.8029544105885e-14,-1.4688610096574e-13,-0.0013829196723787,0.0013829196424905,-0.0013829196721928,0.0013829196421735,-0.0013829196427766,0.0013829196724648,-0.0013829196424153,0.0013829196720319,-0.0013214083388049,-0.0013214083388049,0.0013214083386717,0.0013214084262993,0.0036571178172465,0.0034706285874688,0.68669577998364,0.67431668349714,43648,1000,0.005607270854267,0.0056072708544256,0.0056072708541388,30.814039078412,30.832311135775,0.0001617123126273,0.0001617123126273,0.0001617123126273,386854.84048352,0.016964404359846
34300800,0.99999686177131,0.016371824400796,0.0054572748003348,0.0054572748003353,0.005457274800126,-0.0013497372280898,0.0013497372278003,4.3684475469261e-11,-4.3964834080968e-11,-6.7813816569747e-13,4.769595468603e-13,-0.0013832052557551,0.0013832052837366,-0.0013832052844875,0.0013832052549264,-0.0013832052566528,0.0013832052857774,-0.0013832052857213,0.0013832052567829,-0.0013215997161258,0.0013215998030115,-0.0013215998030048,0.0013215997164682,-2.9059095793982e-12,-4.0866409206309e-12,-1.4681383846742e-12,-1.3779801389468e-12,-0.0013497372301601,0.0013497372257589,-0.0013832052712067,0.0013832052694275,-0.0013832052715046,0.0013832052694095,-0.0013832052719998,0.0013832052691801,-0.0013832052715477,0.0013832052690771,-0.0013215997626005,0.0013215997558412,-0.0013215997578476,0.0013215997516741,-0.0013215997626547,0.0013215997515529,-0.0013215997623071,0.0013215997499309,-4.3915974250073e-11,4.3810296449046e-11,-0.0013497372279427,0.0013497372278537,-2.5863827524882e-14,-1.0154004508015e-13,-0.0013832052855877,0.0013832052556013,-0.0013832052852517,0.0013832052552731,-0.001383205255683,0.0013832052856,-0.0013832052553341,0.0013832052850911,-0.0013215997107335,-0.0013215997107335,0.00132159971068,0.0013215997975584,0.0036579195666529,0.0034705998523768,0.67593623768809,0.6111002870741,43648,1000,0.00560807539709,0.0056080753971499,0.0056080753968959,31.092474288753,31.11083976774,0.00016393979431002,0.00016393979431002,0.00016393979431002,392758.03745649,0.016966859492391
34387200,0.99999699097253,0.016371826333984,0.0054572754447307,0.0054572754447312,0.0054572754445219,-0.0013498586710001,0.0013498586708787,4.3793416494128e-11,-4.3867528347709e-11,-5.9916716644259e-13,5.4916739978349e-13,-0.0013834364120063,0.001383436440083,-0.0013834364405481,0.0013834364112231,-0.0013834364125976,0.0013834364422248,-0.0013834364422464,0.0013834364131838,-0.001321716549162,0.0013217166364231,-0.001321716636237,0.0013217165493819,-2.8449226189786e-12,-4.0131929291225e-12,-1.45424401502e-12,-1.2614446402027e-12,-0.0013498586730079,0.0013498586687608,-0.0013834364269738,0.0013834364253205,-0.0013834364276827,0.0013834364257476,-0.0013834364281224,0.0013834364252677,-0.0013834364275315,0.0013834364255243,-0.0013217165956741,0.0013217165895867,-0.0013217165903797,0.0013217165852388,-0.0013217165961062,0.0013217165854452,-0.001321716595789,0.0013217165835182,-4.3867532347587e-11,4.3872531077232e-11,-0.0013498586710016,0.001349858670888,9.7396583424762e-14,-7.7840739665894e-14,-0.0013834364419936,0.0013834364117897,-0.0013834364418104,0.0013834364112741,-0.001383436412222,0.0013834364415019,-0.0013834364117543,0.001383436441654,-0.0013217165442703,-0.0013217165442703,0.0013217165443407,0.0013217166316303,0.0036584182563733,0.0034705716945182,0.68498379260546,0.66690379671629,43648,1000,0.0056085784386813,0.0056085784384533,0.0056085784387036,31.370981679137,31.389368399704,0.0001661678534331,0.0001661678534331,0.0001661678534331,400288.67481851,0.016968394829101
34473600,0.9999971167936,0.016371828240376,0.0054572760801946,0.0054572760801952,0.0054572760799859,-0.0013507667725164,0.0013507667723177,4.372248442576e-11,-4.3965920047793e-11,-5.6366901559261e-13,5.7372817888031e-13,-0.0013842533856674,0.0013842534136332,-0.0013842534144145,0.0013842533849067,-0.0013842533865304,0.0013842534157283,-0.0013842534157566,0.0013842533868758,-0.0013226248942615,0.0013226249814962,-0.0013226249809516,0.0013226248943436,-2.8313297401141e-12,-3.997203241126e-12,-1.343089822469e-12,-1.1381076727683e-12,-0.0013507667744727,0.0013507667702584,-0.0013842534009461,0.0013842533993932,-0.0013842534013393,0.0013842533995096,-0.0013842534019096,0.0013842533991616,-0.0013842534013697,0.0013842533990601,-0.0013226249408617,0.0013226249345451,-0.0013226249349854,0.0013226249303004,-0.0013226249415715,0.001322624930286,-0.0013226249407121,0.0013226249285734,-4.3844532579626e-11,4.3920163916199e-11,-0.0013507667722444,0.0013507667722873,1.7556472485346e-13,-9.669822240627e-15,-0.0013842534154993,0.0013842533853755,-0.0013842534150299,0.0013842533848903,-0.0013842533855516,0.0013842534155049,-0.0013842533852096,0.0013842534150633,-0.0013226248892611,-0.0013226248892611,0.0013226248895924,0.0013226249765364,0.0036621810915509,0.0034705441014456,0.69368867511631,0.72270730635843,43648,1000,0.0056123411632,0.0056123411629869,0.0056123411625736,31.649497315208,31.667897031668,0.00016839597852166,0.00016839597852166,0.00016839597852166,393007.60093011,0.016979874056788
34560000,0.99999723923586,0.016371830118415,0.0054572767062076,0.0054572767062081,0.0054572767059988,-0.0013516658476904,0.0013516658473101,4.3672438307576e-11,-4.4041341802533e-11,-7.0419701667629e-13,4.7597404755486e-13,-0.0013850556324167,0.0013850556603384,-0.001385055661417,0.001385055631613,-0.0013850556335969,0.001385055662634,-0.001385055662903,0.0013850556335908,-0.0013235275010661,0.0013235275884927,-0.0013235275885728,0.0013235275008534,-2.8329690429757e-12,-4.0397387064026e-12,-1.4152254717156e-12,-1.2406023651552e-12,-0.0013516658496921,0.0013516658453774,-0.0013850556483265,0.0013850556462543,-0.0013850556485378,0.0013850556463392,-0.0013850556489743,0.00138505564594,-0.001385055648495,0.0013850556459607,-0.0013235275473129,0.0013235275410529,-0.001323527542254,0.0013235275370957,-0.0013235275478945,0.0013235275371116,-0.001323527547639,0.0013235275352981,-4.38448158945e-11,4.3944776193723e-11,-0.0013516658474494,0.0013516658474461,9.9532429940822e-14,-6.1505444580299e-14,-0.0013850556623159,0.001385055632419,-0.0013850556620279,0.0013850556321481,-0.0013850556324632,0.0013850556624902,-0.0013850556321003,0.0013850556619346,-0.0013235274960142,-0.0013235274960142,0.0013235274960586,0.0013235275836296,0.0036659055914201,0.0034705170612138,0.70210081192308,0.77851081600061,43648,1000,0.0056160664740727,0.0056160664742159,0.005616066473855,31.928015914989,31.946425663632,0.00017062412731991,0.00017062412731991,0.00017062412731991,386001.52507193,0.016991239229695
34646400,0.99999735830425,0.016371831966348,0.0054572773221852,0.0054572773221858,0.0054572773219765,-0.0013525562995867,0.001352556299478,4.3747168612852e-11,-4.3967734227665e-11,-6.7808140272566e-13,5.3434355852402e-13,-0.0013858501870902,0.0013858502155408,-0.0013858502160067,0.0013858501867464,-0.0013858501881319,0.0013858502175979,-0.001385850217143,0.0013858501885102,-0.001324421000998,0.0013244210886194,-0.0013244210881686,0.0013244210013722,-2.8040893958173e-12,-4.0444869142893e-12,-1.4473943419199e-12,-1.2325185826975e-12,-0.0013525563017226,0.0013525562974359,-0.0013858502031984,0.0013858502012338,-0.0013858502030762,0.0013858502017285,-0.0013858502038998,0.0013858502009418,-0.0013858502034795,0.0013858502008344,-0.0013244210473192,0.0013244210415491,-0.0013244210423792,0.0013244210371822,-0.0013244210479497,0.0013244210371203,-0.0013244210477193,0.0013244210355196,-4.3952454665033e-11,4.3843422701767e-11,-0.0013525562995523,0.001352556299423,2.2133059144354e-14,-1.7418579639055e-13,-0.0013858502173942,0.0013858501873795,-0.0013858502174351,0.0013858501866984,-0.0013858501873414,0.0013858502174103,-0.0013858501868473,0.0013858502169969,-0.0013244209963316,-0.0013244209963316,0.0013244209961658,0.0013244210836697,0.0036695939298143,0.003470490562035,0.71029929919958,0.83431432564274,43648,1000,0.0056197560475697,0.0056197560477641,0.0056197560473844,32.206537484327,32.224954295597,0.00017285229987461,0.00017285229987461,0.00017285229987461,379311.92737487,0.017002495473549
34732800,0.99999747475826,0.016371833794199,0.0054572779314691,0.0054572779314697,0.0054572779312604,-0.0013536642832936,0.0013536642829184,4.3605052719101e-11,-4.4057154554759e-11,-7.6143985618213e-13,4.7447585802941e-13,-0.0013868610136417,0.0013868610412784,-0.0013868610420376,0.0013868610125219,-0.0013868610142538,0.0013868610436358,-0.0013868610434632,0.0013868610146201,-0.0013255333727079,0.0013255334603229,-0.0013255334598974,0.0013255333710599,-2.9326280572847e-12,-4.1930631400934e-12,-1.5230192081028e-12,-1.4072862142545e-12,-0.0013536642853424,0.0013536642808228,-0.0013868610292032,0.0013868610272477,-0.0013868610293481,0.0013868610272609,-0.0013868610299383,0.0013868610268631,-0.0013868610293926,0.0013868610267533,-0.0013255334190315,0.0013255334125035,-0.0013255334138288,0.0013255334086069,-0.0013255334195644,0.0013255334082244,-0.0013255334178535,0.0013255334069305,-4.3780919287674e-11,4.3957852529544e-11,-0.001353664283046,0.0013536642829787,8.0962114898259e-14,-1.941149522744e-14,-0.0013868610432217,0.0013868610134056,-0.0013868610430489,0.0013868610130759,-0.0013868610133859,0.0013868610435325,-0.0013868610130296,0.0013868610429998,-0.0013255333673827,-0.0013255333673827,0.0013255333672335,0.001325533456469,0.0036741930919528,0.0034704645962089,0.71823413425334,0.89011783528494,43648,1000,0.0056243469201664,0.0056243469200693,0.0056243469197784,32.602178191258,32.628077043766,0.00017601742553006,0.00017601742553006,0.00017601742553006,372828.91172404,0.017016501679862
34819200,0.99999758883341,0.016371835571389,0.0054572785238659,0.0054572785238664,0.0054572785236571,-0.0013548572129956,0.0013548572124429,4.3529823958464e-11,-4.4155004741973e-11,-7.7787329532831e-13,3.4144533378531e-13,-0.0013879587936432,0.001387958821119,-0.0013879588224343,0.00138795879219,-0.0013879587944285,0.0013879588234525,-0.0013879588234741,0.0013879587943265,-0.0013267293205654,0.0013267294080135,-0.0013267294073423,0.0013267293201202,-3.0388264600552e-12,-4.1811765620438e-12,-1.4232069631807e-12,-1.3229817602859e-12,-0.0013548572148796,0.001354857210412,-0.0013879588085635,0.0013879588069934,-0.0013879588092084,0.0013879588075342,-0.0013879588094059,0.0013879588065083,-0.0013879588091491,0.0013879588066882,-0.0013267293668407,0.0013267293606067,-0.0013267293617508,0.0013267293559378,-0.0013267293680227,0.0013267293560223,-0.0013267293665324,0.0013267293547707,-4.3640213233206e-11,4.412113995299e-11,-0.0013548572125002,0.0013548572127031,1.3397787765604e-13,5.0663334622845e-14,-0.0013879588231602,0.0013879587935145,-0.0013879588226312,0.0013879587929865,-0.001387958793206,0.0013879588235155,-0.0013879587930781,0.001387958822704,-0.0013267293154528,-0.0013267293154528,0.0013267293157428,0.0013267294034361,0.0036791494996957,0.003470439145011,0.71285324180023,0.83758763975062,43648,1000,0.0056292897233692,0.0056292897230648,0.005629289722882,33.045786074489,33.075062787204,0.00017956628859591,0.00017956628859591,0.00017956628859591,366659.13531417,0.017031581864386
34905600,0.99999770045817,0.016371837302291,0.0054572791008332,0.0054572791008338,0.0054572791006245,-0.0013553910782751,0.0013553910781114,4.3867895277676e-11,-4.3878584598184e-11,-6.8771357905752e-13,4.6045834507834e-13,-0.0013885809083932,0.0013885809367991,-0.0013885809373291,0.0013885809075722,-0.0013885809094227,0.001388580938693,-0.0013885809381489,0.0013885809100503,-0.0013272657080204,0.0013272657960935,-0.0013272657953519,0.0013272657081616,-2.8013590674622e-12,-3.9831150244525e-12,-1.3088926612865e-12,-1.1575864012359e-12,-0.0013553910803738,0.0013553910761201,-0.0013885809242232,0.001388580922281,-0.0013885809245731,0.0013885809224245,-0.0013885809248277,0.0013885809219159,-0.0013885809253575,0.001388580922097,-0.0013272657541243,0.0013272657482473,-0.0013272657493097,0.0013272657446278,-0.0013272657549213,0.0013272657440126,-0.0013272657546473,0.0013272657430538,-4.3780610091237e-11,4.404518177346e-11,-0.0013553910780936,0.0013553910782502,9.5814719984898e-16,-1.3994325424141e-13,-0.0013885809383957,0.0013885809086988,-0.0013885809378467,0.0013885809084781,-0.0013885809081173,0.0013885809383898,-0.0013885809080248,0.0013885809384522,-0.0013272657029473,-0.0013272657029473,0.0013272657032687,0.0013272657909248,0.0036813854295637,0.0034704141988542,0.70947668366001,0.80613688129707,43648,1000,0.0056315014868349,0.0056315014870572,0.0056315014867463,33.492407392538,33.522048530644,0.00018313925914031,0.00018313925914031,0.00018313925914031,371257.50086845,0.017038330933387
34992000,0.99999780954767,0.01637183897268,0.0054572796576295,0.0054572796576301,0.0054572796574207,-0.0013560553952572,0.0013560553950722,4.383096581761e-11,-4.388287646707e-11,-7.3419804134205e-13,4.4440107091116e-13,-0.0013893021129881,0.0013893021411383,-0.0013893021414813,0.0013893021121414,-0.0013893021139421,0.0013893021429427,-0.0013893021427858,0.0013893021141122,-0.0013279289370475,0.0013279290251919,-0.0013279290240263,0.0013279289371754,-2.6612075254662e-12,-3.8727223968715e-12,-1.2260469568718e-12,-1.0713715938626e-12,-0.0013560553971618,0.0013560553931617,-0.001389302128229,0.0013893021267095,-0.0013893021286026,0.0013893021270079,-0.0013893021292351,0.001389302126452,-0.0013893021289715,0.0013893021267951,-0.0013279289828545,0.0013279289776513,-0.001327928978085,0.0013279289737008,-0.0013279289832161,0.0013279289729281,-0.0013279289834971,0.0013279289725714,-4.3821550487595e-11,4.3972117034949e-11,-0.0013560553950484,0.0013560553950644,-1.0675756215917e-13,-2.5038088044774e-13,-0.0013893021427322,0.0013893021130736,-0.0013893021422967,0.0013893021123639,-0.00138930211252,0.001389302142999,-0.0013893021122517,0.0013893021422582,-0.0013279289319058,-0.0013279289319058,0.0013279289324566,0.0013279290198726,0.003684159748475,0.0034703897432431,0.70067913899174,0.74465079368027,43648,1000,0.0056342538209184,0.0056342538209063,0.0056342538204698,33.939306874235,33.969034274082,0.00018671445499388,0.00018671445499388,0.00018671445499388,374017.20740862,0.017046729100211
35078400,0.99999791602101,0.016371840589296,0.0054572801965014,0.005457280196502,0.0054572801962926,-0.001356536242669,0.0013565362422402,4.3615555986468e-11,-4.412527541489e-11,-8.0659412380907e-13,3.3813272910076e-13,-0.0013898849349816,0.001389884963037,-0.0013898849633968,0.0013898849340962,-0.0013898849360358,0.0013898849650881,-0.0013898849648146,0.0013898849358618,-0.0013284084942488,0.0013284085812787,-0.0013284085812046,0.0013284084931443,-2.8743700134985e-12,-4.042933726444e-12,-1.4682140882439e-12,-1.242527865156e-12,-0.0013565362445892,0.0013565362403885,-0.0013898849505878,0.001389884948419,-0.0013898849508232,0.0013898849492693,-0.0013898849511573,0.001389884948212,-0.0013898849505334,0.0013898849490008,-0.0013284085401322,0.0013284085339276,-0.0013284085351888,0.0013284085308496,-0.0013284085405554,0.0013284085293519,-0.0013284085405967,0.0013284085287157,-4.3918584082109e-11,4.3900139763217e-11,-0.001356536242538,0.0013565362422214,-1.4812073971896e-13,-3.5848607790816e-13,-0.0013898849647223,0.0013898849351936,-0.0013898849645652,0.0013898849338565,-0.0013898849350512,0.0013898849652264,-0.0013898849347093,0.0013898849637405,-0.0013284084890202,-0.0013284084890202,0.0013284084882643,0.0013284085765181,0.0036861728102458,0.003470365769728,0.69484015530664,0.70622966914048,43648,1000,0.0056362459239071,0.005636245924049,0.0056362459235968,34.386241379737,34.416020017521,0.0001902899310379,0.0001902899310379,0.0001902899310379,380277.59651752,0.017052808003387
35164800,0.99999801980307,0.016371842150733,0.0054572807169804,0.005457280716981,0.0054572807167717,-0.0013571565738659,0.0013571565734812,4.3653599412503e-11,-4.401446656473e-11,-7.794157776183e-13,4.1224593558141e-13,-0.0013905722887216,0.0013905723170893,-0.0013905723172125,0.0013905722882364,-0.0013905722897202,0.001390572319072,-0.0013905723188769,0.0013905722897543,-0.0013290259051477,0.0013290259921884,-0.0013290259937186,0.0013290259050238,-2.8331233323799e-12,-4.0497353421887e-12,-1.4977764792508e-12,-1.1946442985544e-12,-0.0013571565760153,0.0013571565716219,-0.0013905723043278,0.0013905723025853,-0.00139057230477,0.0013905723028741,-0.0013905723055675,0.0013905723024191,-0.0013905723048033,0.0013905723023139,-0.0013290259501791,0.0013290259449346,-0.0013290259468198,0.0013290259416818,-0.0013290259513975,0.001329025941678,-0.0013290259509601,0.0013290259405412,-4.3908836791647e-11,4.3836193599082e-11,-0.0013571565738449,0.0013571565736414,-2.7735887981778e-14,-3.1836777408304e-13,-0.001390572318472,0.001390572288927,-0.0013905723184633,0.0013905722878668,-0.0013905722881066,0.001390572318505,-0.0013905722891139,0.0013905723180961,-0.001329025901623,-0.001329025901623,0.0013290258993978,0.0013290259876524,0.0036887627682643,0.0034703422678326,0.68862518551999,0.66780854460072,43648,1000,0.0056388160104307,0.0056388160110316,0.0056388160107191,34.833180492354,34.863005760959,0.00019386544393884,0.00019386544393884,0.00019386544393884,384278.60032803,0.01706065019364
35251200,0.99999812082494,0.016371843656088,0.0054572812187653,0.0054572812187659,0.0054572812185565,-0.0013577740680014,0.0013577740677172,4.3683406443095e-11,-4.3984893821098e-11,-7.3949629124885e-13,4.6418840759807e-13,-0.0013912545948245,0.0013912546228638,-0.0013912546234927,0.0013912545941211,-0.001391254595843,0.0013912546250599,-0.0013912546248763,0.0013912545960444,-0.0013296412874652,0.0013296413749976,-0.0013296413751583,0.0013296412877985,-2.8188428862848e-12,-4.0489297197411e-12,-1.5043771599575e-12,-1.2097092206843e-12,-0.0013577740700421,0.0013577740656929,-0.0013912546104686,0.0013912546085797,-0.0013912546107344,0.0013912546088254,-0.0013912546112898,0.001391254608305,-0.0013912546107325,0.0013912546083228,-0.0013296413335473,0.0013296413276158,-0.0013296413288701,0.0013296413239234,-0.0013296413342217,0.0013296413236818,-0.0013296413338979,0.0013296413223025,-4.3929504954366e-11,4.3815765223155e-11,-0.0013577740678942,0.0013577740677307,1.9955802128649e-14,-2.5760604207695e-13,-0.0013912546247099,0.0013912545948502,-0.0013912546245348,0.0013912545942927,-0.0013912545947688,0.0013912546247289,-0.0013912545946576,0.0013912546242484,-0.0013296412830259,-0.0013296412830259,0.0013296412824125,0.0013296413701291,0.0036913402540061,0.0034703192274432,0.68209989482493,0.62938742006096,43648,1000,0.0056413743412932,0.0056413743413272,0.005641374341099,35.28012081719,35.309991504398,0.00019744096653752,0.00019744096653752,0.00019744096653752,388434.70647171,0.017068456538381
35337600,0.99999821869267,0.016371845099788,0.0054572816999989,0.0054572816999994,0.0054572816997901,-0.0013582663597212,0.0013582663594739,4.3701020493233e-11,-4.3967450824558e-11,-7.2052928244266e-13,4.995236810709e-13,-0.0013918181311205,0.0013918181591393,-0.0013918181598139,0.0013918181304164,-0.0013918181321038,0.0013918181613056,-0.0013918181611235,0.0013918181323283,-0.0013301276156093,0.0013301277032593,-0.0013301277030352,0.0013301276159688,-2.8263342456642e-12,-4.073298975277e-12,-1.5087685552151e-12,-1.2298283413531e-12,-0.0013582663617701,0.0013582663574224,-0.0013918181467067,0.0013918181448662,-0.0013918181470085,0.0013918181451048,-0.0013918181475177,0.0013918181445816,-0.0013918181469984,0.0013918181445948,-0.0013301276620091,0.0013301276558927,-0.0013301276569989,0.0013301276519673,-0.0013301276624965,0.0013301276516886,-0.0013301276622574,0.0013301276502554,-4.3934189017154e-11,4.3811288830494e-11,-0.0013582663596205,0.0013582663594667,4.1849633287136e-14,-2.1979946174791e-13,-0.0013918181610508,0.0013918181311229,-0.001391818160833,0.0013918181306375,-0.0013918181311704,0.001391818161058,-0.0013918181309194,0.0013918181605328,-0.001330127610925,-0.001330127610925,0.0013301276106994,0.0013301276982294,0.003693393751675,0.0034702966370912,0.67530844295309,0.5909662955212,43648,1000,0.0056434139274544,0.0056434139274487,0.0056434139272308,35.664018522772,35.689862697491,0.00020051214818217,0.00020051214818217,0.00020051214818217,392871.28732803,0.017074680157551
35424000,0.9999983128822,0.016371846474662,0.00545728215829,0.0054572821582905,0.0054572821580812,-0.0013585595933877,0.001358559593113,4.3695334666931e-11,-4.3961766409977e-11,-6.6338967507727e-13,4.4037684090744e-13,-0.0013921807107868,0.0013921807389072,-0.0013921807395807,0.0013921807100718,-0.0013921807117163,0.0013921807411367,-0.0013921807409248,0.0013921807118966,-0.0013304156208932,0.0013304157086217,-0.0013304157081275,0.0013304156213699,-2.8760901374205e-12,-4.0079506186833e-12,-1.5885910284581e-12,-1.2595446982446e-12,-0.001358559595555,0.0013585595911203,-0.0013921807265006,0.0013921807244528,-0.0013921807268587,0.001392180724903,-0.0013921807274792,0.0013921807241767,-0.0013921807269298,0.0013921807243781,-0.0013304156672289,0.0013304156611979,-0.0013304156627089,0.0013304156574833,-0.0013304156681599,0.0013304156572253,-0.0013304156677235,0.0013304156560673,-4.3789917748071e-11,4.3942401207453e-11,-0.0013585595932654,0.0013585595932697,6.9191003909384e-14,-2.4262347037246e-13,-0.0013921807407555,0.0013921807107044,-0.001392180740402,0.0013921807105824,-0.0013921807106898,0.0013921807410226,-0.001392180710519,0.0013921807402712,-0.0013304156165884,-0.0013304156165884,0.001330415616582,0.0013304157034529,0.0036946125112492,0.0034702744849507,0.66828281449982,0.55254517098144,43648,1000,0.0056446287686978,0.0056446287690595,0.005644628768769,35.947150455224,35.96637022589,0.00020277720364179,0.00020277720364179,0.00020277720364179,397480.21387358,0.017078387308117
35510400,0.99999840342282,0.016371847827097,0.0054572826091016,0.0054572826091022,0.0054572826088929,-0.001358836566926,0.0013588365666721,4.3690965094536e-11,-4.396947858614e-11,-7.0251653860197e-13,4.9032778552861e-13,-0.0013925300574085,0.001392530085408,-0.0013925300860971,0.0013925300566922,-0.0013925300583878,0.0013925300875608,-0.0013925300873985,0.0013925300585903,-0.001330686085071,0.001330686172697,-0.0013306861723942,0.0013306860853148,-2.8398357743782e-12,-4.0594032821339e-12,-1.5082492475502e-12,-1.2471071076163e-12,-0.0013588365689696,0.0013588365646235,-0.001392530072951,0.0013925300711272,-0.001392530073276,0.00139253007137,-0.0013925300737572,0.0013925300708585,-0.0013925300732621,0.0013925300708689,-0.0013306861314934,0.0013306861253139,-0.0013306861263892,0.0013306861213618,-0.0013306861319273,0.0013306861210801,-0.0013306861316953,0.0013306861195804,-4.3910819995767e-11,4.3826682595519e-11,-0.0013588365668095,0.00135883656668,5.4433248866318e-14,-1.8948906418034e-13,-0.0013925300873415,0.0013925300574038,-0.001392530087108,0.0013925300569349,-0.0013925300574772,0.0013925300873461,-0.0013925300571984,0.0013925300868224,-0.0013306860802332,-0.0013306860802332,0.0013306860801226,0.0013306861676576,0.0036957619795885,0.0034702527748025,0.68387219280185,0.64701585131699,43648,1000,0.0056457762571403,0.0056457762571298,0.0056457762569153,36.224274264997,36.242877754288,0.00020499419411997,0.00020499419411997,0.00020499419411997,402256.03518964,0.017081888910978
35596800,0.99999849037732,0.016371849046207,0.0054572830154716,0.0054572830154722,0.0054572830152629,-0.0013600008009611,0.0013600008007548,4.3742406346571e-11,-4.3931128757701e-11,-7.0889552019905e-13,5.7410293213774e-13,-0.0013935280171974,0.0013935280452313,-0.0013935280459439,0.0013935280164778,-0.0013935280181193,0.0013935280473479,-0.0013935280472283,0.0013935280183746,-0.0013318588156184,0.0013318589033918,-0.0013318589028238,0.0013318588160722,-2.815790626588e-12,-4.1239413105414e-12,-1.5564030117799e-12,-1.3074190886561e-12,-0.001360000803068,0.0013600007986519,-0.0013935280327872,0.0013935280309023,-0.0013935280331388,0.0013935280312236,-0.0013935280335899,0.0013935280306051,-0.001393528033102,0.0013935280306743,-0.001331858862108,0.0013318588556977,-0.0013318588572555,0.0013318588519205,-0.0013318588625029,0.0013318588517562,-0.001331858862253,0.0013318588501086,-4.3876721302165e-11,4.3872992033738e-11,-0.0013600008008651,0.0013600008007476,-4.9066148121679e-15,-2.3735830769016e-13,-0.0013935280471338,0.0013935280172403,-0.0013935280468947,0.00139352801673,-0.0013935280172844,0.0013935280472448,-0.0013935280169828,0.0013935280466954,-0.0013318588107537,-0.0013318588107537,0.0013318588108073,0.001331858898043,0.0037005950423919,0.0034702314663875,0.64203259339449,0.42619644272478,43648,1000,0.0056506001237246,0.005650600123733,0.005650600123511,36.500821255194,36.519385282687,0.00020720657004155,0.00020720657004155,0.00020720657004155,389852.78427135,0.017096606894845
35683200,0.99999857381393,0.016371850246136,0.0054572834154482,0.0054572834154487,0.0054572834152394,-0.0013590323163593,0.0013590323161315,4.3718784009394e-11,-4.3927743449356e-11,-7.5881246585886e-13,5.5979319281986e-13,-0.0013929482534116,0.0013929482815589,-0.0013929482822624,0.0013929482526099,-0.0013929482544027,0.0013929482837004,-0.0013929482834455,0.0013929482546911,-0.0013308668501835,0.0013308669378838,-0.0013308669373313,0.0013308668505294,-2.7878687148774e-12,-4.1309704487472e-12,-1.5202821740702e-12,-1.2869039212627e-12,-0.0013590323184422,0.0013590323140592,-0.0013929482690847,0.0013929482672341,-0.0013929482693338,0.0013929482675154,-0.0013929482696818,0.0013929482669154,-0.0013929482694361,0.001392948266875,-0.0013308668967346,0.0013308668903853,-0.0013308668916163,0.0013308668862723,-0.0013308668969096,0.0013308668862442,-0.0013308668968678,0.0013308668846763,-4.3882170665102e-11,4.3841796751439e-11,-0.0013590323162384,0.0013590323161321,6.8801898149239e-14,-1.4805153595073e-13,-0.0013929482833384,0.0013929482534289,-0.0013929482830771,0.001392948252894,-0.0013929482536279,0.0013929482835553,-0.0013929482531777,0.0013929482828895,-0.0013308668452651,-0.0013308668452651,0.0013308668453494,0.0013308669327455,0.0036965652539674,0.0034702105832245,0.65837379620109,0.51863330302202,43648,1000,0.0056465870991847,0.0056465870992066,0.0056465870989354,36.777320953179,36.795892811084,0.00020941856762543,0.00020941856762543,0.00020941856762543,419917.57669097,0.01708436385321
35769600,0.99999865380353,0.016371851421171,0.0054572838071264,0.005457283807127,0.0054572838069177,-0.0013602255739424,0.0013602255737258,4.3694982089467e-11,-4.3979036823555e-11,-8.2570189302101e-13,5.0169179130721e-13,-0.0013939772832499,0.0013939773115333,-0.0013939773121403,0.0013939772826636,-0.0013939772843141,0.0013939773137348,-0.001393977313223,0.0013939772846546,-0.0013320672956289,0.0013320673831404,-0.0013320673827618,0.0013320672958193,-2.8140092104208e-12,-4.1718024366521e-12,-1.5348253768442e-12,-1.3742806049062e-12,-0.0013602255760541,0.0013602255716146,-0.0013939772989878,0.0013939772971427,-0.0013939772992688,0.0013939772973988,-0.0013939772998685,0.0013939772967461,-0.0013939772992952,0.0013939772967341,-0.0013320673422528,0.0013320673360015,-0.0013320673370605,0.0013320673316319,-0.0013320673423418,0.0013320673310835,-0.0013320673423597,0.0013320673302438,-4.3914307183354e-11,4.3835387976634e-11,-0.0013602255738574,0.001360225573689,-1.0101720811128e-14,-1.5159925109988e-13,-0.0013939773133216,0.0013939772832902,-0.0013939773131148,0.0013939772829084,-0.001393977283479,0.0013939773134032,-0.0013939772833087,0.0013939773127432,-0.0013320672909536,-0.0013320672909536,0.0013320672906028,0.0013320673782841,0.0037015243681819,0.0034701901149923,0.67282221988934,0.60432253861506,43648,1000,0.0056515311907038,0.005651531190705,0.0056515311904515,37.05381651164,37.072400339481,0.00021163053209312,0.00021163053209312,0.00021163053209312,406396.47481042,0.017099448829124
35856000,0.99999873041928,0.016371852569755,0.0054572841899876,0.0054572841899882,0.0054572841897789,-0.0013613418065481,0.0013613418063749,4.3729185573986e-11,-4.3935560269381e-11,-7.8057703626029e-13,6.49548744967e-13,-0.0013949368818715,0.0013949369098838,-0.0013949369105647,0.0013949368811678,-0.0013949368827734,0.001394936912116,-0.0013949369117871,0.0013949368831394,-0.0013331942358099,0.0013331943235669,-0.0013331943231961,0.0013331942362654,-2.7745550627768e-12,-4.2314236740878e-12,-1.4708295965772e-12,-1.357551027748e-12,-0.0013613418086751,0.0013613418042445,-0.0013949368974149,0.0013949368956412,-0.0013949368977857,0.0013949368958235,-0.0013949368982888,0.001394936895283,-0.0013949368978365,0.0013949368952401,-0.0013331942823675,0.0013331942761857,-0.0013331942773733,0.0013331942720329,-0.0013331942827582,0.0013331942719243,-0.001333194282715,0.0013331942702542,-4.3907220782191e-11,4.3834505768291e-11,-0.0013613418064531,0.0013613418063623,6.0594913572867e-15,-9.1921662444545e-14,-0.0013949369118123,0.0013949368818729,-0.0013949369115273,0.0013949368814545,-0.0013949368819481,0.001394936911819,-0.0013949368816172,0.0013949369113434,-0.0013331942310886,-0.0013331942310886,0.0013331942309751,0.0013331943185196,0.0037061606022861,0.0034701700528191,0.68642248207457,0.69001177420815,43648,1000,0.0056561561217836,0.0056561561217767,0.0056561561215608,37.330313267997,37.348907867883,0.00021384250614398,0.00021384250614398,0.00021384250614398,394698.07165438,0.017113560148218
35942400,0.99999880373641,0.016371853689539,0.005457284563249,0.0054572845632496,0.0054572845630402,-0.001362435068799,0.0013624350686336,4.3731537208027e-11,-4.3924508489358e-11,-7.9458478480378e-13,6.6626011679901e-13,-0.0013958801766616,0.0013958802046716,-0.0013958802053497,0.0013958801759603,-0.0013958801775547,0.0013958802069088,-0.0013958802065647,0.0013958801779359,-0.0013342943350671,0.0013342944228008,-0.0013342944224073,0.0013342943355087,-2.7642552009599e-12,-4.2517657585334e-12,-1.5420560677162e-12,-1.3143872287253e-12,-0.0013624350709362,0.0013624350664922,-0.0013958801922111,0.001395880190397,-0.0013958801925459,0.0013958801906209,-0.0013958801930962,0.0013958801900382,-0.0013958801926057,0.0013958801900337,-0.0013342943816563,0.0013342943753603,-0.00133429437659,0.001334294371319,-0.0013342943819231,0.0013342943711712,-0.0013342943819541,0.001334294369513,-4.3917483821604e-11,4.3815616433582e-11,-0.0013624350687264,0.0013624350685985,3.9963632079649e-14,-1.7096495360861e-13,-0.0013958802066012,0.0013958801766667,-0.0013958802063556,0.0013958801762075,-0.001395880176736,0.0013958802066043,-0.0013958801764419,0.0013958802060909,-0.0013342943303718,-0.0013342943303718,0.0013342943301968,0.0013342944177191,0.003710699334383,0.0034701503877289,0.69913219354058,0.77570100980123,43648,1000,0.0056606858806639,0.0056606858806552,0.005660685880441,37.606814359353,37.625415396282,0.00021605451487482,0.00021605451487482,0.00021605451487482,383906.03280638,0.017127381202062
36028800,0.99999887383199,0.016371854773142,0.0054572849244501,0.0054572849244507,0.0054572849242413,-0.0013635086636112,0.0013635086634336,4.3747421781588e-11,-4.3934676414029e-11,-8.6057876873287e-13,6.51347572367e-13,-0.0013968117656108,0.0013968117934868,-0.0013968117943505,0.0013968117650034,-0.0013968117666056,0.001396811795791,-0.0013968117954208,0.001396811766955,-0.0013353698890705,0.0013353699772401,-0.0013353699765749,0.0013353698897647,-2.7525579112452e-12,-4.286822099351e-12,-1.5692440312603e-12,-1.3718666492391e-12,-0.0013635086657231,0.0013635086612049,-0.0013968117811278,0.0013968117792514,-0.0013968117814411,0.0013968117792707,-0.0013968117821247,0.0013968117788749,-0.0013968117815175,0.0013968117789323,-0.0013353699358914,0.0013353699292743,-0.0013353699309569,0.0013353699249291,-0.0013353699359035,0.0013353699253062,-0.0013353699359016,0.0013353699235949,-4.3983839412133e-11,4.3775146228743e-11,-0.0013635086634872,0.0013635086633649,4.7087296809522e-14,-1.3374650237145e-13,-0.0013968117954854,0.0013968117655714,-0.0013968117952178,0.0013968117652548,-0.0013968117655735,0.0013968117953242,-0.0013968117652851,0.0013968117950078,-0.0013353698843392,-0.0013353698843392,0.0013353698842705,0.0013353699718474,0.0037151545343937,0.003470131109611,0.70748082677983,0.83080222133204,43648,1000,0.0056651341548989,0.005665134154657,0.0056651341544999,37.883316553226,37.901922924682,0.00021826653242581,0.00021826653242581,0.00021826653242581,373971.49439706,0.017140953749498
36115200,0.99999894020824,0.016371855783885,0.0054572852613644,0.005457285261365,0.0054572852611557,-0.0013640575726844,0.0013640575725198,4.3748009293052e-11,-4.3933678738625e-11,-7.9105712786539e-13,6.6084016472776e-13,-0.0013972686682924,0.001397268696307,-0.0013972686969877,0.0013972686675854,-0.0013972686691877,0.0013972686985462,-0.0013972686982025,0.001397268669568,-0.0013359209191939,0.0013359210070013,-0.00133592100658,0.0013359209196787,-2.7631980567843e-12,-4.2416925956734e-12,-1.4996913031072e-12,-1.3352598263759e-12,-0.0013640575748181,0.0013640575703825,-0.0013972686838462,0.0013972686820543,-0.0013972686841979,0.0013972686822525,-0.0013972686847307,0.0013972686816891,-0.0013972686842606,0.0013972686816641,-0.0013359209657601,0.0013359209595371,-0.0013359209607621,0.001335920955444,-0.0013359209661217,0.0013359209553361,-0.0013359209661124,0.0013359209536657,-4.392419076377e-11,4.3834498239109e-11,-0.0013640575726031,0.0013640575724935,1.6977069597471e-14,-1.3161165582484e-13,-0.0013972686982342,0.0013972686682966,-0.0013972686979676,0.0013972686678615,-0.0013972686683649,0.001397268698243,-0.0013972686680552,0.0013972686977494,-0.0013359209144739,-0.0013359209144739,0.0013359209143647,0.001335921001889,0.0037174218965083,0.0034701122000279,0.69679681217445,0.75354661301225,43648,1000,0.0056674084685194,0.0056674084685119,0.0056674084682967,37.994904232032,38.002827568812,0.00021915923385626,0.00021915923385626,0.00021915923385626,367775.16803214,0.017147893146299
36201600,0.99999900224661,0.016371856724475,0.0054572855748943,0.0054572855748949,0.0054572855746856,-0.0013633317441537,0.0013633317438218,4.3665383523095e-11,-4.4003304788067e-11,-7.3415580733815e-13,4.4807925266288e-13,-0.0013966792629742,0.0013966792909239,-0.0013966792916456,0.0013966792622071,-0.001396679263993,0.0013966792930363,-0.0013966792930095,0.0013966792640701,-0.0013351881586044,0.001335188246136,-0.0013351882459419,0.0013351881588785,-2.8153463460428e-12,-4.0245992865485e-12,-1.4046508241756e-12,-1.2599280100641e-12,-0.0013633317461177,0.0013633317418523,-0.0013966792784642,0.0013966792767379,-0.0013966792788275,0.0013966792770011,-0.0013966792792417,0.0013966792764774,-0.0013966792788113,0.0013966792764682,-0.0013351882048849,0.0013351881990032,-0.0013351881998388,0.0013351881947946,-0.0013351882054349,0.001335188194516,-0.0013351882051021,0.0013351881931029,-4.3899077913303e-11,4.3846410698721e-11,-0.0013633317439799,0.0013633317438952,3.0200753858289e-14,-9.8519813816726e-14,-0.0013966792928977,0.001396679262986,-0.0013966792926208,0.0013966792625369,-0.0013966792630801,0.0013966792929237,-0.0013966792627336,0.0013966792924444,-0.0013351881537275,-0.0013351881537275,0.0013351881536758,0.0013351882411262,0.003714389744401,0.0034700936513306,0.69369216109056,0.73045191308876,43648,1000,0.0056644010290489,0.0056644010290374,0.005664401028841,37.864674680512,37.856521076302,0.00021811739744409,0.00021811739744409,0.00021811739744409,375744.69513445,0.017138717187371
36288000,0.99999906021033,0.01637185759979,0.0054572858666661,0.0054572858666667,0.0054572858664573,-0.0013629064822866,0.0013629064820072,4.3687080566147e-11,-4.397907264599e-11,-7.102214796919e-13,4.4483270478386e-13,-0.0013962946185536,0.001396294646541,-0.0013962946472283,0.0013962946178231,-0.0013962946195508,0.0013962946486865,-0.0013962946485663,0.0013962946197193,-0.0013347612952376,0.0013347613829128,-0.0013347613826209,0.001334761295544,-2.8443326370021e-12,-4.0262268838854e-12,-1.4198975642805e-12,-1.3010963700461e-12,-0.0013629064843233,0.0013629064799903,-0.0013962946340936,0.0013962946323137,-0.0013962946344569,0.0013962946325036,-0.0013962946348948,0.00139629463204,-0.0013962946344292,0.0013962946320305,-0.0013347613416423,0.0013347613356417,-0.0013347613366958,0.0013347613315672,-0.0013347613422112,0.001334761331203,-0.0013347613419105,0.0013347613298613,-4.3887902342945e-11,4.3855165460681e-11,-0.0013629064821373,0.0013629064820433,5.4112464548411e-15,-9.8243086976424e-14,-0.0013962946484842,0.0013962946185496,-0.0013962946481946,0.0013962946181056,-0.0013962946186123,0.0013962946484791,-0.0013962946183032,0.0013962946479833,-0.0013347612904252,-0.0013347612904252,0.0013347612904187,0.0013347613778983,0.0037125963850363,0.0034700754573662,0.69102926846466,0.7114984176409,43648,1000,0.0056626390433666,0.0056626390434078,0.0056626390431322,37.71989389862,37.710214583792,0.00021695915118896,0.00021695915118896,0.00021695915118896,377905.9958099,0.017133340941602
36374400,0.99999911438803,0.016371858414564,0.0054572861382573,0.0054572861382578,0.0054572861380485,-0.0013625042253309,0.001362504225077,4.3689336673695e-11,-4.3965405475277e-11,-7.0657876744485e-13,4.6466392248319e-13,-0.0013959251952668,0.0013959252232839,-0.0013959252239453,0.0013959251945875,-0.0013959251962418,0.0013959252254279,-0.0013959252252783,0.0013959251964487,-0.00133435803012,0.00133435811777,-0.0013343581175173,0.0013343580303958,-2.8582392121658e-12,-4.0558077449162e-12,-1.4597593465305e-12,-1.341686306522e-12,-0.0013625042273859,0.0013625042230107,-0.0013959252108412,0.0013959252090096,-0.0013959252111978,0.0013959252091656,-0.0013959252116367,0.0013959252087456,-0.001395925211113,0.0013959252087257,-0.0013343580765478,0.0013343580704357,-0.0013343580715528,0.0013343580663387,-0.0013343580770854,0.0013343580661004,-0.0013343580767817,0.0013343580646623,-4.3905804707804e-11,4.382651421831e-11,-0.0013625042252036,0.0013625042250959,-9.989900697744e-15,-1.1235224418665e-13,-0.0013959252252526,0.0013959251952844,-0.0013959252249662,0.0013959251948305,-0.0013959251953138,0.0013959252252336,-0.00139592519503,0.0013959252247063,-0.0013343580252995,-0.0013343580252995,0.0013343580252358,0.0013343581127712,0.0037108978220756,0.0034700576121585,0.68821346489167,0.69254492219304,43648,1000,0.0056609723831605,0.0056609723831369,0.0056609723829359,37.57373779911,37.563908091282,0.00021578990239288,0.00021578990239288,0.00021578990239288,379647.44793045,0.017128255529985
36460800,0.99999916505003,0.016371859173174,0.0054572863911273,0.0054572863911279,0.0054572863909186,-0.0013621014756357,0.001362101475365,4.366884859371e-11,-4.3972409437781e-11,-7.1468922555827e-13,4.611407948182e-13,-0.0013955551631356,0.001395555191148,-0.0013955551918333,0.0013955551624372,-0.0013955551641397,0.0013955551933,-0.0013955551931426,0.0013955551643215,-0.0013339541442752,0.0013339542318121,-0.0013339542316832,0.0013339541446015,-2.8336314933265e-12,-4.0359141761805e-12,-1.4360089838524e-12,-1.321053436842e-12,-0.0013621014776703,0.0013621014733239,-0.0013955551787168,0.001395555176896,-0.0013955551790645,0.0013955551771051,-0.0013955551795081,0.0013955551766352,-0.0013955551790256,0.0013955551766161,-0.0013339541906238,0.0013339541846296,-0.0013339541857251,0.0013339541804934,-0.0013339541911649,0.0013339541802234,-0.0013339541909552,0.001333954178861,-4.3907282250902e-11,4.3810981281066e-11,-0.0013621014754937,0.0013621014753909,-9.611029919045e-15,-1.0897875900901e-13,-0.0013955551930795,0.0013955551631519,-0.0013955551928151,0.0013955551627289,-0.0013955551632058,0.0013955551930956,-0.0013955551629023,0.0013955551926022,-0.0013339541395509,-0.0013339541395509,0.0013339541394005,0.0013339542268921,0.003709197186931,0.0034700401097677,0.68526558677077,0.67359142674518,43648,1000,0.0056593036818468,0.0056593036818334,0.0056593036816062,37.427443318298,37.417601598772,0.00021461954654638,0.00021461954654638,0.00021461954654638,381440.38274375,0.017123163903165
36547200,0.99999921244621,0.01637185985357,0.0054572866179259,0.0054572866179265,0.0054572866177172,-0.0013616982765952,0.0013616982763638,4.3724555421316e-11,-4.394073975821e-11,-7.17090505142e-13,5.1618399563914e-13,-0.0013951845015629,0.0013951845295673,-0.0013951845302289,0.0013951845008194,-0.001395184502508,0.0013951845316831,-0.0013951845314928,0.0013951845027151,-0.0013335497194796,0.001333549807164,-0.0013335498068517,0.0013335497198512,-2.834941923882e-12,-4.0947647900994e-12,-1.4361943899531e-12,-1.3931962035182e-12,-0.0013616982786709,0.0013616982742868,-0.0013951845170827,0.0013951845153379,-0.0013951845174417,0.0013951845154178,-0.001395184517838,0.0013951845150374,-0.0013951845175111,0.0013951845150258,-0.0013335497660687,0.001333549759968,-0.00133354976109,0.0013335497556689,-0.0013335497663317,0.0013335497555104,-0.0013335497661957,0.0013335497540046,-4.3910773791296e-11,4.38315141538e-11,-0.0013616982764663,0.0013616982763879,-1.4055423557635e-14,-4.2969010855625e-14,-0.0013951845314759,0.0013951845016043,-0.0013951845311381,0.0013951845011772,-0.0013951845016242,0.0013951845314702,-0.0013951845012806,0.0013951845309986,-0.0013335497147288,-0.0013335497147288,0.0013335497147387,0.0013335498022018,0.0037074947218656,0.0034700229369251,0.65699905496411,0.51734844106458,43648,1000,0.0056576331187338,0.0056576331187309,0.0056576331185166,37.281137854585,37.271295106262,0.00021344910283668,0.00021344910283668,0.00021344910283668,383282.70466203,0.017118066610547
36633600,0.99999925680731,0.016371860483747,0.0054572868279852,0.0054572868279857,0.0054572868277764,-0.0013603941025724,0.0013603941023416,4.3726633946054e-11,-4.3951883535422e-11,-7.1240211895722e-13,5.1888114853709e-13,-0.0013941514696416,0.0013941514976379,-0.0013941514983277,0.0013941514689165,-0.0013941514705958,0.0013941514997904,-0.0013941514995942,0.0013941514708169,-0.0013322293192036,0.0013322294069511,-0.001332229406543,0.0013322293195334,-2.8530375475437e-12,-4.1112601685298e-12,-1.4069567243202e-12,-1.3690269124617e-12,-0.0013603941046419,0.0013603941002709,-0.0013941514851468,0.001394151483409,-0.0013941514855314,0.0013941514835725,-0.0013941514859818,0.0013941514831319,-0.0013941514855364,0.0013941514830675,-0.0013322293655281,0.0013322293595715,-0.0013322293607294,0.0013322293553989,-0.0013322293661876,0.0013322293550811,-0.0013322293658892,0.0013322293536732,-4.3896286939742e-11,4.3858956227229e-11,-0.0013603941024417,0.0013603941023706,-3.8974044663806e-14,-6.3848490648909e-14,-0.0013941514995674,0.0013941514696608,-0.0013941514992649,0.0013941514692418,-0.0013941514697074,0.0013941514995959,-0.0013941514693673,0.001394151499122,-0.0013322293143055,-0.0013322293143055,0.0013322293143861,0.0013322294018981,0.0037020486610445,0.0034700060946105,0.65016671202268,0.48156401590332,43648,1000,0.0056522293976646,0.0056522293976621,0.005652229397454,37.134827875027,37.124988613752,0.00021227862300022,0.00021227862300022,0.00021227862300022,403105.92563889,0.017101579439071
36720000,0.99999929834649,0.01637186108717,0.0054572870291259,0.0054572870291265,0.0054572870289172,-0.0013598634131744,0.0013598634129439,4.3712039450729e-11,-4.3959134255094e-11,-7.2320108317392e-13,5.269190794544e-13,-0.0013936866545477,0.0013936866825564,-0.0013936866832445,0.0013936866538413,-0.0013936866555146,0.0013936866847337,-0.001393686684528,0.0013936866557583,-0.0013316935675398,0.0013316936552205,-0.0013316936548911,0.0013316935678937,-2.8234336872154e-12,-4.100474850955e-12,-1.3941752324331e-12,-1.3620473315654e-12,-0.0013598634152382,0.0013598634108766,-0.0013936866700767,0.0013936866683321,-0.0013936866704694,0.0013936866684855,-0.0013936866709014,0.0013936866680383,-0.0013936866704714,0.0013936866679667,-0.0013316936139296,0.0013316936079763,-0.0013316936090533,0.0013316936037764,-0.0013316936145045,0.0013316936035278,-0.0013316936142817,0.0013316936020677,-4.3888775610385e-11,4.3859298893231e-11,-0.0013598634130352,0.0013598634129751,-2.4841064651938e-14,-4.2739517866479e-14,-0.0013936866844871,0.0013936866545527,-0.0013936866841731,0.0013936866541602,-0.00139368665462,0.0013936866844954,-0.0013936866542649,0.0013936866840472,-0.0013316935627402,-0.0013316935627402,0.0013316935627672,0.001331693650253,0.003699814665418,0.0034699895826389,0.66508665438945,0.56834652841547,43648,1000,0.0056500305918161,0.0056500305918088,0.0056500305915922,36.988515487346,36.978682121242,0.00021110812389877,0.00021110812389877,0.00021110812389877,407799.15317843,0.017094870516482
36806400,0.99999933726077,0.016371861630509,0.0054572872102391,0.0054572872102397,0.0054572872100304,-0.0013601761935331,0.0013601761933097,4.3709686581431e-11,-4.3968992895096e-11,-7.317644686272e-13,5.546226448942e-13,-0.0013938422378527,0.0013938422658732,-0.0013938422665547,0.0013938422371519,-0.0013938422388106,0.0013938422680598,-0.0013938422678328,0.0013938422390777,-0.0013320166201339,0.0013320167077595,-0.0013320167074989,0.0013320166204687,-2.8050680718018e-12,-4.1180570197142e-12,-1.3870743611245e-12,-1.3773947744763e-12,-0.0013601761956039,0.0013601761912346,-0.0013938422533897,0.0013938422516422,-0.0013938422537881,0.0013938422517924,-0.0013938422542206,0.0013938422513404,-0.0013938422537982,0.0013938422512664,-0.0013320166664998,0.0013320166605567,-0.0013320166616507,0.0013320166563155,-0.0013320166670609,0.0013320166561613,-0.0013320166668663,0.0013320166545942,-4.3894000009606e-11,4.3861628145603e-11,-0.0013601761933939,0.001360176193339,-2.9608419012535e-14,-2.5388900857095e-14,-0.0013938422678019,0.001393842237861,-0.0013938422674875,0.0013938422374768,-0.0013938422379299,0.0013938422678148,-0.0013938422375676,0.0013938422673675,-0.0013320166153439,-0.0013320166153439,0.0013320166152896,0.0013320167028315,0.0037010860543631,0.0034699733849705,0.6393399739851,0.43194025391056,43648,1000,0.0056513266805185,0.0056513266805098,0.0056513266802908,36.842206481661,36.832375628732,0.00020993765185329,0.00020993765185329,0.00020993765185329,395716.2435697,0.017098824458632
36892800,0.99999937396272,0.016371862155499,0.0054572873852359,0.0054572873852365,0.0054572873850271,-0.0013591821631774,0.0013591821629587,4.372251666007e-11,-4.3963657763963e-11,-7.3536353514878e-13,5.5448311974483e-13,-0.0013930934072822,0.0013930934352974,-0.0013930934359833,0.0013930934065765,-0.0013930934082332,0.0013930934374843,-0.0013930934372533,0.0013930934085038,-0.0013310063038797,0.0013310063915766,-0.001331006391257,0.0013310063042371,-2.8127507194551e-12,-4.1294156138934e-12,-1.3825371173813e-12,-1.3923579938308e-12,-0.0013591821652549,0.0013591821608781,-0.0013930934228085,0.0013930934210778,-0.0013930934232163,0.0013930934212187,-0.0013930934236431,0.0013930934207715,-0.0013930934232265,0.0013930934206879,-0.001331006350257,0.0013310063443154,-0.0013310063454218,0.0013310063400566,-0.0013310063508278,0.0013310063398859,-0.0013310063506588,0.0013310063383612,-4.3890945514684e-11,4.387207467941e-11,-0.0013591821630376,0.0013591821629913,-3.5412447585799e-14,-1.2092101182845e-14,-0.0013930934372301,0.0013930934072904,-0.0013930934369055,0.0013930934069111,-0.0013930934073586,0.0013930934372399,-0.0013930934069902,0.0013930934368019,-0.001331006299048,-0.001331006299048,0.0013310062990667,0.0013310063865999,0.0036969323362147,0.0034699575070438,0.65484309274557,0.52015280790738,43648,1000,0.0056472079909633,0.0056472079909571,0.0056472079907412,36.814480044914,36.812326948776,0.00020971584035931,0.00020971584035931,0.00020971584035931,414450.69438784,0.017086258241019
36979200,0.99999940887582,0.01637186266599,0.0054572875553995,0.0054572875554001,0.0054572875551908,-0.0013600586802942,0.0013600586801028,4.3730942520312e-11,-4.3942172655612e-11,-7.6142156262333e-13,6.0573767160052e-13,-0.0013938022166464,0.0013938022446627,-0.0013938022453431,0.0013938022159454,-0.0013938022175765,0.0013938022468731,-0.0013938022465907,0.0013938022178979,-0.0013318976574269,0.0013318977451686,-0.0013318977447969,0.0013318976578405,-2.7916653047765e-12,-4.1857630101662e-12,-1.3837938731059e-12,-1.4030039038997e-12,-0.001360058682397,0.0013600586779965,-0.0013938022321721,0.0013938022304421,-0.0013938022325815,0.00139380223058,-0.001393802233028,0.0013938022301117,-0.001393802232614,0.0013938022300246,-0.0013318977038361,0.0013318976978844,-0.0013318976990045,0.0013318976936111,-0.0013318977043847,0.0013318976934772,-0.0013318977043063,0.0013318976918724,-4.388448991778e-11,4.3865560407828e-11,-0.0013600586801671,0.001360058680123,-3.8677730186598e-14,-6.056520859798e-15,-0.0013938022465962,0.0013938022166613,-0.0013938022462676,0.0013938022162843,-0.0013938022167278,0.0013938022466055,-0.0013938022163577,0.0013938022461691,-0.001331897652626,-0.001331897652626,0.0013318976526505,0.0013318977401715,0.0037005666003699,0.0034699419436957,0.66960682338816,0.6083653619042,43648,1000,0.0056508397644515,0.0056508397644442,0.0056508397642301,36.946506565988,36.954970547509,0.0002107720525279,0.0002107720525279,0.0002107720525279,401507.61388099,0.017097338916026
37065600,0.99999944209021,0.016371863161825,0.0054572877206777,0.0054572877206782,0.0054572877204689,-0.0013609247958145,0.0013609247956197,4.3735285564106e-11,-4.3936526828088e-11,-7.5424478186906e-13,5.8816038504514e-13,-0.001394510332698,0.0013945103607116,-0.0013945103613903,0.0013945103319964,-0.0013945103336367,0.0013945103629139,-0.0013945103626458,0.0013945103339389,-0.001332773274389,0.0013327733621226,-0.0013327733617486,0.0013327732748307,-2.8004379779538e-12,-4.1697143827937e-12,-1.3726267730766e-12,-1.4109630431064e-12,-0.001360924797912,0.0013609247935186,-0.0013945103482154,0.0013945103464908,-0.0013945103486306,0.0013945103466215,-0.0013945103490661,0.0013945103461747,-0.0013945103486588,0.0013945103460791,-0.0013327733207781,0.0013327733148813,-0.00133277331601,0.0013327733105898,-0.0013327733213443,0.0013327733104175,-0.0013327733212562,0.0013327733088855,-4.3880266546801e-11,4.3868585168365e-11,-0.0013609247956828,0.0013609247956437,-4.9974767422806e-14,1.4826899989559e-15,-0.0013945103626394,0.0013945103327082,-0.0013945103623054,0.0013945103323381,-0.0013945103327727,0.0013945103626499,-0.0013945103323931,0.0013945103622211,-0.001332773269607,-0.001332773269607,0.0013327732696674,0.001332773357133,0.0037041580958457,0.0034699266885553,0.68344997352457,0.69657791590101,43648,1000,0.0056544284298693,0.0056544284298619,0.0056544284296464,37.088141444462,37.097614146242,0.0002119051315557,0.0002119051315557,0.0002119051315557,389679.79526808,0.017108288191683
37152000,0.99999947367568,0.016371863642359,0.0054572878808557,0.0054572878808563,0.0054572878806469,-0.0013617688670661,0.0013617688668678,4.37139832737e-11,-4.3935618502896e-11,-7.4987097430941e-13,5.9372397978703e-13,-0.0013952010607982,0.0013952010888001,-0.0013952010894876,0.0013952010600927,-0.0013952010617306,0.0013952010910057,-0.001395201090737,0.0013952010620391,-0.0013336241558891,0.0013336242435926,-0.0013336242432386,0.0013336241563023,-2.7968737338979e-12,-4.1670757575195e-12,-1.3900275062021e-12,-1.4086173500598e-12,-0.001361768869165,0.0013617688647657,-0.0013952010763236,0.0013952010745894,-0.0013952010767335,0.0013952010747276,-0.0013952010771752,0.0013952010742626,-0.001395201076762,0.0013952010741761,-0.0013336242022966,0.0013336241963256,-0.0013336241974522,0.0013336241920231,-0.0013336242028478,0.0013336241919179,-0.0013336242027059,0.0013336241903513,-4.3878012527425e-11,4.3848526457616e-11,-0.0013617688669368,0.0013617688668895,-3.6263862752121e-14,-4.1550789475433e-15,-0.0013952010907307,0.0013952010608006,-0.0013952010904059,0.0013952010604255,-0.0013952010608731,0.0013952010907384,-0.0013952010605041,0.001395201090305,-0.0013336241510835,-0.0013336241510835,0.0013336241510991,0.0013336242385883,0.0037076557579709,0.0034699117352057,0.69633772644781,0.78479046989783,43648,1000,0.0056579257657465,0.0056579257657398,0.0056579257655238,37.230684748368,37.240257744975,0.00021304547798694,0.00021304547798694,0.00021304547798694,378783.89308394,0.017118958849128
37238400,0.99999950369842,0.016371864107072,0.0054572880357601,0.0054572880357607,0.0054572880355513,-0.0013625928766617,0.0013625928764524,4.3715092357465e-11,-4.3947853423245e-11,-7.4496159487582e-13,5.6958936414179e-13,-0.001395874853234,0.0013958748812378,-0.0013958748819262,0.0013958748525272,-0.0013958748541684,0.001395874883437,-0.001395874883175,0.0013958748544636,-0.0013344527388897,0.0013344528266047,-0.0013344528262654,0.0013344527392769,-2.8119229800361e-12,-4.1531712411165e-12,-1.4034207735175e-12,-1.4099297805542e-12,-0.0013625928787549,0.0013625928743558,-0.001395874868754,0.001395874867022,-0.0013958748691603,0.0013958748671631,-0.0013958748696023,0.0013958748667004,-0.0013958748691842,0.0013958748666189,-0.0013344527852986,0.0013344527792635,-0.0013344527804319,0.0013344527750248,-0.0013344527858186,0.0013344527748954,-0.0013344527857067,0.0013344527733426,-4.3882077285602e-11,4.3857859348973e-11,-0.0013625928765274,0.0013625928764794,-3.2596063036179e-14,-1.2337534861485e-14,-0.0013958748831745,0.0013958748532428,-0.0013958748828493,0.0013958748528615,-0.0013958748533095,0.0013958748831808,-0.0013958748529406,0.0013958748827423,-0.0013344527340409,-0.0013344527340409,0.0013344527340501,0.0013344528215766,0.0037110676812585,0.0034698970773897,0.70829591119667,0.87300302389465,43648,1000,0.0056613399880239,0.0056613399880167,0.0056613399878016,37.373322641371,37.382901343708,0.00021418658113097,0.00021418658113097,0.00021418658113097,368724.39483472,0.017129375942395
37324800,0.99999953222249,0.016371864539613,0.0054572881799403,0.0054572881799408,0.0054572881797315,-0.0013633992388588,0.0013633992386836,4.3742250763089e-11,-4.3928451780658e-11,-7.4381739453623e-13,6.2132025438684e-13,-0.0013965336047396,0.0013965336327585,-0.0013965336334384,0.0013965336040388,-0.0013965336056697,0.0013965336349733,-0.0013965336346736,0.0013965336059886,-0.0013352616341332,0.0013352617219247,-0.0013352617215109,0.0013352616346212,-2.7783702403434e-12,-4.169879201288e-12,-1.4126030224179e-12,-1.4171872941363e-12,-0.0013633992409717,0.0013633992365643,-0.0013965336202681,0.0013965336185209,-0.001396533620661,0.0013965336186694,-0.0013965336211296,0.0013965336181845,-0.0013965336207037,0.0013965336181191,-0.0013352616806165,0.0013352616745875,-0.0013352616758508,0.001335261670345,-0.0013352616810971,0.0013352616702393,-0.0013352616810198,0.0013352616686087,-4.3896050064626e-11,4.3851685214059e-11,-0.0013633992387449,0.0013633992386873,-4.6129914292195e-14,-2.8070142476415e-14,-0.0013965336346663,0.0013965336047414,-0.0013965336343556,0.0013965336043616,-0.0013965336047992,0.0013965336346929,-0.0013965336044397,0.001396533634246,-0.0013352616293999,-0.0013352616293999,0.0013352616294326,0.0013352617168966,0.0037144041989387,0.0034698827047267,0.69382142711857,0.76558456952602,43648,1000,0.0056646810979739,0.0056646810979608,0.0056646810977457,37.515951977439,37.525544942441,0.00021532761581951,0.00021532761581951,0.00021532761581951,359415.8309947,0.017139569988503
37411200,0.99999955931002,0.016371864937988,0.0054572883127321,0.0054572883127327,0.0054572883125233,-0.0013630280389046,0.0013630280387231,4.3725492451514e-11,-4.3935036520675e-11,-7.6957090190191e-13,6.2819339735821e-13,-0.0013963412668167,0.0013963412948282,-0.0013963412955029,0.0013963412661045,-0.0013963412677234,0.0013963412970456,-0.0013963412967241,0.0013963412680644,-0.0013348876934334,0.0013348877811812,-0.001334887780836,0.0013348876938495,-2.7939567641858e-12,-4.2184236594646e-12,-1.4048752879067e-12,-1.427683944059e-12,-0.0013630280410255,0.0013630280365988,-0.0013963412823332,0.0013963412806177,-0.001396341282755,0.0013963412807466,-0.001396341283208,0.0013963412802691,-0.001396341282798,0.0013963412801752,-0.0013348877398652,0.0013348877338482,-0.0013348877350653,0.0013348877296551,-0.0013348877403504,0.0013348877294573,-0.0013348877403079,0.0013348877278045,-4.3883409568431e-11,4.385409761095e-11,-0.0013630280387839,0.0013630280387377,-4.8555340197098e-14,-1.2443678677687e-14,-0.0013963412967575,0.0013963412668294,-0.0013963412964213,0.0013963412664629,-0.0013963412668957,0.0013963412967673,-0.0013963412665134,0.001396341296342,-0.0013348876886456,-0.0013348876886456,0.0013348876886337,0.0013348877762009,0.0037128717827298,0.0034698686107396,0.67283154741366,0.63706424169366,43648,1000,0.005663142863528,0.0056631428635208,0.005663142863308,37.658585026975,37.668188541174,0.0002164686802158,0.0002164686802158,0.0002164686802158,369994.54064874,0.017134877490541
37497600,0.99999958502128,0.01637186531103,0.0054572884370793,0.0054572884370798,0.0054572884368705,-0.0013625063885374,0.0013625063884052,4.37391254468e-11,-4.3921243236168e-11,-7.3989222032996e-13,6.4993596843171e-13,-0.0013960289165059,0.0013960289445516,-0.0013960289452001,0.0013960289158463,-0.0013960289174174,0.0013960289468081,-0.0013960289464357,0.0013960289177888,-0.0013343607629019,0.0013343608505438,-0.0013343608498819,0.0013343607631558,-2.8214282778911e-12,-4.2379291224096e-12,-1.4041942498884e-12,-1.4351172757994e-12,-0.001362506390695,0.0013625063862451,-0.0013960289320039,0.0013960289303301,-0.0013960289324356,0.0013960289303882,-0.0013960289328721,0.0013960289299259,-0.0013960289324809,0.0013960289298767,-0.0013343608092237,0.0013343608031002,-0.0013343608042919,0.0013343607990067,-0.0013343608096521,0.0013343607987123,-0.0013343608096199,0.0013343607970561,-4.381763925414e-11,4.3919674637029e-11,-0.0013625063883904,0.0013625063884164,-1.6441791832193e-14,2.8145993100407e-14,-0.0013960289464329,0.0013960289165869,-0.0013960289460832,0.0013960289161886,-0.0013960289165813,0.0013960289465163,-0.0013960289161516,0.0013960289460573,-0.0013343607578297,-0.0013343607578297,0.001334360758084,0.0013343608454281,0.0037107079019108,0.0034698547921374,0.66390625283921,0.58517435017955,43648,1000,0.0056609812930672,0.0056609812930621,0.0056609812927861,37.801222666985,37.810832139907,0.00021760978133588,0.00021760978133588,0.00021760978133588,384431.35849425,0.017128282952945
37584000,0.99999960941464,0.016371865660772,0.0054572885536601,0.0054572885536607,0.0054572885534514,-0.001362445284839,0.001362445284721,4.3760694434941e-11,-4.3893114624889e-11,-7.081146617008e-13,6.8941540942071e-13,-0.0013960591413158,0.0013960591692516,-0.0013960591699248,0.0013960591407254,-0.0013960591422349,0.0013960591715406,-0.0013960591711333,0.001396059142538,-0.001334293982547,0.0013342940704441,-0.0013342940697758,0.0013342939829407,-2.8426926282797e-12,-4.2707141208504e-12,-1.4209527967498e-12,-1.4273363370311e-12,-0.0013624452870071,0.0013624452825646,-0.001396059156811,0.0013960591550706,-0.001396059157097,0.0013960591551948,-0.0013960591576757,0.0013960591546844,-0.0013960591572326,0.001396059154507,-0.0013342940293362,0.0013342940234328,-0.0013342940244458,0.0013342940192652,-0.0013342940298719,0.0013342940186999,-0.0013342940295977,0.0013342940171787,-4.3786222566839e-11,4.3940603468256e-11,-0.0013624452847085,0.0013624452848166,1.5746930706782e-14,3.8410973629946e-14,-0.001396059171176,0.0013960591414301,-0.0013960591707854,0.0013960591408767,-0.0013960591412989,0.0013960591711817,-0.001396059141004,0.0013960591708774,-0.0013342939780059,-0.0013342939780059,0.001334293978331,0.0013342940659627,0.0037104524116802,0.0034698412438647,0.65625403376454,0.54243370808786,43648,1000,0.0056607280233836,0.0056607280234077,0.0056607280233112,37.943861053031,37.95347573864,0.00021875088842425,0.00021875088842425,0.00021875088842425,390589.45431982,0.0171275106161
37670400,0.999999632417,0.016371865986568,0.0054572886622586,0.0054572886622591,0.0054572886620498,-0.0013622299519784,0.0013622299517931,4.372453212791e-11,-4.3933459745315e-11,-7.6339214948208e-13,6.2475097311015e-13,-0.0013959248487352,0.0013959248767051,-0.001395924877414,0.0013959248480143,-0.001395924849618,0.0013959248789317,-0.0013959248786091,0.0013959248499428,-0.0013340704405803,0.0013340705283373,-0.0013340705279528,0.0013340704410323,-2.8031208371708e-12,-4.2181309625239e-12,-1.4104229125482e-12,-1.424923057814e-12,-0.0013622299540933,0.0013622299496706,-0.0013959248642211,0.0013959248624959,-0.0013959248645717,0.0013959248626309,-0.0013959248650371,0.0013959248621228,-0.0013959248646548,0.0013959248620798,-0.0013340704870934,0.0013340704810641,-0.0013340704822249,0.0013340704767773,-0.0013340704876474,0.0013340704766523,-0.0013340704875316,0.0013340704750309,-4.3882588446457e-11,4.3852531894076e-11,-0.0013622299518536,0.0013622299518053,-3.9115952093337e-14,-1.0482620939596e-14,-0.0013959248786257,0.0013959248487272,-0.0013959248783059,0.0013959248483178,-0.0013959248488069,0.001395924878629,-0.001395924848415,0.0013959248781981,-0.0013340704358578,-0.0013340704358578,0.0013340704358757,0.0013340705233882,0.0037095487589811,0.0034698279601362,0.64835045712472,0.49969306599618,43648,1000,0.0056598357748594,0.0056598357748436,0.0056598357746259,37.979391271068,37.982050903069,0.00021903513016855,0.00021903513016855,0.00021903513016855,395954.08370538,0.017124788460414
37756800,0.99999965395446,0.016371866287772,0.0054572887626599,0.0054572887626605,0.0054572887624512,-0.001361751650869,0.0013617516506987,4.3740082946961e-11,-4.3909793762412e-11,-7.5995384275529e-13,6.0999242397369e-13,-0.0013955275963531,0.0013955276243788,-0.0013955276250748,0.0013955275956877,-0.0013955275972844,0.0013955276266288,-0.001395527626299,0.0013955275976061,-0.0013335840352693,0.0013335841230444,-0.0013335841225647,0.0013335840357516,-2.7893916095305e-12,-4.1861284695899e-12,-1.4055546495056e-12,-1.4259158216034e-12,-0.0013617516529888,0.0013617516485665,-0.0013955276118849,0.0013955276101324,-0.0013955276122788,0.0013955276102936,-0.0013955276127389,0.0013955276097708,-0.0013955276123248,0.0013955276097156,-0.0013335840817512,0.001333584075742,-0.0013335840768608,0.0013335840714076,-0.0013335840822598,0.0013335840713254,-0.001333584082167,0.0013335840697794,-4.3866207888048e-11,4.3860637205288e-11,-0.0013617516507434,0.0013617516507028,-3.1559035893116e-14,2.6752712134773e-15,-0.0013955276262906,0.0013955275963535,-0.0013955276259836,0.0013955275959878,-0.0013955275963981,0.0013955276262679,-0.0013955275960546,0.0013955276258646,-0.0013335840304987,-0.0013335840304987,0.0013335840306064,0.0013335841180009,0.0037075422034529,0.0034698149352737,0.64022439731842,0.4569524239045,43648,1000,0.0056578540078555,0.00565785400783,0.0056578540076038,37.882168190648,37.875956105864,0.00021825734552518,0.00021825734552518,0.00021825734552518,401557.79473882,0.017118741787414
37843200,0.99999967411812,0.016371866567496,0.0054572888559013,0.0054572888559019,0.0054572888556926,-0.001361250848428,0.0013612508482516,4.3722109025464e-11,-4.3927434576438e-11,-7.6181325653971e-13,6.2414099174466e-13,-0.0013951074181201,0.0013951074461245,-0.0013951074468011,0.0013951074174164,-0.0013951074190337,0.0013951074483684,-0.0013951074480293,0.0013951074193768,-0.0013330760666643,0.0013330761543431,-0.0013330761540391,0.001333076067113,-2.7884595203581e-12,-4.1983472727844e-12,-1.389254294529e-12,-1.4218110352371e-12,-0.0013612508505457,0.0013612508461326,-0.0013951074336378,0.0013951074319161,-0.0013951074340505,0.0013951074320489,-0.0013951074345091,0.0013951074315702,-0.0013951074340946,0.0013951074314868,-0.0013330761131039,0.0013330761071286,-0.0013330761083099,0.001333076102846,-0.0013330761135928,0.0013330761027159,-0.0013330761135387,0.0013330761010882,-4.3887650527108e-11,4.3838547791869e-11,-0.0013612508483121,0.0013612508482617,-4.5965478139136e-14,7.8871119953189e-16,-0.0013951074480535,0.0013951074181257,-0.0013951074477287,0.001395107417758,-0.0013951074181951,0.0013951074480657,-0.0013951074178109,0.0013951074476324,-0.0013330760619558,-0.0013330760619558,0.0013330760618785,0.0013330761493971,0.003705439290196,0.0034698021648883,0.63514560002086,0.43132005729132,43648,1000,0.0056557790287719,0.0056557790287692,0.0056557790285527,37.776916001202,37.769861308659,0.00021741532800962,0.00021741532800962,0.00021741532800962,407321.57177938,0.017112410654195
37929600,0.99999969300121,0.016371866836211,0.0054572889454731,0.0054572889454737,0.0054572889452643,-0.0013608635997715,0.001360863599585,4.3723838384398e-11,-4.3931333222043e-11,-7.6090228436928e-13,6.1277186847534e-13,-0.0013947688813046,0.0013947689093132,-0.0013947689099956,0.0013947688806018,-0.0013947688822296,0.0013947689115312,-0.0013947689112392,0.0013947688825586,-0.001332684628331,0.0013326847160567,-0.0013326847156746,0.0013326846287483,-2.7847476337537e-12,-4.1852601431755e-12,-1.3903406436948e-12,-1.4093800326427e-12,-0.0013608636018793,0.0013608635974737,-0.0013947688968262,0.0013947688950954,-0.0013947688972379,0.0013947688952325,-0.0013947688976891,0.0013947688947592,-0.0013947688972749,0.001394768894673,-0.0013326846747546,0.0013326846687709,-0.0013326846699261,0.0013326846645078,-0.0013326846752738,0.0013326846643859,-0.0013326846751878,0.0013326846627771,-4.3875306904197e-11,4.385676938227e-11,-0.0013608635996462,0.0013608635996017,-3.9329269106061e-14,-6.881201548722e-15,-0.0013947689112386,0.0013947688813079,-0.001394768910911,0.0013947688809322,-0.0013947688813759,0.0013947689112482,-0.001394768881006,0.0013947689108138,-0.0013326846235485,-0.0013326846235485,0.0013326846235729,0.0013326847110727,0.003703808115515,0.0034697896467748,0.65157718237085,0.52548026821167,43648,1000,0.0056541745526039,0.0056541745525966,0.005654174552379,37.670903028641,37.663766511454,0.00021656722422913,0.00021656722422913,0.00021656722422913,410770.41022944,0.017107515055351
38016000,0.99999971069098,0.016371867090321,0.0054572890301764,0.005457289030177,0.0054572890299676,-0.001361316081589,0.0013613160813844,4.3714951597059e-11,-4.3961756939679e-11,-7.8544847567646e-13,5.9449866200337e-13,-0.0013950476801211,0.001395047708122,-0.0013950477087928,0.001395047679411,-0.0013950476810376,0.0013950477103314,-0.0013950477100294,0.0013950476813774,-0.0013331493296154,0.0013331494173691,-0.0013331494168777,0.0013331493298981,-2.802991958755e-12,-4.2099708000466e-12,-1.3883754684354e-12,-1.4204864874658e-12,-0.0013613160836937,0.0013613160792832,-0.0013950476956136,0.0013950476939295,-0.0013950476960402,0.0013950476940636,-0.0013950476964898,0.0013950476935851,-0.0013950476960939,0.001395047693501,-0.0013331493758788,0.0013331493699111,-0.0013331493711378,0.00133314936569,-0.0013331493765182,0.0013331493654788,-0.0013331493764498,0.0013331493639584,-4.3839670875206e-11,4.3911408742487e-11,-0.0013613160814369,0.0013613160814352,-4.1207682310062e-14,5.5560655601286e-15,-0.0013950477100607,0.0013950476801565,-0.0013950477097128,0.001395047679775,-0.0013950476801997,0.0013950477100867,-0.0013950476798138,0.0013950477096401,-0.0013331493246106,-0.0013331493246106,0.0013331493247866,0.0013331494123627,0.0037056683200395,0.0034697773748684,0.65776190028911,0.56198697248515,43648,1000,0.0056560494492361,0.0056560494492433,0.0056560494490261,37.564814022144,37.557671714249,0.00021571851217715,0.00021571851217715,0.00021571851217715,397294.03442411,0.01711323514495
38102400,0.99999972726843,0.016371867329422,0.0054572891098767,0.0054572891098773,0.005457289109668,-0.0013613560613157,0.0013613560611354,4.3734917163596e-11,-4.3942643758867e-11,-7.7232399426741e-13,6.2407017037879e-13,-0.0013950227623051,0.001395022790323,-0.0013950227910029,0.0013950227616141,-0.0013950227632248,0.0013950227925397,-0.0013950227922339,0.0013950227635759,-0.0013331934888773,0.0013331935765949,-0.0013331935762183,0.001333193489285,-2.7803736497288e-12,-4.2042280343077e-12,-1.371565246682e-12,-1.4292334849569e-12,-0.0013613560634287,0.0013613560590177,-0.0013950227778227,0.0013950227761074,-0.0013950227782476,0.0013950227762313,-0.001395022778696,0.0013950227757684,-0.0013950227782878,0.0013950227756643,-0.0013331935353279,0.0013331935293636,-0.0013331935305005,0.0013331935250575,-0.0013331935358052,0.001333193524902,-0.0013331935357929,0.0013331935232906,-4.3882847909119e-11,4.3871960153497e-11,-0.001361356061187,0.0013613560611546,-4.7742012102537e-14,2.4450753046278e-14,-0.0013950227922503,0.0013950227623124,-0.0013950227919117,0.0013950227619559,-0.00139502276238,0.0013950227922536,-0.0013950227620057,0.0013950227918296,-0.0013331934841205,-0.0013331934841205,0.0013331934841555,0.0013331935716776,0.003705813721444,0.0034697653441055,0.6602765519267,0.57718443256635,43648,1000,0.005656215168058,0.0056562151680482,0.0056562151678311,37.45871749012,37.451576917044,0.00021486973992096,0.00021486973992096,0.00021486973992096,392154.96886975,0.017113740470302
38188800,0.9999997428087,0.01637186755432,0.0054572891848427,0.0054572891848433,0.0054572891846339,-0.0013612513562599,0.0013612513560827,4.3741990653388e-11,-4.3946197826763e-11,-7.7027123344844e-13,6.3971181018449e-13,-0.0013948915285968,0.0013948915566212,-0.0013948915572994,0.001394891527899,-0.0013948915295151,0.0013948915588341,-0.0013948915585409,0.0013948915298646,-0.0013330902837721,0.0013330903714997,-0.0013330903711319,0.0013330902841578,-2.7778761966125e-12,-4.2126337186963e-12,-1.3811699826757e-12,-1.4337161127216e-12,-0.001361251358379,0.0013612513539618,-0.0013948915441244,0.0013948915424032,-0.0013948915445467,0.0013948915425223,-0.0013948915449856,0.0013948915420654,-0.0013948915445913,0.0013948915419638,-0.0013330903302139,0.0013330903242401,-0.0013330903253832,0.0013330903199096,-0.0013330903306759,0.0013330903198426,-0.0013330903306409,0.0013330903181419,-4.3887112749419e-11,4.3880162638211e-11,-0.0013612513561342,0.0013612513561027,-4.5797542092996e-14,2.1274938300533e-14,-0.0013948915585594,0.0013948915286137,-0.001394891558221,0.0013948915282523,-0.0013948915286858,0.0013948915585633,-0.0013948915283035,0.0013948915581398,-0.0013330902789387,-0.0013330902789387,0.001333090278954,0.0013330903665314,0.0037053584011286,0.003469753549851,0.6624417543496,0.59029928701811,43648,1000,0.0056557813903105,0.0056557813903068,0.0056557813900918,37.352620198409,37.34548211984,0.00021402096158728,0.00021402096158728,0.00021402096158728,389869.99030011,0.017112416723617
38275200,0.99999975738155,0.016371867765918,0.0054572892553753,0.0054572892553759,0.0054572892551666,-0.0013611321594535,0.0013611321592741,4.373343491476e-11,-4.3940369710691e-11,-7.6992377347486e-13,6.3019827728698e-13,-0.0013947495726562,0.0013947496006781,-0.0013947496013624,0.0013947495719632,-0.0013947495735713,0.0013947496029044,-0.0013947496025978,0.0013947495739218,-0.0013329723453669,0.0013329724331009,-0.0013329724327103,0.0013329723457982,-2.7785504701316e-12,-4.2047352541066e-12,-1.3775659457177e-12,-1.4401336519643e-12,-0.0013611321615707,0.0013611321571533,-0.0013947495881737,0.0013947495864502,-0.0013947495885956,0.0013947495865768,-0.0013947495890407,0.00139474958611,-0.0013947495886398,0.0013947495860111,-0.001332972391814,0.0013329723858299,-0.0013329723870153,0.0013329723814957,-0.0013329723923173,0.0013329723814222,-0.0013329723922401,0.0013329723797923,-4.3876312902876e-11,4.3875592983693e-11,-0.001361132159325,0.0013611321592971,-4.7560723523132e-14,2.8405632227434e-14,-0.0013947496026101,0.0013947495726646,-0.0013947496022731,0.0013947495722994,-0.0013947495727359,0.0013947496026109,-0.0013947495723503,0.0013947496021955,-0.0013329723405753,-0.0013329723405753,0.001332972340625,0.0013329724281306,0.0037048431410172,0.0034697419875932,0.6646129165239,0.60341414146988,43648,1000,0.0056552875660058,0.0056552875659983,0.0056552875657872,37.246522818115,37.239387322635,0.00021317218254492,0.00021317218254492,0.00021317218254492,387873.01276085,0.017110909776704
38361600,0.99999977109277,0.016371867968934,0.0054572893230474,0.005457289323048,0.0054572893228386,-0.0013611217520092,0.0013611217518191,4.3726165195668e-11,-4.3944222769453e-11,-7.5956726632964e-13,6.1149714271145e-13,-0.0013947150880082,0.0013947151160202,-0.0013947151167065,0.0013947150873038,-0.0013947150889269,0.0013947151182333,-0.0013947151179446,0.0013947150892564,-0.001332964191814,0.0013329642795416,-0.0013329642791661,0.0013329641922109,-2.7923626364147e-12,-4.1901209946798e-12,-1.3712555796715e-12,-1.4433087314384e-12,-0.0013611217541172,0.0013611217497058,-0.001394715103514,0.0013947151018009,-0.0013947151039416,0.0013947151019199,-0.0013947151043748,0.0013947151014671,-0.0013947151039799,0.0013947151013609,-0.0013329642382053,0.0013329642322445,-0.0013329642334256,0.0013329642279291,-0.0013329642387687,0.0013329642278492,-0.0013329642386774,0.0013329642262501,-4.3871031387752e-11,4.3876387282957e-11,-0.0013611217518717,0.0013611217518476,-5.5143433053031e-14,2.9592831253436e-14,-0.001394715117942,0.0013947150880066,-0.0013947151175995,0.0013947150876461,-0.0013947150880722,0.001394715117951,-0.0013947150876851,0.0013947151175369,-0.0013329641869797,-0.0013329641869797,0.0013329641870386,0.001332964274569,0.0037047835721676,0.0034697306540001,0.67769220448322,0.68645999815632,43648,1000,0.0056552444797656,0.0056552444797546,0.0056552444795398,37.197071900113,37.1936084,0.0002127765752009,0.0002127765752009,0.0002127765752009,385849.50203595,0.017110778156522
38448000,0.99999978402697,0.01637186816496,0.0054572893883893,0.0054572893883899,0.0054572893881806,-0.0013616470582756,0.0013616470580799,4.3725963143017e-11,-4.3941518852056e-11,-7.610718086022e-13,5.966407142122e-13,-0.0013950956829126,0.0013950957109268,-0.0013950957116079,0.0013950956822107,-0.0013950956838425,0.0013950957131384,-0.0013950957128573,0.0013950956841605,-0.0013334968874997,0.0013334969752371,-0.0013334969748795,0.0013334968879263,-2.7961703436213e-12,-4.1807183995697e-12,-1.3749393788987e-12,-1.4291798983587e-12,-0.0013616470603773,0.0013616470559735,-0.0013950956984362,0.0013950956967176,-0.0013950956988522,0.0013950956968414,-0.0013950956992919,0.0013950956963866,-0.0013950956988837,0.0013950956962881,-0.0013334969339001,0.001333496927969,-0.0013334969291347,0.0013334969236599,-0.0013334969344504,0.0013334969235357,-0.0013334969343635,0.0013334969219636,-4.3874672894154e-11,4.3869751191567e-11,-0.0013616470581402,0.0013616470581074,-5.1436458063278e-14,1.5822516632978e-14,-0.001395095712858,0.0013950956829269,-0.0013950957125189,0.0013950956825549,-0.0013950956829882,0.001395095712869,-0.0013950956826074,0.001395095712441,-0.0013334968827043,-0.0013334968827043,0.0013334968827392,0.0013334969702506,0.0037069495908827,0.0034697195449332,0.69361045974114,0.79944244,43648,1000,0.0056574211082401,0.0056574211082304,0.0056574211080166,37.193939796662,37.1936084,0.00021275151837329,0.00021275151837329,0.00021275151837329,375595.83841852,0.017117418931437
38534400,0.99999979623014,0.016371868350222,0.0054572894501434,0.005457289450144,0.0054572894499347,-0.0013623445813451,0.0013623445811497,4.3725471746264e-11,-4.3942609171689e-11,-7.5977655405369e-13,5.9965326923954e-13,-0.0013956007644471,0.0013956007924572,-0.0013956007931408,0.001395600763743,-0.001395600765375,0.001395600794667,-0.0013956007943871,0.0013956007656928,-0.0013341999719894,0.0013342000597187,-0.0013342000593514,0.0013341999723988,-2.7937460647401e-12,-4.1797601935481e-12,-1.376350541671e-12,-1.4250367602228e-12,-0.0013623445834473,0.001362344579044,-0.0013956007799659,0.001395600778244,-0.001395600780385,0.0013956007783716,-0.001395600780821,0.0013956007779131,-0.0013956007804172,0.001395600777817,-0.0013342000183902,0.0013342000124399,-0.001334200013596,0.0013342000081449,-0.0013342000189426,0.0013342000080221,-0.0013342000188472,0.0013342000064386,-4.3876211758907e-11,4.386886748327e-11,-0.0013623445812106,0.0013623445811767,-4.8574457260144e-14,1.3156333377164e-14,-0.001395600794389,0.0013956007644557,-0.0013956007940514,0.0013956007640881,-0.0013956007645224,0.0013956007943988,-0.001395600764141,0.0013956007939731,-0.0013341999671756,-0.0013341999671756,0.0013341999672193,0.0013342000547329,0.003709825737485,0.0034697086548863,0.69467744801618,0.79944244,43648,1000,0.0056603113510689,0.0056603113510616,0.0056603113508463,37.193641780706,37.1936084,0.00021274913424565,0.00021274913424565,0.00021274913424565,363068.35753427,0.017126236843808
38620800,0.99999980774377,0.016371868525316,0.0054572895085081,0.0054572895085087,0.0054572895082994,-0.0013623377797157,0.0013623377795205,4.3725461452461e-11,-4.3942630229869e-11,-7.598711982212e-13,6.0039089376444e-13,-0.0013955964321287,0.0013955964601388,-0.0013955964608226,0.0013955964314244,-0.0013955964330565,0.0013955964623491,-0.0013955964620687,0.0013955964333747,-0.0013341938716049,0.0013341939593335,-0.0013341939589652,0.0013341938720133,-2.7934987781769e-12,-4.180415820578e-12,-1.3784242724376e-12,-1.4230752319109e-12,-0.0013623377818181,0.0013623377774145,-0.0013955964476482,0.001395596445925,-0.0013955964480661,0.0013955964460538,-0.0013955964485036,0.0013955964455937,-0.0013955964480987,0.0013955964454989,-0.001334193918007,0.0013341939120513,-0.0013341939132076,0.0013341939077615,-0.0013341939185577,0.0013341939076385,-0.0013341939184622,0.0013341939060524,-4.3876833886961e-11,4.3868237620159e-11,-0.0013623377795819,0.0013623377795468,-4.7197587557863e-14,1.0579382689474e-14,-0.0013955964620709,0.0013955964321374,-0.0013955964617344,0.0013955964317687,-0.0013955964322043,0.0013955964620808,-0.001395596431824,0.0013955964616539,-0.0013341938667911,-0.0013341938667911,0.0013341938668328,0.0013341939543461,0.0037097889693375,0.0034696979796137,0.69572571665769,0.79944244,43648,1000,0.0056602831492521,0.0056602831492446,0.0056602831490294,37.19361180605,37.1936084,0.0002127488944484,0.0002127488944484,0.0002127488944484,362568.98055725,0.017126150871938
38707200,0.99999981860685,0.016371868690762,0.0054572895636568,0.0054572895636574,0.0054572895634481,-0.0013623311808716,0.0013623311806764,4.3725415042114e-11,-4.3942828635572e-11,-7.6017912999056e-13,6.008233511414e-13,-0.0013955922957297,0.0013955923237398,-0.0013955923244234,0.0013955922950257,-0.0013955922966575,0.0013955923259497,-0.0013955923256697,0.0013955922969756,-0.00133418793887,0.0013341880265978,-0.0013341880262303,0.0013341879392769,-2.793154906329e-12,-4.1807955736827e-12,-1.3800119886398e-12,-1.4210598817137e-12,-0.001362331182974,0.0013623311785705,-0.0013955923112492,0.0013955923095247,-0.001395592311666,0.0013955923096545,-0.0013955923121043,0.0013955923091936,-0.0013955923116981,0.0013955923090999,-0.0013341879852734,0.0013341879793148,-0.0013341879804692,0.0013341879750275,-0.0013341879858217,0.0013341879749048,-0.0013341879857271,0.0013341879733178,-4.3877557011929e-11,4.3867672843295e-11,-0.0013623311807385,0.0013623311807021,-4.6003829908692e-14,8.1925438410563e-15,-0.0013955923256711,0.0013955922957375,-0.0013955923253359,0.0013955922953676,-0.0013955922958047,0.0013955923256807,-0.0013955922954257,0.0013955923252527,-0.0013341879340574,-0.0013341879340574,0.0013341879340959,0.0013341880216106,0.0037097532099426,0.0034696875149333,0.69675572234262,0.79944244,43648,1000,0.0056602557880744,0.0056602557880668,0.0056602557878517,37.193608749605,37.1936084,0.00021274886999684,0.00021274886999684,0.00021274886999684,362074.2463586,0.017126067463351
38793600,0.99999982885613,0.016371868847088,0.0054572896157653,0.0054572896157658,0.0054572896155565,-0.0013623247406574,0.0013623247404627,4.3725705386186e-11,-4.3942375178837e-11,-7.6025089250415e-13,6.0138809859463e-13,-0.0013955882924591,0.0013955883204689,-0.0013955883211527,0.0013955882917548,-0.0013955882933865,0.0013955883226796,-0.0013955883223984,0.0013955882937053,-0.0013341821442089,0.0013341822319398,-0.0013341822315701,0.0013341821446186,-2.7929315013892e-12,-4.1812110904007e-12,-1.3817255539387e-12,-1.4200453244724e-12,-0.0013623247427603,0.0013623247383563,-0.0013955883079794,0.001395588306254,-0.0013955883083952,0.0013955883063852,-0.0013955883088353,0.0013955883059224,-0.0013955883084282,0.0013955883058299,-0.001334182190615,0.0013341821846534,-0.0013341821858102,0.0013341821803684,-0.0013341821911606,0.0013341821802442,-0.0013341821910665,0.0013341821786576,-4.3877970499297e-11,4.3867078008525e-11,-0.001362324740525,0.0013623247404877,-4.5309115837613e-14,6.1935166746699e-15,-0.0013955883224009,0.0013955882924676,-0.0013955883220668,0.0013955882920967,-0.0013955882925346,0.0013955883224108,-0.0013955882921566,0.0013955883219818,-0.0013341821393969,-0.0013341821393969,0.0013341821394347,0.0013341822269484,0.0037097182655029,0.0034696772567525,0.69776790690214,0.79944244,43648,1000,0.0056602290846317,0.0056602290846245,0.0056602290844093,37.19360843682,37.1936084,0.00021274886749456,0.00021274886749456,0.00021274886749456,361583.66970524,0.017125986059792
38880000,0.99999983852629,0.016371868994791,0.0054572896649997,0.0054572896650003,0.005457289664791,-0.0013623184489905,0.0013623184487961,4.3725984083554e-11,-4.3942468881857e-11,-7.604690623098e-13,6.0175679321362e-13,-0.0013955844114351,0.0013955844394451,-0.0013955844401289,0.0013955844107309,-0.0013955844123619,0.0013955844416559,-0.0013955844413743,0.0013955844126817,-0.0013341764792669,0.0013341765669986,-0.0013341765666286,0.0013341764796774,-2.792987382035e-12,-4.1818541884016e-12,-1.3835162639396e-12,-1.4187230413379e-12,-0.0013623184510935,0.0013623184466893,-0.0013955844269557,0.0013955844252298,-0.0013955844273709,0.0013955844253618,-0.0013955844278118,0.0013955844248978,-0.0013955844274039,0.0013955844248062,-0.0013341765256756,0.0013341765197092,-0.0013341765208666,0.0013341765154276,-0.0013341765262186,0.0013341765153025,-0.0013341765261243,0.0013341765137155,-4.3878442102537e-11,4.3866985099599e-11,-0.0013623184488585,0.0013623184488204,-4.409644700146e-14,4.3838366650344e-15,-0.0013955844413773,0.0013955844114437,-0.0013955844410438,0.001395584411072,-0.0013955844115109,0.001395584441387,-0.0013955844111336,0.0013955844409571,-0.0013341764744556,-0.0013341764744556,0.0013341764744914,0.0013341765620056,0.0037096840906067,0.0034696672010551,0.69876269810247,0.79944244,43648,1000,0.0056602029971403,0.0056602029971325,0.0056602029969173,37.193608404778,37.1936084,0.00021274886723822,0.00021274886723822,0.00021274886723822,361097.12828904,0.017125906533797
