time,ASR_ext,ASR_strain,ASR_strain_xx,ASR_strain_yy,ASR_strain_zz,disp_x_101,disp_x_102,disp_x_103,disp_x_104,disp_x_105,disp_x_106,disp_x_p1_neg,disp_x_p1_pos,disp_x_p2_neg,disp_x_p2_pos,disp_x_p3_neg,disp_x_p3_pos,disp_x_p4_neg,disp_x_p4_pos,disp_x_p5_neg,disp_x_p5_pos,disp_x_p6_neg,disp_x_p6_pos,disp_y_101,disp_y_102,disp_y_103,disp_y_104,disp_y_105,disp_y_106,disp_y_p1_neg,disp_y_p1_pos,disp_y_p2_neg,disp_y_p2_pos,disp_y_p3_neg,disp_y_p3_pos,disp_y_p4_neg,disp_y_p4_pos,disp_y_p5_neg,disp_y_p5_pos,disp_y_p6_neg,disp_y_p6_pos,disp_y_p7_neg,disp_y_p7_pos,disp_y_p8_neg,disp_y_p8_pos,disp_z_101,disp_z_102,disp_z_103,disp_z_104,disp_z_105,disp_z_106,disp_z_p1_neg,disp_z_p1_pos,disp_z_p2_neg,disp_z_p2_pos,disp_z_p3_neg,disp_z_p3_pos,disp_z_p4_neg,disp_z_p4_pos,disp_z_p5_neg,disp_z_p5_pos,disp_z_p6_neg,disp_z_p6_pos,error,error_ASR,humidity,ndof,nelem,strain_xx,strain_yy,strain_zz,temp,thermal_strain_xx,thermal_strain_yy,thermal_strain_zz,vonmises,vstrain
2419200,0,0,0,0,0,0,0,0,0,0,0,0,0,0,0,0,0,0,0,0,0,0,0,0,0,0,0,0,0,0,0,0,0,0,0,0,0,0,0,0,0,0,0,0,0,0,0,0,0,0,0,0,0,0,0,0,0,0,0,0,0,0,0,0,0,0,0,0,0,0,0,0,0,0,0,0,0
2505600,0.0094356491632592,0.00016748194739487,5.582731579829e-05,5.582731579829e-05,5.582731579829e-05,-5.0300973087085e-05,5.0861244180798e-05,2.9640018403582e-08,5.4503285747205e-07,9.1465822095181e-08,7.3617253182611e-07,-4.9768658666525e-05,4.9909704792835e-05,-4.9715064492416e-05,4.9940842282703e-05,-4.976262828925e-05,5.0051621997774e-05,-4.9388754984214e-05,5.0300610383047e-05,-5.1062780063812e-05,5.09334632818e-05,-5.0285128302535e-05,5.1772584932317e-05,2.4590075988713e-07,-3.8704827293877e-07,3.9301098205122e-08,5.6967686801388e-08,-5.0640536218458e-05,5.0588597169222e-05,-4.988454325323e-05,5.0078680002388e-05,-4.9796286499655e-05,4.997456559738e-05,-4.9899521890484e-05,4.9634045386129e-05,-4.999727202351e-05,4.961032741672e-05,-5.0929708204815e-05,5.0749456077304e-05,-5.1053958034133e-05,5.1009238313245e-05,-5.1153134981729e-05,5.1532109896335e-05,-5.1615448231666e-05,5.0613178962443e-05,1.3958740464709e-06,8.6859414409649e-07,-4.8162983748482e-05,5.0431472221606e-05,1.1814316271691e-06,1.1515503507843e-06,-4.7577267949455e-05,5.0005830089507e-05,-4.7402034305456e-05,4.9973437214272e-05,-4.7623409095633e-05,4.9743397925939e-05,-4.7751708431969e-05,4.9692737946367e-05,-4.9405365270426e-05,5.0822415145177e-05,-4.8618223150023e-05,5.1551189474445e-05,0.00031986670077979,0.00047266495511682,0.80608352446071,1473840,32975,0.00021073233026357,0.00021087170773442,0.00020538395198297,29.888666869794,0.00015430933495835,0.00015430933495835,0.00015430933495835,333323.02095534,0.00062718490592967
2592000,0.020796205627478,0.00036876690028828,0.00012312960079387,0.00012315164695487,0.00012248565253953,-7.0585670883028e-05,7.0243557498944e-05,-5.5363476115288e-07,1.9246569552491e-07,-4.1522703971233e-07,1.595307582861e-07,-7.0385015327125e-05,6.9607035874417e-05,-7.0174424787385e-05,6.9803688302399e-05,-7.0255625589786e-05,6.977394901528e-05,-6.9958203488372e-05,7.0056839706823e-05,-7.0959803723731e-05,6.9906320355768e-05,-7.0114243135634e-05,7.0755123571253e-05,2.1950180033195e-07,-3.5698620512994e-07,-4.1770988562097e-08,3.8798416598654e-09,-7.0464908574335e-05,7.0376160554365e-05,-6.9978952789662e-05,7.0064680769317e-05,-6.9937996287178e-05,7.0069462798944e-05,-7.0119426183225e-05,6.9840131512134e-05,-7.0140758460028e-05,6.9843207943462e-05,-7.0517976618066e-05,7.0244325850208e-05,-7.0514042484213e-05,7.0361749773569e-05,-7.0828988351438e-05,7.1262401830081e-05,-7.1368175993909e-05,7.054144575632e-05,8.3701719239673e-07,8.4805844463955e-08,-6.7685299474136e-05,6.8600353540035e-05,4.8849496378297e-07,4.4341023564599e-07,-6.7356013994649e-05,6.8513028195551e-05,-6.7317589682535e-05,6.8497947968069e-05,-6.7590443538624e-05,6.827212750838e-05,-6.7620790525959e-05,6.8230523286892e-05,-6.9132124867145e-05,6.919345684026e-05,-6.8248516413364e-05,6.9981034131514e-05,0.00025600779036101,0.00042301597161693,0.80782101391449,1473840,32975,0.00029335113490028,0.0002933757946399,0.00028388814353323,31.68382944028,0.00016867063552224,0.00016867063552224,0.00016867063552224,255860.84012917,0.00087099433092349
2678400,0.033275637940789,0.00059046550889686,0.00019749282719488,0.00019751584345063,0.00019545683825135,-8.9912759527433e-05,8.9945999388782e-05,-4.860702836843e-07,5.077950598115e-07,-3.5798517783179e-07,4.4335183353762e-07,-8.9802517042179e-05,8.9246666560035e-05,-8.9500646949133e-05,8.9540834499682e-05,-8.9579097524952e-05,8.949348262156e-05,-8.9217948613165e-05,8.9850021280377e-05,-9.0200892386118e-05,8.9417441331573e-05,-8.9153486596275e-05,9.0470144819349e-05,5.3032028300637e-08,-7.5114618304335e-07,-2.7813815213195e-07,-3.6232187131818e-07,-9.0270429022351e-05,8.9600569818674e-05,-8.9735329606692e-05,8.9359675163734e-05,-8.9742160477478e-05,8.9321678920234e-05,-8.9962009040275e-05,8.9065881234793e-05,-9.0015015803522e-05,8.902763930214e-05,-9.0185692561786e-05,8.9362904144028e-05,-9.0308431698102e-05,8.9325255252302e-05,-9.0636608663906e-05,9.0696261598314e-05,-9.1418884251497e-05,8.9812432459015e-05,8.6439033218854e-07,-1.3374008610397e-07,-8.6341933543194e-05,8.706584498998e-05,3.2654795202403e-07,4.1070714003698e-07,-8.6090403560187e-05,8.7105601945204e-05,-8.6026055687954e-05,8.713212648357e-05,-8.6408632484441e-05,8.6771649229628e-05,-8.6394691622556e-05,8.6783573622751e-05,-8.8210838000898e-05,8.7918253098167e-05,-8.7136857845299e-05,8.8934634774127e-05,0.00019338924219,0.00036651266834202,0.80925311533812,1473840,32975,0.00037463547728378,0.00037466096544864,0.00036120100562684,32.491718800917,0.00017513375040734,0.00017513375040734,0.00017513375040734,298934.71327343,0.0011111144993305
2764800,0.046385364273594,0.00082366230288374,0.00027589500289941,0.00027591798067312,0.00027184931931121,-0.00010940821453004,0.00010962237324765,-5.2767054917751e-07,7.3253067372671e-07,-3.3756105920351e-07,5.9888247355281e-07,-0.00010935624960653,0.00010884867401683,-0.00010896283219002,0.0001092345716634,-0.00010908845649419,0.0001091428425755,-0.00010864182709439,0.00010958430015784,-0.00010965793757524,0.00010885484719265,-0.0001083658633559,0.00011015889722634,3.2336036426657e-07,-6.1334924077213e-07,-5.5878854257219e-08,-1.7642879962481e-07,-0.00010965212365337,0.00010939059252845,-0.00010908227000191,0.00010917231098446,-0.00010910100204963,0.00010911944948684,-0.00010935413181966,0.00010883184061538,-0.00010941691719597,0.0001087831045542,-0.0001094394375691,0.00010901093916104,-0.00010959297975867,0.00010893612765943,-0.00011011469826355,0.00011069520193333,-0.00011102297690772,0.00010970078932858,9.4743577614797e-07,-3.1762122421603e-07,-0.00010486127681081,0.00010548615254636,2.598273727017e-07,3.794570240141e-07,-0.00010465252822674,0.00010564890487463,-0.00010457527462628,0.00010568360191699,-0.000105058401753,0.00010522099431075,-0.00010503127408658,0.00010524419537184,-0.00010724873287055,0.00010661248430072,-0.00010592612366365,0.00010788545985384,0.00013068542908407,0.00030613103501237,0.81051069893744,1473840,32975,0.00045620951751785,0.00045623477008383,0.00043812792499235,32.830291226063,0.0001778423298085,0.0001778423298085,0.0001778423298085,349781.94170009,0.0013514849588503
2851200,0.059634121662574,0.0010595731265272,0.0003553791387874,0.00035540182048007,0.0003487921672597,-0.00012840373465224,0.00012865423211532,-6.2663046166868e-07,8.691288885838e-07,-3.9072969485991e-07,6.8801544490281e-07,-0.00012841917295674,0.00012782113312988,-0.00012794730292798,0.00012828665221081,-0.00012810416409855,0.00012816354754418,-0.00012757966069374,0.0001286838388135,-0.00012857787697527,0.00012763206395901,-0.00012705952331658,0.00012916725424614,3.8577409479055e-07,-6.932453124859e-07,-1.1055884908838e-07,-1.3928404614578e-07,-0.00012867428780885,0.00012839563846509,-0.00012810069811465,0.00012818990403936,-0.00012808792760703,0.00012816833699633,-0.00012842020829286,0.00012780263210069,-0.00012845194317508,0.00012778491347248,-0.00012836727917779,0.00012778278104913,-0.0001284309446386,0.00012779772154632,-0.00012921354815766,0.00012994695859572,-0.0001302626389827,0.00012881775121455,9.5214820904208e-07,-5.4811244008939e-07,-0.00012274610132866,0.00012314655540474,1.9390096026998e-07,2.2143811268594e-07,-0.00012256596986302,0.00012344717422638,-0.00012251880063384,0.00012345110965108,-0.00012304922948057,0.00012294051854551,-0.00012305260787449,0.00012293294616191,-0.00012568796746244,0.00012456635865866,-0.00012414025272801,0.00012607065006348,7.0697952977937e-05,0.00024480949384718,0.81162279945978,1473840,32975,0.00053539389864995,0.00053541879609103,0.00051214540146954,32.734776020277,0.00017707820816221,0.00017707820816221,0.00017707820816221,398929.16810461,0.0015842120626806
2937600,0.072981653604466,0.0012974580612949,0.00043568894408872,0.00043571136409375,0.00042605775311239,-0.00014765395173885,0.00014773432218865,-8.5990963141903e-07,9.3326546469927e-07,-2.718450743012e-07,3.9537918238722e-07,-0.00014765490794608,0.00014692408795245,-0.00014708302942583,0.00014748931413726,-0.00014747368022508,0.00014712938463648,-0.00014685049685149,0.00014774843822928,-0.00014784778676895,0.00014630613477459,-0.00014603923221547,0.000148131885925,2.3925841458073e-07,-4.2852283689065e-07,-1.1842933801417e-07,-1.7357809812231e-08,-0.00014778185810781,0.00014761827174039,-0.00014730032882112,0.00014732475178867,-0.00014724510748451,0.00014734687543379,-0.00014748580141808,0.00014707572625044,-0.00014747469402014,0.00014710139430035,-0.00014727809870922,0.0001468176297166,-0.00014721517213901,0.00014695951009967,-0.00014867892452854,0.00014916963356548,-0.00014932807184779,0.00014844863913243,1.0776637766085e-06,-7.1994641486433e-07,-0.00014055572956567,0.00014090978322593,2.349568654306e-07,1.3332716798221e-07,-0.00014037292842573,0.00014135009701592,-0.00014036907918589,0.00014131126806215,-0.00014095479628971,0.00014074368625918,-0.00014100145332358,0.00014069353693913,-0.00014413701106188,0.00014263529295734,-0.00014230105927178,0.00014443223712108,1.4400672490045e-05,0.000182847936624,0.81262232296398,1473840,32975,0.00061520270171704,0.00061522737940077,0.00058621496364367,32.612460837404,0.00017609968669923,0.00017609968669923,0.00017609968669923,449591.67304524,0.0018182967214769
3024000,0.086414457112912,0.0015367763064107,0.00051663701414505,0.00051665919863563,0.00050348009362999,-0.0001669058445894,0.00016712051308304,-9.589472637013e-07,1.1673283319719e-06,-3.1759845184911e-07,5.7597820699535e-07,-0.00016701729663739,0.00016623475517263,-0.0001663339191343,0.00016691131805073,-0.00016676271760118,0.00016651551914271,-0.00016602864283728,0.00016724544813182,-0.00016698588988491,0.00016532884379178,-0.00016485146670062,0.00016747961119122,4.4639712639558e-07,-4.4638534229218e-07,-5.3739376550343e-08,1.1114744143336e-07,-0.00016700514583538,0.00016703281306363,-0.00016651502524672,0.00016678344862917,-0.00016643890466141,0.0001668274206302,-0.00016677507582152,0.00016646000945102,-0.00016674325118178,0.00016650699558544,-0.00016632944644708,0.00016592494294438,-0.00016620551364548,0.00016612914334187,-0.00016795955760215,0.00016888377380607,-0.00016883068814476,0.00016794127959129,1.2339851926233e-06,-8.966923664277e-07,-0.00015837241219676,0.00015870575548353,2.5606670783946e-07,9.1075175605718e-08,-0.00015819732690622,0.00015928586813069,-0.00015821335935525,0.00015922475850437,-0.00015888940703013,0.00015856764010879,-0.00015895647879765,0.00015849577891205,-0.00016262621160459,0.00016075768156127,-0.0001604660100298,0.00016288080753511,5.3865742730135e-05,0.00012056282853489,0.81259733946163,1473840,32975,0.00069564587624249,0.0006956700189099,0.00066036195023994,32.487650032131,0.00017510120025705,0.00017510120025705,0.00017510120025705,497944.90822657,0.002053784727023
3110400,0.0999214668836,0.0017769507830393,0.00059803175819458,0.00059805373690551,0.00058086528793916,-0.00018633582381699,0.00018655491499585,-1.0394500690171e-06,1.2524863155594e-06,-2.6603342754217e-07,5.270812474763e-07,-0.0001865011161206,0.00018570136232059,-0.00018576156239828,0.0001864329960362,-0.00018627738689562,0.00018594798543981,-0.00018548856634679,0.00018673275389139,-0.00018621720989496,0.00018436562278708,-0.00018391470322974,0.00018667944286732,3.4392207903816e-07,-4.4908865702393e-07,-1.1060242730053e-07,6.0311607541772e-08,-0.00018649076716557,0.00018641181976253,-0.00018605835763871,0.00018618591624811,-0.00018598240712072,0.00018623267863131,-0.00018628779201279,0.00018589784375557,-0.00018625391243921,0.00018594597622264,-0.00018550165309275,0.00018501913180405,-0.000185371050452,0.00018522792358097,-0.00018765364947108,0.00018837745294188,-0.00018842846047324,0.00018752877559652,1.4182471545204e-06,-8.7800601396887e-07,-0.0001760596659766,0.00017659413843603,3.5853777660925e-07,1.8857350319151e-07,-0.00017594332884802,0.00017728890892171,-0.00017596234147184,0.00017722740802595,-0.00017668989935386,0.0001765154726394,-0.00017675981851517,0.00017644297567184,-0.0001809068339374,0.00017907482865259,-0.00017858159464257,0.00018136323724815,0.00011508095354317,5.8845094153857e-05,0.8112797191105,1473840,32975,0.00077655364913729,0.00077657830229056,0.00073442643779396,32.362591763562,0.00017410073410849,0.00017410073410849,0.00017410073410849,541992.38143734,0.0022901777745984
3196800,0.11349184745553,0.0020177239749296,0.00067979319111642,0.00067981504836656,0.00065811573544664,-0.00020590306890478,0.00020604490025137,-1.1815089003702e-06,1.3172413183964e-06,-3.1788601193223e-07,5.0166200950678e-07,-0.00020617358439742,0.00020521994397929,-0.00020536510879577,0.00020602131510995,-0.00020594346312458,0.00020547559421313,-0.0002050857788327,0.00020632905333811,-0.00020551662669243,0.00020339599057832,-0.00020301485553595,0.00020591180224448,5.668499222015e-07,-2.5129326557651e-07,9.909050635099e-08,2.757222500621e-07,-0.00020580812662283,0.00020615124943366,-0.00020544185846276,0.00020599558056749,-0.00020536245928896,0.00020604419265027,-0.00020567839409399,0.00020569885694384,-0.00020564262359906,0.00020574900725966,-0.00020446188144196,0.00020439032915095,-0.00020432701069943,0.00020460354048171,-0.00020709838805937,0.00020827190171843,-0.00020790039818712,0.00020739973033211,1.4535122055641e-06,-1.0495262780532e-06,-0.00019387316709799,0.0001942724307325,2.9446944395568e-07,1.1802972627723e-07,-0.00019382314186589,0.00019510533519692,-0.00019384241644621,0.00019503946265396,-0.00019463860796856,0.00019426235091723,-0.00019470914864079,0.00019418633572315,-0.00019934689231575,0.00019717565053982,-0.00019682134913593,0.00019966467043973,0.00017705886847673,1.8820908192291e-05,0.80976511813992,1473840,32975,0.00085785628584994,0.00085788001642623,0.00080831098445107,32.237508454373,0.00017310006763498,0.00017310006763498,0.00017310006763498,582570.89478122,0.0025272364775875
3283200,0.12711477593059,0.0022579515463796,0.00076154239583659,0.00076156410566949,0.00073484504487348,-0.000225419091162,0.00022559224646404,-1.2490649001487e-06,1.4134343410878e-06,-3.7422955475429e-07,6.0149282628554e-07,-0.00022585215543723,0.0002248236010646,-0.00022499619108125,0.00022567479706707,-0.00022557845391585,0.00022512702958313,-0.00022465984078289,0.00022604348789916,-0.00022467311701362,0.00022244397025972,-0.00022198371067984,0.00022514461583924,7.6446976218689e-07,-2.0826570833686e-07,1.8736576043882e-07,4.4093870921e-07,-0.00022521574602983,0.00022580582163126,-0.0002249511388114,0.00022576955455823,-0.00022484024971776,0.00022585105364103,-0.00022523505252099,0.00022542753743698,-0.00022517651522335,0.00022549947735941,-0.00022348129058375,0.00022354856308604,-0.00022328498792651,0.00022383369201002,-0.00022650325165011,0.00022811502565271,-0.00022746840100699,0.00022705117216277,1.3586900125258e-06,-1.3082973094366e-06,-0.00021165411360259,0.00021169975027947,1.5703605856401e-07,-9.7617662193795e-08,-0.00021171941126933,0.00021272497276892,-0.00021176169669206,0.00021263515632829,-0.00021258928508838,0.00021183435751658,-0.00021268657236405,0.00021172904069259,-0.0002176941839668,0.00021496758574296,-0.00021498500471729,0.00021762796130826,0.00023902959896191,7.2414990101831e-05,0.80501652523233,1473840,32975,0.00093916508292483,0.000939186360633,0.00088160001029162,32.11242438376,0.00017209939507008,0.00017209939507008,0.00017209939507008,614563.85804558,0.0027637648424223
3369600,0.14077934609257,0.0024978430563911,0.00084336938831495,0.00084339096146177,0.00081108270661438,-0.00024496106891686,0.00024514658181048,-1.2277849761497e-06,1.4060593103419e-06,-3.8311295116887e-07,6.1216547600873e-07,-0.00024556000084909,0.00024454691738602,-0.0002447053500822,0.0002453899494461,-0.0002452700318379,0.0002448587760549,-0.00024436569192123,0.00024575834628349,-0.00024361022069844,0.00024145010934853,-0.00024096549581966,0.00024410429421469,4.9836000332983e-07,-4.9718741535681e-07,-1.874289138329e-07,2.4810955817243e-07,-0.00024504496160831,0.00024507426483299,-0.0002449657466765,0.00024517864603248,-0.00024480383494438,0.0002453160119865,-0.00024526102609088,0.00024482690873224,-0.00024514305339334,0.00024496136006425,-0.00024284291320384,0.00024215140310038,-0.00024245686456361,0.00024261380766145,-0.00024633821921839,0.0002474629126498,-0.0002473183444787,0.00024640370618071,1.6839903312275e-06,-9.5466220008071e-07,-0.00022880827263517,0.00022952952087067,5.8226978907335e-07,1.5011778961981e-07,-0.00022900826391492,0.00023073958735353,-0.00022911421901807,0.00023059230032702,-0.0002298691980827,0.00022985428887812,-0.00023002618272136,0.00022969342032536,-0.00023536796088223,0.00023329599728937,-0.00023270225442515,0.00023592292913416,0.00030103530120941,0.00013465677889726,0.80170265658114,1473840,32975,0.0010205358211825,0.0010205598982315,0.00095441685091322,31.987338940171,0.00017109871152137,0.00017109871152137,0.00017109871152137,644466.3319809,0.0030000048910211
3456000,0.15447450261831,0.0027371391654451,0.00092518677227452,0.00092520826810538,0.00088674412506517,-0.00026489119574025,0.00026431316120302,-1.7376176203119e-06,1.1464749048508e-06,-7.9814085646076e-07,2.67315553747e-07,-0.00026574257696807,0.0002638613707041,-0.00026480606307288,0.00026479041683804,-0.00026542910647047,0.00026419649377726,-0.00026444278629036,0.00026518090170267,-0.00026301459792069,0.00025986299460015,-0.00026012864454367,0.00026276667200858,5.0303002758138e-07,-5.6767164068115e-07,-1.9222918711889e-07,1.8683276819901e-07,-0.00026462598859586,0.0002645894160632,-0.00026472916524808,0.00026491565180039,-0.00026458343478081,0.00026503532056119,-0.0002650456120544,0.00026454058076018,-0.000264943698755,0.0002646562088958,-0.00026177336187172,0.00026104636855188,-0.00026144144463839,0.00026145319062791,-0.00026590627227052,0.00026701987498538,-0.00026695749189183,0.00026588434971137,1.6310853923765e-06,-1.2576566568253e-06,-0.00024631551771921,0.00024668380206706,3.7920819454849e-07,1.53705596751e-09,-0.00024668632690002,0.00024813105191075,-0.00024677535649584,0.0002480026085509,-0.00024763364685774,0.00024716622058689,-0.00024777259087142,0.00024702326367201,-0.00025347084006131,0.00025081652458387,-0.0002505527739903,0.00025368054087774,0.00036294341319558,0.00019744357189829,0.79821827570952,1473840,32975,0.0011019007425592,0.0011019237157347,0.0010265575279889,31.862253132784,0.00017009802506227,0.00017009802506227,0.00017009802506227,674805.658007,0.0032356066182056
3542400,0.16832780039495,0.0029779791774623,0.0010077196043604,0.0010077411249108,0.00096251844819105,-0.00028458803652161,0.00028455615665476,-1.5213825402366e-06,1.4783733448471e-06,-5.8251440366794e-07,5.9648187936547e-07,-0.00028572517568349,0.00028431270892908,-0.00028474861359816,0.00028527965472969,-0.00028537498209442,0.0002846859174533,-0.00028434894289049,0.00028570848292318,-0.00028201796684401,0.00027933588774715,-0.00027901389903902,0.00028234963355354,5.4543102009172e-07,-6.3567510014628e-07,-2.4602261446079e-07,2.1569497465982e-07,-0.00028460861596912,0.00028454728818196,-0.00028495125966528,0.0002851252296904,-0.00028478075065022,0.00028527191548373,-0.00028530773403343,0.00028471477650618,-0.00028518006797082,0.00028485688190048,-0.00028107800592296,0.00028021054849146,-0.00028066779660272,0.00028069800964421,-0.000285812042014,0.00028703803823437,-0.00028697237093516,0.00028579043527244,1.8655131415573e-06,-1.1379602311908e-06,-0.00026371974258858,0.00026443924548819,5.9375580622455e-07,1.3607681877317e-07,-0.00026428187052571,0.00026614129526686,-0.00026439774608308,0.00026598729975915,-0.00026526536175869,0.0002651365883673,-0.00026543101559543,0.00026496772756498,-0.00027141942955161,0.00026898058287066,-0.00026838992174115,0.00027195813553037,0.00042648962567617,0.00026103163616996,0.79462179781514,1473840,32975,0.0011850134615614,0.0011850378117855,0.0010997297953375,31.866077874117,0.00017012862299293,0.00017012862299293,0.00017012862299293,712528.19735173,0.0034758090539982
3628800,0.18247131603487,0.0032227656893271,0.0010917693162957,0.0010917909290983,0.001039205443933,-0.00030510536358418,0.00030522571866347,-1.5050051312963e-06,1.6158323410475e-06,-5.0948078121082e-07,6.7483552544643e-07,-0.00030656515221339,0.00030526151222579,-0.00030554989101492,0.00030627020600164,-0.000306212294259,0.00030563739841746,-0.00030514761820977,0.00030670167446637,-0.00030175227436897,0.00029910676974041,-0.00029863039213302,0.00030224317760903,5.3864099262867e-07,-6.4669373031862e-07,-3.1253406924764e-07,2.6546776810331e-07,-0.00030521063303053,0.00030513188846662,-0.00030587316126216,0.00030599235578726,-0.00030566317504243,0.00030617881447965,-0.00030623313155361,0.0003055807516234,-0.00030606530258902,0.00030576137383179,-0.0003008991779087,0.00029989971296648,-0.00030037457016525,0.00030050103940856,-0.00030635964754374,0.00030760938011873,-0.0003075238147992,0.00030635826788413,1.7675681570897e-06,-1.3576002437292e-06,-0.00028189931939,0.00028230303400521,4.9465355781998e-07,-8.0432481656632e-08,-0.00028266094693286,0.00028428506415934,-0.00028281600483314,0.00028409213538556,-0.00028368408425329,0.00028323964508466,-0.00028388937222763,0.0002830314489984,-0.00029018458019485,0.00028726881164053,-0.00028703740442505,0.00029037007795343,0.00049250282131965,0.0003261264244961,0.79172612541979,1473840,32975,0.0012707139701451,0.0012707377515082,0.0011747357532274,32.003029354795,0.00017122423483836,0.00017122423483836,0.00017122423483836,761027.98433693,0.0037231023683695
3715200,0.1969031245667,0.0034719876204695,0.0011775098111621,0.001177531510526,0.0011169462987815,-0.00032609192727731,0.00032627867829234,-1.6552388191301e-06,1.8323699365803e-06,-5.5026630074959e-07,7.8313704692691e-07,-0.00032798342432067,0.0003265746176644,-0.00032684601833697,0.00032770513778754,-0.00032758138448195,0.00032699980808342,-0.00032639433071574,0.00032818574116174,-0.00032196962117884,0.00031908224404986,-0.00031849182940119,0.0003225781428682,6.0824559127859e-07,-7.2586467576701e-07,-3.1779131851448e-07,2.6003401015396e-07,-0.0003262357267495,0.00032614720484453,-0.00032722078132707,0.00032737857992257,-0.00032700870177078,0.00032756563743441,-0.00032762812271026,0.00032691564524465,-0.0003274601411839,0.00032709763179661,-0.00032102742685249,0.00031996623887724,-0.00032050404486724,0.00032056802103212,-0.00032727595548651,0.00032866279095638,-0.0003285828912824,0.00032726597957645,1.8524386465925e-06,-1.6393852529826e-06,-0.00030026249140209,0.00030047056835893,3.9743863549023e-07,-1.7869096189679e-07,-0.00030121813070702,0.00030277081878927,-0.00030137349950536,0.00030257645659577,-0.00030236311921888,0.00030160234219512,-0.00030256959513439,0.00030139351515363,-0.00030928674643691,0.00030581490543658,-0.00030578195671467,0.00030927393532415,0.00056016804148319,0.00039286025528207,0.79075888111957,1473840,32975,0.0013581810045216,0.0013582066234787,0.0012507503023256,32.148097006933,0.00017238477605546,0.00017238477605546,0.00017238477605546,815195.87143869,0.0039750187388298
3801600,0.21161393593226,0.00372553987043,0.0012649179244792,0.0012649399276365,0.0011956820183143,-0.00034742862717425,0.00034781946158432,-1.5903137237639e-06,1.9740173805772e-06,-5.0474635570917e-07,9.4199536679788e-07,-0.00034973438225429,0.00034846147523926,-0.00034857140408174,0.00034961738405535,-0.00034929126504805,0.0003489273450358,-0.00034807737589549,0.00035013775057978,-0.00034233046448236,0.00033961767434661,-0.0003387786916467,0.00034318350702356,1.6146476644681e-07,-1.2910114651514e-06,-8.1415539173728e-07,-2.644522156528e-07,-0.00034818128996534,0.00034707858539733,-0.00034952069570113,0.00034871771513602,-0.00034931608833363,0.00034889461356673,-0.00034996663326997,0.00034821228762498,-0.00034980790951423,0.00034838474754732,-0.00034198927764591,0.00033989377158783,-0.00034149268172107,0.00034047039104215,-0.00034913601202068,0.00034961095045935,-0.00035055651266303,0.00034810843509509,1.9558897148632e-06,-1.6130231541128e-06,-0.00031867768878145,0.00031901466526589,4.4751652153273e-07,-9.91021455697e-08,-0.0003199073277508,0.00032160397927317,-0.0003200554859556,0.00032142266575632,-0.00032107807548784,0.00032040884788214,-0.00032127704996923,0.00032021318960647,-0.00032833785248725,0.00032493345344495,-0.00032476640136677,0.00032847068494357,0.00062942351756579,0.00046117485676113,0.78997724636368,1473840,32975,0.0014473835529758,0.0014474080462039,0.0013276509931418,32.293917476898,0.00017355133981518,0.00017355133981518,0.00017355133981518,870987.50259325,0.0042313709871983
3888000,0.22659260217654,0.0039832854617248,0.0013539563999113,0.0013539783451947,0.0012753507166187,-0.0003692466833945,0.00036968001195895,-1.6615891475727e-06,2.0878898362302e-06,-5.2951689807147e-07,1.0096184334053e-06,-0.00037201312693318,0.00037069275289473,-0.00037078816433661,0.00037191028143816,-0.00037154342341135,0.00037118816909078,-0.00037026789174131,0.0003724604871604,-0.00036315766307071,0.00036033664788265,-0.00035942439142186,0.00036408355223206,5.9366774452846e-07,-9.4635877910273e-07,-4.663572673008e-07,1.7305118391554e-07,-0.00036963064734897,0.00036930757625061,-0.00037138813527124,0.00037136104631161,-0.00037115458299968,0.00037156799654526,-0.00037186201756386,0.00037082705310581,-0.0003716749697191,0.00037102926207213,-0.00036242751980056,0.00036100028722894,-0.0003618451673107,0.00036166509572787,-0.00037049756033046,0.0003718685180474,-0.00037200670322647,0.00037027740034204,2.0352597310605e-06,-1.7187357876517e-06,-0.00033737121494749,0.00033768165344655,4.7863982481768e-07,-1.5769036415262e-07,-0.00033886613049069,0.00034062812860449,-0.00033904083385709,0.00034041350232502,-0.00034009819698069,0.00033937088985515,-0.0003403247608495,0.00033914295774509,-0.00034778851252336,0.00034414696247174,-0.00034403545110826,0.00034786442534584,0.00070019945596345,0.00053101244036851,0.78934684973028,1473840,32975,0.0015382445264479,0.0015382684772655,0.0014053807112415,32.439812798073,0.00017471850238458,0.00017471850238458,0.00017471850238458,926560.02625307,0.0044919538019234
3974400,0.24182652749722,0.0042450545769694,0.0014445643031801,0.0014445863540311,0.0013559039197581,-0.00039155924592818,0.00039181998175486,-1.9154429824233e-06,2.1690477762944e-06,-4.280202813701e-07,7.3335504271066e-07,-0.00039477234819873,0.00039329400114397,-0.00039343576266868,0.00039462324320128,-0.00039442649083372,0.00039366294202708,-0.00039303967466237,0.00039504680267047,-0.00038455703456711,0.00038110898702295,-0.00038049556663535,0.00038518473218883,4.8802207389719e-07,-6.7443830253907e-07,-3.4562854195786e-07,2.1619866559347e-07,-0.00039177494741915,0.00039161588851077,-0.0003940355764055,0.00039407218627018,-0.0003938274858475,0.00039425321412672,-0.00039438549943379,0.00039366453683739,-0.00039422369950363,0.00039384075100354,-0.00038333160909889,0.00038227017942959,-0.00038282471403371,0.0003828582928297,-0.00039280696449601,0.00039394787119278,-0.00039394739016925,0.00039272793400657,2.2057097235819e-06,-1.8834488852714e-06,-0.00035623281591949,0.00035654907208033,4.4304672939398e-07,-1.1600260764821e-07,-0.00035801975957176,0.00035987355842267,-0.00035816887496163,0.00035968479621667,-0.00035936356238437,0.00035850473472825,-0.00035956449120801,0.00035830251933338,-0.00036750187479287,0.00036356309238979,-0.00036342014322268,0.00036760906617923,0.00077243568062419,0.00060230954642781,0.78884265774066,1473840,32975,0.0016307068941336,0.0016307310032542,0.001483871238038,32.585715743003,0.00017588572594402,0.00017588572594402,0.00017588572594402,981252.01124589,0.0047565874170493
4060800,0.25730179771904,0.0045106507484312,0.0015366721861655,0.001536694302151,0.0014372842601147,-0.000414189628415,0.00041438314291835,-2.0065873262992e-06,2.1926473419486e-06,-4.3000822618245e-07,6.6817024135374e-07,-0.00041790207578823,0.00041633912641374,-0.00041652702252366,0.00041770638524113,-0.00041757656081549,0.00041668692376846,-0.00041615139292568,0.00041810899530599,-0.00040604319491139,0.00040239451215082,-0.00040186913925406,0.0004065818728353,4.4154438096755e-07,-6.582222038093e-07,-3.6945960306026e-07,2.0891256404626e-07,-0.00041438712943464,0.00041419734935062,-0.00041715117555795,0.00041713088674913,-0.00041693788271931,0.00041731742024709,-0.00041748011830744,0.00041674415106122,-0.00041731321319352,0.00041692583283558,-0.00040473021694156,0.00040364209381767,-0.00040420715273656,0.00040424719612728,-0.00041541368762841,0.00041646736458907,-0.00041649229249688,0.00041530998029644,2.2788667050441e-06,-1.9251654668878e-06,-0.00037525212204953,0.00037559946164884,4.665514214187e-07,-1.0866049970254e-07,-0.00037737676315727,0.00037930513509693,-0.00037753153053765,0.00037911144547149,-0.00037875921919523,0.00037789836693145,-0.00037896578749238,0.00037769098434496,-0.000387329862024,0.0003833049460859,-0.0003831356759297,0.00038746277551117,0.00084606746125966,0.00067499670413074,0.78844686192836,1473840,32975,0.0017247017487805,0.0017247260599328,0.0015630645337277,32.731619516075,0.0001770529561286,0.0001770529561286,0.0001770529561286,1034639.1495619,0.005025077501949
4147200,0.27300322618418,0.0047798537874041,0.0016302004886427,0.0016302226761826,0.0015194306225787,-0.00043712847555031,0.00043734211443586,-2.1856160158878e-06,2.3916592093477e-06,-4.3871713383635e-07,6.9742974931922e-07,-0.00044143661874328,0.00043975524180194,-0.00043993569533862,0.00044124847785874,-0.00044109875246933,0.00044011566648701,-0.00043954763522391,0.00044166381139792,-0.00042788094703516,0.00042389428365757,-0.00042333666072801,0.00042845230010998,4.5876709217289e-07,-6.7891617779984e-07,-3.9094945212657e-07,2.2731064327017e-07,-0.00043733766833122,0.00043714465024339,-0.00044062873456649,0.00044060443729373,-0.0004404021167332,0.0004408043248576,-0.0004409699286912,0.0004402048843758,-0.00044078983626873,0.00044039991063671,-0.0004264264371331,0.00042528354638299,-0.00042586448510203,0.00042592794316289,-0.00043830797863656,0.00043940886277268,-0.00043942333716129,0.00043821337268324,2.4488855619776e-06,-2.1333077229575e-06,-0.00039445969331175,0.00039476903044732,4.6731473334019e-07,-1.4764757696478e-07,-0.00039689308653836,0.00039892287031509,-0.00039706104625036,0.00039871599019132,-0.00039840155663473,0.00039739010468703,-0.00039862146419304,0.00039716949051978,-0.00040753211466699,0.00040308536940453,-0.00040296725471497,0.00040761336147086,0.00092102132498348,0.00074899823806437,0.78814694664238,1473840,32975,0.0018201522632101,0.0018201766089015,0.0016428913554588,32.877523421252,0.00017822018737002,0.00017822018737002,0.00017822018737002,1086626.8524272,0.0052972028212009
4233600,0.28891438174662,0.0050524208980542,0.0017250628755372,0.0017250851202472,0.0016022729022698,-0.00046041605386094,0.00046061505460746,-2.3917234726463e-06,2.5830994663516e-06,-4.3053907598706e-07,6.7455169256915e-07,-0.00046534573667346,0.00046352755790253,-0.00046371248476494,0.00046515344570086,-0.00046501811504591,0.00046387764101759,-0.00046333456538007,0.00046555832126494,-0.00045002286720169,0.00044562194799743,-0.00044508938958747,0.00045056939745248,4.4842026112682e-07,-6.5828534798478e-07,-3.1918844561939e-07,1.6562015317996e-07,-0.00046061289786247,0.00046042997270137,-0.00046444776838688,0.0004644674000675,-0.00046426486279654,0.00046462265870196,-0.00046477865201961,0.0004640780815939,-0.00046464231525613,0.0004642285363735,-0.0004482860737517,0.00044729424994542,-0.00044785421785835,0.00044780745780316,-0.00046159500968827,0.00046263115118599,-0.00046267998847482,0.00046146626555065,2.658932629129e-06,-2.3209887450826e-06,-0.00041377275674978,0.00041410465977541,4.1254777311539e-07,-6.9547942531551e-08,-0.00041655499845826,0.00041869555244346,-0.00041667880360121,0.00041853300857621,-0.00041819611175875,0.00041703031238331,-0.00041837188673277,0.00041685396607838,-0.00042787550387607,0.00042310607389206,-0.00042292133879701,0.00042802353881908,0.00099721551700425,0.00082423201401374,0.78793422229697,1473840,32975,0.0019169715589463,0.0019169959633945,0.0017232769382163,33.023427385204,0.00017938741908163,0.00017938741908163,0.00017938741908163,1137130.1573081,0.0055727165743338
4320000,0.30510526154703,0.0053295679263948,0.0018216821406988,0.0018217044389872,0.0016861813467087,-0.00048428745106396,0.00048447406915618,-2.4908279598617e-06,2.6696510675281e-06,-4.1684140776965e-07,6.4853403038517e-07,-0.00048983409676714,0.00048795489119613,-0.0004881390322582,0.00048964259982773,-0.00048951953629883,0.00048829162807662,-0.00048777409847326,0.00049003425297838,-0.00047257743486664,0.00046796863244365,-0.00046746208881602,0.00047309805341498,4.3689249117209e-07,-6.3012034936333e-07,-3.1904284686998e-07,1.8192430191826e-07,-0.00048446990424039,0.00048430340302168,-0.00048890661729036,0.00048892408344682,-0.00048871838656392,0.00048908475808706,-0.00048922434753603,0.00048854792895175,-0.00048908274129576,0.00048870376053195,-0.00047072978067722,0.00046975173848105,-0.00047028206114445,0.00047028097848352,-0.00048545339690775,0.00048647239338309,-0.00048649912312165,0.00048534623244549,2.7475988088697e-06,-2.4181269393753e-06,-0.00043346492310842,0.00043378837942157,4.1633818275674e-07,-8.1841903530055e-08,-0.00043661889491878,0.00043881829826155,-0.00043674810485321,0.0004386505271867,-0.00043832199611958,0.00043709124918944,-0.00043850323840869,0.00043690958008202,-0.00044858432211889,0.00044361911686496,-0.00044344788566891,0.00044871817203818,0.0010756737700507,0.00090110210349419,0.78775065773362,1473840,32975,0.0020162137446021,0.0020162381944593,0.0018051687421364,33.247040287414,0.00018117632229931,0.00018117632229931,0.00018117632229931,1186761.9346622,0.0058546950351673
4406400,0.32164144397025,0.0056123860077567,0.0019204438158193,0.0019204661609554,0.0017714760309819,-0.00050882119599135,0.00050901330937254,-2.6357085239294e-06,2.8200550077808e-06,-4.1475817019976e-07,6.519880335868e-07,-0.00051504839442623,0.00051307580482554,-0.00051325496449306,0.00051486191744101,-0.00051473339548918,0.00051341297845102,-0.00051288957798637,0.00051525402919852,-0.00049576144595698,0.00049086943661682,-0.00049035690719993,0.00049628812259406,4.3938812416561e-07,-6.2900056211821e-07,-3.2370717420597e-07,1.9014781296411e-07,-0.00050900462934665,0.00050884169532722,-0.00051407439823657,0.00051409160768174,-0.00051388190081306,0.00051425658178886,-0.00051439250988004,0.00051371488235206,-0.00051424669111231,0.00051387504639028,-0.00049377687185553,0.00049278920113763,-0.00049331657708051,0.00049333127000753,-0.0005099759100917,0.0005110041211374,-0.0005110229238342,0.00050987657229068,2.8899361405588e-06,-2.5712624817358e-06,-0.00045358533779308,0.00045389801158917,4.1733574488105e-07,-9.3697896336922e-08,-0.00045710923393615,0.0004594006576982,-0.00045724277461483,0.00045922869233279,-0.00045891083988711,0.00045757516463132,-0.00045909644158311,0.00045738926736068,-0.00046984269661962,0.00046457308877648,-0.00046441704454019,0.00046996156586405,0.0011567265583512,0.00097997228114659,0.78747028411891,1473840,32975,0.002118237079817,0.0021182615875031,0.0018888304888659,33.544637660829,0.00018355710128663,0.00018355710128663,0.00018355710128663,1236120.6812934,0.0061441298895948
4492800,0.33850850612512,0.0059006421013888,0.0020212739148465,0.0020212963046558,0.0018580718818865,-0.00053387551488723,0.00053406878375553,-2.7216465566866e-06,2.9070567698234e-06,-4.1799861227697e-07,6.5655991457827e-07,-0.00054080624625922,0.0005387745723244,-0.00053895519507755,0.00054061828404149,-0.00054048867457125,0.00053911432117358,-0.00053858722381277,0.00054101302312048,-0.00051932318048607,0.00051426546446166,-0.00051374926019606,0.00051985348281301,4.4224566901331e-07,-6.3399498102549e-07,-3.3223392151258e-07,1.96565425642e-07,-0.00053406059460276,0.00053389554889142,-0.00053980498246121,0.00053981773185122,-0.00053960756570134,0.00053998770164126,-0.00054012556241565,0.0005394382929221,-0.00053997486514288,0.00053960345318292,-0.00051726534202256,0.00051625826605103,-0.00051679043963308,0.00051681517210225,-0.00053502061889905,0.0005360592375428,-0.00053607505300968,0.00053492382793719,2.9733395770172e-06,-2.6609734283496e-06,-0.00047397814463042,0.00047428449793495,4.2157287982647e-07,-1.0434023241586e-07,-0.00047790846693048,0.00048025624681906,-0.00047804703289916,0.00048007943335586,-0.00047976785672095,0.00047837315048892,-0.00047995848792806,0.00047818234682598,-0.00049138180612751,0.00048593151362917,-0.00048578659424568,0.00049148930547112,0.0012397383365954,0.0010607654426919,0.78723095771247,1473840,32975,0.0022224051009879,0.0022224296550917,0.0019736277971765,33.846775257693,0.00018597420206154,0.00018597420206154,0.00018597420206154,1285030.7644491,0.0064391079108279
4579200,0.3556850406423,0.0061939838933987,0.0021240548313141,0.002124077262806,0.0019458517992786,-0.00055941330602397,0.00055960948112443,-2.8167291651113e-06,3.0049282490709e-06,-4.1991915529701e-07,6.6156623648277e-07,-0.0005670900497886,0.00056499468149167,-0.00056517481710587,0.00056690274908209,-0.00056677025370525,0.0005653367436499,-0.00056480449417616,0.00056729977908369,-0.00054329865165528,0.00053805694126911,-0.00053753574462162,0.00054383403808563,4.4511770007848e-07,-6.3807190225235e-07,-2.8798833020703e-07,1.511385538147e-07,-0.0005596004399201,0.00055943421325898,-0.00056604176661558,0.00056608535661439,-0.00056587376623934,0.0005662253362644,-0.00056636453819208,0.00056570351451562,-0.00056624329394849,0.00056583867600845,-0.00054110692897171,0.00054018416357877,-0.00054071932582351,0.00054065280360765,-0.00056057413022287,0.00056158848797724,-0.00056163511875405,0.00056044597389744,3.083129593138e-06,-2.7443255923528e-06,-0.00049459103206731,0.00049492391757598,3.9047119049042e-07,-4.6139180735964e-08,-0.00049895613543839,0.00050136493311802,-0.00049906504144581,0.00050121795960543,-0.00050087997220183,0.00049941757117801,-0.00050104095043663,0.00049925653383125,-0.00051320490785115,0.000507621738555,-0.00050742038018825,0.00051336843713425,0.0013245633493429,0.0011433650003729,0.78703238836331,1473840,32975,0.0023285755561345,0.0023286001466732,0.002059401952153,34.149336032191,0.00018839468825753,0.00018839468825753,0.00018839468825753,1333232.7730863,0.006739187722706
4665600,0.37314689331159,0.0064920150140896,0.0022286539587186,0.0022286764271392,0.0020346846282318,-0.00058522923578541,0.0005857455387617,-2.8228205937016e-06,3.3152021896904e-06,-3.4715873761339e-07,9.9433568877294e-07,-0.00059364904737319,0.00059168478148259,-0.00059165383444475,0.00059363476930874,-0.00059332783934785,0.00059209851936241,-0.00059117418703599,0.00059419584137205,-0.00056803038607787,0.00056272064038957,-0.00056178190199597,0.00056888298798845,8.3573192348339e-07,-5.0790187441038e-07,-3.7831372782251e-08,5.3783595998011e-07,-0.00058529150703527,0.00058570406235821,-0.00059238679756319,0.00059306124045342,-0.00059213349450341,0.00059323325681513,-0.00059272476374344,0.00059254011290115,-0.00059261900819779,0.00059269231472685,-0.00056553161663999,0.00056500103773469,-0.0005650390689037,0.00056563707340788,-0.00058608443973035,0.00058797091427569,-0.00058743905925199,0.00058643319705161,3.3149279858157e-06,-2.8334590283912e-06,-0.00051541284573618,0.00051587442011747,5.2182544127449e-07,-4.7044756825516e-08,-0.00052037841174608,0.00052303587351317,-0.00052047004264617,0.00052283650116026,-0.00052239339033494,0.00052099064868718,-0.00052260522968349,0.00052076529194884,-0.00053509693516767,0.00052921926712255,-0.0005288768616724,0.00053533261250871,0.0014111097454468,0.001227639807001,0.78687417681825,1473840,32975,0.0024365498152752,0.0024365929493806,0.0021462501656194,34.451939038022,0.00019081551230418,0.00019081551230418,0.00019081551230418,1372885.9426889,0.0070440903214192
4752000,0.39086770737402,0.0067943141830412,0.002334901833223,0.0023349263614597,0.0021244859883585,-0.00061178984123066,0.00061202463906594,-3.0981262950205e-06,3.3218202314897e-06,-3.8852048328727e-07,6.804429417402e-07,-0.00062108912501891,0.00061884123627374,-0.00061898037307089,0.00062093583443765,-0.00062078797936815,0.00061917522006475,-0.00061860956088273,0.0006213428009436,-0.00059249709038661,0.00058667377178938,-0.00058611711034803,0.00059305132695193,4.8493736770758e-07,-5.8587252910413e-07,-2.0704693891604e-07,1.8190540109438e-07,-0.00061194607291629,0.00061188135121451,-0.00061991342968695,0.00062006943267932,-0.00061975423495327,0.00062019229375681,-0.00062022040877183,0.0006196861085483,-0.0006201251388335,0.0006197994054249,-0.00058991932850639,0.00058916063033117,-0.00058958905483456,0.00058958256945441,-0.00061295294216012,0.00061404478943691,-0.00061401474112868,0.00061289019620347,3.4055278407808e-06,-3.0210639881344e-06,-0.00053640242991978,0.00053677899831749,3.8711984454654e-07,9.9830037309416e-10,-0.00054165000406118,0.00054428129067768,-0.00054173159273724,0.00054414972108385,-0.0005437717502023,0.00054213571762394,-0.00054391728157175,0.00054198797251582,-0.00055774646581087,0.00055162445472413,-0.00055135165105507,0.0005579669847573,0.0014991044574916,0.0013134505104494,0.78675592008538,1473840,32975,0.0025463572246461,0.0025463840332354,0.0022333454116185,34.754546472234,0.00019323637177787,0.00019323637177787,0.00019323637177787,1427307.2203529,0.0073529922854406
4838400,0.40881850465889,0.0071003829333104,0.0024426866504409,0.0024427109733355,0.002214985309534,-0.00063824445736227,0.00063912379047281,-2.8103896811731e-06,3.6788119103735e-06,-8.4505857497421e-08,1.0785069826722e-06,-0.00064829907906487,0.00064664228041741,-0.00064617509597771,0.00064870278989526,-0.0006480433271639,0.00064699605052558,-0.00064576073194129,0.00064920579029538,-0.00061762044955355,0.00061227431899107,-0.00061101883952603,0.0006188057364749,8.744583816733e-07,-2.8454892348786e-07,2.9231059054518e-07,4.9691431257876e-07,-0.0006383579892352,0.00063904071307838,-0.00064700123610762,0.00064798592101334,-0.00064687876874764,0.00064804744645884,-0.00064728637628413,0.00064755083021409,-0.00064729187747194,0.00064758875492855,-0.00061476005879199,0.00061497422073152,-0.00061461431443526,0.0006152267433214,-0.00063937279327618,0.00064118138438064,-0.00064057884358797,0.00063986812638717,3.6767148430323e-06,-2.8229375379938e-06,-0.00055733978345556,0.00055818161745913,5.3123768928442e-07,3.3149656546724e-07,-0.00056331890864511,0.00056635173886119,-0.00056328258769495,0.00056627209891428,-0.00056545065570789,0.00056418831508968,-0.00056553475481955,0.00056407441442779,-0.00057970810910995,0.00057395491375471,-0.00057315356063991,0.00058045383961377,0.0015885617866538,0.0014006320857777,0.78667726650933,1473840,32975,0.0026576357791785,0.0026576989566942,0.0023213598741036,35.057154290746,0.00019565723432597,0.00019565723432597,0.00019565723432597,1465562.56736,0.0076659332454463
4924800,0.42696871818394,0.0074097429069338,0.0025517924041065,0.0025518175346988,0.0023061329681285,-0.00066566226538643,0.00066598315939233,-3.2081337525074e-06,3.5182606582717e-06,-3.4335632342702e-07,7.2756846934017e-07,-0.00067668301411356,0.00067442130081049,-0.00067447427539673,0.00067660748757611,-0.00067639371396884,0.00067475361868354,-0.0006741008355473,0.00067702614965725,-0.00064273698072898,0.00063667941915507,-0.00063603233446487,0.00064337069121504,5.3430911043848e-07,-5.3662950540718e-07,-1.3450867513342e-07,2.2792887039811e-07,-0.00066580787673577,0.0006658508906858,-0.00067544204546354,0.00067571052502457,-0.00067528714796304,0.0006758259477677,-0.00067574155700124,0.00067532654080288,-0.0006756609130685,0.00067542812365978,-0.00063996226502561,0.00063935123203195,-0.00063966109752579,0.0006397464121227,-0.00066688849261533,0.00066807567314854,-0.00066796410042376,0.00066691009147709,3.5984536880138e-06,-3.135171090233e-06,-0.00057869191360006,0.00057914701727298,4.133991551909e-07,5.4086468879884e-08,-0.00058491522850814,0.00058771600755166,-0.00058497915884571,0.00058759133347436,-0.00058713793675688,0.00058546876820124,-0.00058727456599126,0.00058532513030031,-0.0006029232882489,0.00059657423545209,-0.00059621347119264,0.00060323058013738,0.0016791289662041,0.001489026295283,0.78663793657093,1473840,32975,0.002770405032571,0.0027704326529132,0.0024093215265611,35.359762303224,0.00019807809842579,0.00019807809842579,0.00019807809842579,1517641.2070977,0.0079818509260796
5011200,0.44528528901871,0.0077216626265904,0.0026620192679631,0.0026620434718278,0.0023975998867995,-0.00069300694480594,0.00069341884351895,-3.2147003342435e-06,3.585662276343e-06,-1.3973179927732e-07,6.9294927632233e-07,-0.00070476970222806,0.00070265377336841,-0.00070254681425601,0.00070482624907408,-0.00070460287379983,0.00070289876652233,-0.00070224253218897,0.0007051965268527,-0.00066870716867581,0.00066245230432058,-0.00066181842407298,0.00066924363269704,8.2550997557411e-07,-2.9909012947023e-09,3.4084312474991e-07,6.2347473162944e-07,-0.00069279056226749,0.00069368430265351,-0.00070324580829723,0.00070433674314592,-0.00070309788213847,0.00070438813702429,-0.00070340205011675,0.00070396695138755,-0.00070338227281532,0.00070403287181484,-0.00066531235331887,0.00066570120273642,-0.00066506107631997,0.00066606880914858,-0.00069399307336721,0.00069573483004141,-0.00069482878530106,0.00069473684819758,4.1072297549523e-06,-2.7066081270632e-06,-0.0005995138547213,0.00060090368598301,8.4883718838726e-07,5.7679591828565e-07,-0.00060650076083314,0.00061019494195645,-0.00060649340343135,0.00061010171372095,-0.00060874772065211,0.00060793469547545,-0.00060885261815047,0.00060781077442815,-0.00062489426863889,0.00061938881803915,-0.00061798546143871,0.00062612090987338,0.0017707594442505,0.0015783936773144,0.78623074929166,1473840,32975,0.0028842062544954,0.0028843081020574,0.0024978181373165,35.662369909183,0.00020049895927346,0.00020049895927346,0.00020049895927346,1553695.5487452,0.0083005988660293
5097600,0.46361835176162,0.0080323033017861,0.0027719783153731,0.0027720140695579,0.0024883109168551,-0.00072025760626005,0.0007205383838199,-3.4600467130842e-06,3.7254815383679e-06,-3.0166945979687e-07,6.5401395949836e-07,-0.00073318001180004,0.00073076615384254,-0.00073082014605207,0.00073309851890659,-0.00073293416255614,0.00073105813701609,-0.00073048320706746,0.00073348327879449,-0.0006934360332294,0.00068683163068869,-0.00068626764179957,0.00069397628661783,5.4643679047513e-07,-4.0817119760546e-07,-4.8197726458761e-08,2.8738356563751e-07,-0.00072031414893933,0.00072050057265248,-0.00073181353354539,0.00073219695514843,-0.00073166370815299,0.00073229913099516,-0.00073206558391948,0.00073184424346146,-0.00073199791493923,0.00073193526331803,-0.00069028088253022,0.00068987845758864,-0.00069000397869364,0.00069025192284631,-0.00072148488077394,0.00072269185091251,-0.00072244944320355,0.00072163170792722,3.9036311732842e-06,-3.2899124906507e-06,-0.00062064427255845,0.00062124980035403,4.7592784386609e-07,1.4480516677602e-07,-0.00062791112434774,0.00063100243872843,-0.00062796038681714,0.00063088775777658,-0.00063028851141285,0.00062860375502444,-0.0006304155914022,0.00062846866312046,-0.00064802403419128,0.00064137805380844,-0.00064084569389256,0.00064848322319878,0.0018611558922268,0.0016674832801497,0.78257455431162,1473840,32975,0.0029971428173623,0.0029971816112244,0.0025840186518273,35.864756249491,0.00020211804999593,0.00020211804999593,0.00020211804999593,1609134.6506078,0.008615249185456
5184000,0.48183460708512,0.0083407024464064,0.0028813569386695,0.0028813917290087,0.0025779537787282,-0.00074705125971938,0.00074738247632312,-3.4358590050983e-06,3.7517062991262e-06,-3.6417445859449e-07,7.671365605899e-07,-0.00076102654570805,0.00075860411613993,-0.00075866576604961,0.00076093768970012,-0.00076072281417166,0.0007589551050521,-0.00075827144607146,0.00076138056437022,-0.00071795700651947,0.00071146037135446,-0.00071078796061349,0.00071860665944853,6.0870764079961e-07,-5.2127294218428e-07,5.3310260881109e-08,1.3623243483328e-07,-0.00074715764986939,0.00074729422477547,-0.00075961044669144,0.00076008580528729,-0.00075954377418925,0.00076010363820953,-0.00075992027992686,0.00075967499547072,-0.00075993536125873,0.00075968143865733,-0.00071478606464514,0.00071452438373203,-0.0007147556696685,0.00071464785556212,-0.0007482572585905,0.00074950210294254,-0.00074939320858648,0.00074826861062102,3.9505576202852e-06,-3.2450556932065e-06,-0.00064094035529933,0.00064163779495641,3.9673260240897e-07,3.1724519127629e-07,-0.00064879424678469,0.00065189435062183,-0.00064876017975033,0.00065186322348786,-0.00065117250791541,0.00064949486163628,-0.00065121566812601,0.00064944363653464,-0.00066979661652781,0.00066332478406764,-0.00066261673892565,0.00067043087430525,0.0019501426473181,0.0017559488109487,0.78233431553622,1473840,32975,0.0031085450500521,0.0031085826080526,0.002668565527136,35.979142605733,0.00020303314084586,0.00020303314084586,0.00020303314084586,1656931.3393022,0.0089252956082021
5270400,0.49989950497146,0.0086492117039629,0.0029908789830406,0.002990912896246,0.0026674198246762,-0.00077398678407528,0.00077428494373663,-3.6450528483972e-06,3.9278927839711e-06,-3.4005425266347e-07,7.0874003354524e-07,-0.00078894243378963,0.00078638594351443,-0.00078645278136414,0.00078884831098603,-0.00078866492033143,0.00078670942104496,-0.00078608550229559,0.00078926305933059,-0.000742983452958,0.000736049284676,-0.00073543747022623,0.00074357259493372,5.6869028306006e-07,-4.7871445309643e-07,3.6303154971153e-08,1.5386321265638e-07,-0.00077407583027624,0.00077421376114491,-0.00078747736693661,0.0007879150492514,-0.00078739970791755,0.00078794464458556,-0.00078776064436695,0.00078753245311222,-0.00078776404920612,0.00078755036198416,-0.00073959633463751,0.00073932918688855,-0.00073953277221173,0.00073948661464021,-0.00077536273277547,0.00077654118876668,-0.00077641751740595,0.00077538868355923,4.1383631051766e-06,-3.4428416594294e-06,-0.00066117433431328,0.00066186159037115,4.0855108824178e-07,2.9454561863851e-07,-0.00066946068439015,0.00067269096400162,-0.00066943885081305,0.00067264867856809,-0.00067196747554714,0.00067016295690832,-0.00067202228378156,0.00067010061400751,-0.00069194319064999,0.0006850727875731,-0.00068438598459346,0.00069255585726708,0.0020393828135475,0.0018445157699805,0.78946348031623,1473840,32975,0.0032203505365519,0.0032203875072163,0.0027526363111634,36.088074359902,0.00020390459487921,0.00020390459487921,0.00020390459487921,1689342.4819559,0.0092357712890772
5356800,0.51778619915818,0.008953473623266,0.0030990960740702,0.0030991292842084,0.0027552482649874,-0.00080072762676048,0.00080098329449759,-3.8645929813534e-06,4.1043066023906e-06,-1.9676947825493e-07,5.1881764909836e-07,-0.00081659235479516,0.0008139732953311,-0.00081397052382822,0.00081656843233329,-0.00081642095461694,0.00081418426045593,-0.00081371185331794,0.00081687062977926,-0.00076784154363532,0.00076036458277526,-0.00075990735944901,0.00076827969127004,4.4769410694502e-07,-2.6611778342572e-07,7.469966804452e-08,2.038464702931e-07,-0.0008007517229823,0.00080097816657939,-0.00081510544913146,0.00081551752284332,-0.00081502888029542,0.0008155525955886,-0.00081528282123893,0.00081524934104986,-0.00081528325862585,0.00081527013534486,-0.00076409099214273,0.0007640133630339,-0.00076401486384907,0.00076418007449638,-0.0008023673269333,0.00080331354881679,-0.0008030954210753,0.00080248470056986,4.3969586234441e-06,-3.5802519567674e-06,-0.00068085769269503,0.00068166559699894,4.7319975488322e-07,3.4824543052867e-07,-0.00068969804892904,0.00069318425813028,-0.00068968133705474,0.00069314015264698,-0.00069233690771612,0.00069052557959602,-0.00069239508506784,0.00069046062202024,-0.0007135204392524,0.00070637732617507,-0.00070557267047434,0.00071424953730689,0.0021275499507305,0.0019318194820951,0.78637949204373,1473840,32975,0.0033313150844904,0.0033313543325682,0.00283468542497,36.196489295877,0.00020477191436702,0.00020477191436702,0.00020477191436702,1717699.2623199,0.0095426068151522
5443200,0.53546762034266,0.0092522525140519,0.0032055820657869,0.0032056150550858,0.0028410553931791,-0.00082692862643431,0.00082709947120964,-4.1437174201985e-06,4.2996018922498e-06,-2.5563769480394e-07,4.9286275396878e-07,-0.00084393231241445,0.0008410590643568,-0.00084115227243626,0.00084381274303145,-0.00084375131448448,0.00084128171581326,-0.00084088393417171,0.00084412557556015,-0.00079192530293595,0.00078391267209521,-0.00078352949390316,0.00079229192145726,4.7119737152002e-07,-2.7567670811384e-07,1.6609876305569e-07,1.26209451593e-07,-0.00082690272690069,0.00082714344022456,-0.00084228037215616,0.00084277242077918,-0.00084225565643783,0.00084274983868395,-0.00084246663816237,0.00084249225786255,-0.00084252058872091,0.0008424568770334,-0.00078782492442712,0.00078791631000056,-0.00078791438916658,0.00078791537943107,-0.00082853835748911,0.00082947501863251,-0.00082930049643964,0.00082861748833587,4.5824217927662e-06,-3.8697743652335e-06,-0.00070015049418313,0.00070085567967069,3.393383871095e-07,3.8197029178334e-07,-0.00070950117567205,0.00071298789007232,-0.00070942879011048,0.00071299826366403,-0.00071229843214086,0.00071017015096511,-0.00071230108265588,0.00071016044770306,-0.00073464194434269,0.0007269866483629,-0.0007262324225733,0.00073532399766851,0.0022135974538412,0.0020174606050549,0.78129219770888,1473840,32975,0.0034399377606858,0.0034399751204866,0.0029146415814003,36.304852457086,0.00020563881965668,0.00020563881965668,0.00020563881965668,1760586.6361578,0.0098426879973132
5529600,0.55291719816698,0.0095446750728743,0.0033099917518075,0.0033100244022904,0.0029246589187764,-0.00085253929875545,0.00085276462476426,-4.3618405034146e-06,4.5709699975345e-06,-3.1278338311535e-07,6.0378749744408e-07,-0.00087080412468341,0.00086776812931377,-0.00086786340357878,0.00087068686165412,-0.00087056689313116,0.00086804605944925,-0.00086754031524316,0.0008710550800672,-0.00081526241980769,0.00080687875201403,-0.00080638936376214,0.00081574222743949,6.0943760824625e-07,-3.045170565553e-07,2.1150716436278e-07,1.9165766877567e-07,-0.00085248449530862,0.00085283557880662,-0.00086898908237551,0.00086963974045997,-0.0008689612950129,0.00086962712219563,-0.00086923422188525,0.0008693079777746,-0.00086928187171327,0.00086928050730039,-0.00081095717063497,0.00081108714704165,-0.00081102979925709,0.00081110522884017,-0.00085392780789213,0.00085514928388546,-0.0008548552584369,0.00085412047607625,4.8415368195761e-06,-4.1007741745893e-06,-0.00071880444045949,0.00071953820625645,3.6311378119565e-07,3.8582890610176e-07,-0.00072868046833742,0.00073236603106978,-0.00072861607812175,0.00073236960687951,-0.0007316409564441,0.00072938720564953,-0.00073165070625448,0.00072937037159342,-0.00075508099792789,0.00074696569121425,-0.00074618705085669,0.00075578254476215,0.0022975491076446,0.0021011558771187,0.77529935118853,1473840,32975,0.0035463866274775,0.0035464199827977,0.0029922108840256,36.413210823235,0.00020650568658588,0.00020650568658588,0.00020650568658588,1808556.4501195,0.010136053735835
5616000,0.57011017747267,0.0098307250407782,0.0034122894986986,0.0034123213491161,0.0030061141929635,-0.00087766063323036,0.00087786137107491,-4.3693588430008e-06,4.5536744555807e-06,-2.8044109755146e-07,5.4543402451442e-07,-0.00089715073237977,0.00089412558887325,-0.00089421140218017,0.00089704136727381,-0.00089694673989824,0.00089437362588963,-0.00089392166400112,0.00089737765785425,-0.0008377717559029,0.00082934341877468,-0.00082891002802604,0.0008381950089875,8.2252182787e-07,1.2988910124035e-09,5.9022722187602e-07,3.3631263984725e-07,-0.00087733304603519,0.00087820387551652,-0.00089505777247662,0.00089627212110028,-0.00089510743240149,0.00089618340042882,-0.00089527416349469,0.00089597280719096,-0.00089539765872091,0.00089586759378281,-0.00083305240943944,0.00083396298468874,-0.00083335010995501,0.00083374976442353,-0.00087865095354629,0.00088022483174953,-0.00087948767759785,0.00087928654732463,4.8622735209975e-06,-4.0703102304869e-06,-0.0007368732196678,0.00073765696025421,2.7189455927414e-07,5.2782840600278e-07,-0.00074744066070165,0.00075109509863634,-0.00074729672703495,0.00075117352220989,-0.00075039731298319,0.0007481187056326,-0.00075032749905161,0.00074817806495426,-0.00077459927021122,0.00076662164845216,-0.00076571477867775,0.00077542457906211,0.0023793812160402,0.0021828957410092,0.77036209200066,1473840,32975,0.003650628315561,0.0036506591093633,0.0030673886665501,36.521569105902,0.00020737255284722,0.00020737255284722,0.00020737255284722,1859926.5605766,0.010422629607346
5702400,0.58702342321521,0.01011030589734,0.0035124211230882,0.0035124519698878,0.0030854328043634,-0.00090222067890326,0.00090250247453879,-4.5175928336319e-06,4.7834012178679e-06,-3.8058310601988e-07,7.285516822169e-07,-0.00092312623151566,0.00091995895834425,-0.00092005991532339,0.0009230003084075,-0.00092282450729589,0.00092030165903003,-0.00091967352798804,0.0009234309833186,-0.00085974207660841,0.00085112212851363,-0.00085051390227582,0.00086034296998523,6.2102313355641e-07,-4.8531895521995e-07,1.8296173349478e-07,5.1127093561004e-08,-0.00090227862633368,0.00090246114964956,-0.00092128037664427,0.00092186356205801,-0.00092128813533637,0.00092181222721721,-0.00092158750131333,0.00092146642819951,-0.00092167094234458,0.00092140159700656,-0.00085538353798343,0.00085538963432385,-0.00085556268875692,0.00085529621487662,-0.00090315353985782,0.00090435338210958,-0.00090426597555651,0.00090314061616729,5.0326841471041e-06,-4.2783586010516e-06,-0.00075440377475987,0.00075515123390401,3.146768281642e-07,4.4873422126968e-07,-0.0007655961018545,0.00076938161021555,-0.00076549523943335,0.00076942241477908,-0.00076867950658448,0.00076627846502467,-0.00076865225108608,0.00076629923969237,-0.00079379833771032,0.00078537387933548,-0.0007845471450889,0.00079454745275886,0.0024591441687036,0.0022626468311744,0.7661350860502,1473840,32975,0.0037527482000525,0.0037527825134877,0.0031401470583132,36.629927509067,0.00020823942007253,0.00020823942007253,0.00020823942007253,1911414.9936885,0.010702558961479
5788800,0.60363548117324,0.010383098481568,0.0036102671193799,0.0036102976805173,0.003162533681671,-0.00092654620346767,0.00092629906185915,-4.9205288225127e-06,4.6535592325431e-06,-5.3872601161039e-07,3.5837100942298e-07,-0.00094882636680475,0.00094511019245792,-0.00094566714839836,0.00094824294455475,-0.00094859324330057,0.00094538312492425,-0.00094535150307451,0.00094860309430243,-0.00088142596672467,0.0008719390660484,-0.00087193082686857,0.00088142101926309,5.4655256702378e-07,-3.4910539811544e-07,2.8042148536073e-07,1.2885599069176e-08,-0.00092630934507596,0.00092655200366382,-0.00094668858929961,0.00094730543958563,-0.00094674196796518,0.00094720882622736,-0.00094692384573873,0.00094697939484384,-0.00094705183250985,0.0009468688386568,-0.00087650128151986,0.00087676965494158,-0.00087681448571273,0.00087654374186382,-0.00092695382302693,0.00092796260600244,-0.00092785740217148,0.00092695770513697,5.2298334001545e-06,-4.3546597252837e-06,-0.00077125153504553,0.00077211835464531,3.0645104073383e-07,5.75932450425e-07,-0.00078319148658535,0.0007871422563711,-0.00078304661383287,0.00078722892841331,-0.00078636860072956,0.00078395002010375,-0.00078629598067917,0.00078401594370434,-0.00081217283374918,0.00080365116055333,-0.00080265163218582,0.00081308373167842,0.0025367156362796,0.002340307726071,0.76186091090702,1473840,32975,0.0038526180022806,0.0038526511821201,0.0032103884158559,36.738286053437,0.00020910628842749,0.00020910628842749,0.00020910628842749,1963264.7236489,0.010975467346771
5875200,0.61986728790732,0.010649479415211,0.0037059207038825,0.0037059508860929,0.003237607825236,-0.0009500630766681,0.0009496110070027,-5.2285263194841e-06,4.7539449419781e-06,-6.147060260244e-07,2.2955591239446e-07,-0.00097377883829594,0.00096974389177479,-0.00097048343657128,0.00097301407076336,-0.00097356542448252,0.00096999674766946,-0.00097019077297391,0.00097335365409142,-0.00090234945552125,0.00089223520116245,-0.00089245233678764,0.00090211562388941,8.2843745150491e-07,-1.2876579525996e-08,5.3879793597969e-07,3.784488116271e-07,-0.00094941318800225,0.00095027587909499,-0.00097119774595928,0.00097237677878673,-0.00097121909362792,0.00097231824401454,-0.00097141667317021,0.00097207587837957,-0.00097151099026511,0.00097200008288233,-0.0008968450850133,0.00089764927942294,-0.00089705471589591,0.00089753063422115,-0.00094971388022338,0.00095132971552017,-0.00095056651924342,0.00095036845111778,5.5452585372435e-06,-4.4494052374198e-06,-0.00078738921813846,0.00078847310591136,4.6689285856313e-07,6.3078191200775e-07,-0.00080002718589564,0.000804365154402,-0.00079991623581308,0.00080441612881119,-0.0008033422247998,0.00080103817227941,-0.00080330150417548,0.00080106761255609,-0.00082996127859106,0.00082122270212028,-0.00082003146410785,0.0008310520994557,0.0026117054427016,0.0024159628989292,0.76210075904453,1473840,32975,0.0039497938976648,0.0039498247732126,0.003277879578825,36.784574666715,0.00020947659733372,0.00020947659733372,0.00020947659733372,2010411.9567773,0.011240218863967
5961600,0.63565944822769,0.010906804300191,0.0037984663663065,0.0037984959546101,0.0033098419792743,-0.00097262524289133,0.0009724669955556,-5.1372752079067e-06,4.960440541195e-06,-4.1294233283692e-07,3.2054159952456e-07,-0.00099768867435765,0.00099394228479785,-0.00099435557488197,0.00099725087638137,-0.00099751224282079,0.00099415978810247,-0.00099409691191872,0.00099755509001907,-0.00092216546963481,0.00091220009531642,-0.00091215900551406,0.00092219618114183,6.8429779713022e-07,-4.4700829235674e-08,4.0451023408987e-07,3.3500673483163e-07,-0.00097221097179898,0.00097289676737975,-0.00099537585053289,0.00099631274321752,-0.00099536381650151,0.00099628252813047,-0.00099555642109451,0.00099604324231274,-0.00099561878270233,0.00099599860643474,-0.00091684824816084,0.00091742525783231,-0.00091696872105829,0.00091739307834251,-0.00097220072194659,0.00097355641375153,-0.00097294199023544,0.00097271240792142,5.3790829594636e-06,-4.730035558961e-06,-0.00080303456884364,0.00080367629080466,2.9286926305722e-07,3.6382184778617e-07,-0.00081651537463203,0.00082048305891351,-0.00081643504833507,0.00082050155355833,-0.00081986677917571,0.00081711508871838,-0.00081985864902026,0.00081711394835902,-0.00084708613680551,0.0008377598945086,-0.00083705240221814,0.00084770594614737,0.002683743795683,0.0024887799635122,0.75737028302306,1473840,32975,0.004044032879575,0.0040440648212592,0.0033419540847404,36.780618155268,0.00020944494524214,0.00020944494524214,0.00020944494524214,2049204.7875833,0.01149564639699
6048000,0.65100214845288,0.011155898893874,0.0038881769514622,0.0038882062155191,0.0033795157268931,-0.00099440431363532,0.00099438224298605,-5.1635361704605e-06,5.124679585784e-06,-3.1212654524422e-07,3.537315970874e-07,-0.0010209529347923,0.0010173003445749,-0.0010175538775168,0.0010206695150507,-0.0010207962529304,0.0010174955007561,-0.0010173156523726,0.0010209520229537,-0.00094113996762497,0.00093110405498581,-0.00093094321226042,0.00094128313479878,5.1087452583256e-07,-1.5194053839773e-07,2.6100968274759e-07,1.9367460421715e-07,-0.00099419947358635,0.00099460288106763,-0.0010188347334254,0.0010194707761768,-0.0010188247761865,0.0010194400280418,-0.0010189955995735,0.0010192227855911,-0.001019060322207,0.0010191782080601,-0.00093591989770956,0.00093623179555734,-0.00093603600827251,0.00093620027187135,-0.00099375979915042,0.00099476699536302,-0.0009944358968846,0.00099399298139926,5.7842806889574e-06,-4.5155610074419e-06,-0.00081747224477757,0.00081872967024965,6.009818036431e-07,6.7094002335404e-07,-0.0008317545746154,0.00083639964364548,-0.00083167698775942,0.00083641870142753,-0.00083516856922227,0.00083296753127591,-0.00083516299069845,0.00083296649020884,-0.00086296241509213,0.00085406582599583,-0.00085274521274275,0.00086420220873306,0.0027525764804933,0.0025590102532868,0.7551689052398,1473840,32975,0.0041346864546973,0.0041347190016199,0.0034032060255723,36.773526005796,0.00020938820804636,0.00020938820804636,0.00020938820804636,2095835.7585898,0.0117410274082
6134400,0.6658898738461,0.011397396681213,0.0039752335012256,0.0039752625660693,0.0034469006139179,-0.001015714790488,0.0010156891452721,-5.3275351065463e-06,5.2843826602751e-06,-3.0450192554263e-07,3.4161745126139e-07,-0.0010437175225161,0.0010399611081684,-0.00104021083533,0.0010434390521412,-0.0010435668529867,0.0010401487850364,-0.0010399800827544,0.0010437145623754,-0.00095977721303342,0.00094941214109121,-0.00094926458455446,0.000959909538621,5.7829145948226e-07,-6.3934856226514e-08,3.8461554493094e-07,2.2626299848481e-07,-0.0010154307124528,0.0010159896688256,-0.0010414582539196,0.0010422721318255,-0.0010414794586287,0.0010422133483869,-0.0010416144736104,0.001042033608303,-0.0010417080717633,0.0010419581190744,-0.00095426826761781,0.00095483201789911,-0.0009544733494056,0.00095471198196744,-0.0010146140959566,0.0010157269950876,-0.0010152679346729,0.0010149704254847,5.8608714027823e-06,-4.7630815214105e-06,-0.00083171230242649,0.00083279925201803,4.6952379097413e-07,6.3104040559604e-07,-0.00084682392481983,0.00085137574515249,-0.00084671516480202,0.00085142632876864,-0.00085034499237491,0.00084783640137976,-0.000850308129808,0.00084786601785953,-0.00087872175577234,0.00086936885018547,-0.00086818504292961,0.00087982003155112,0.0028192266451396,0.0026268406020041,0.75514728561591,1473840,32975,0.0042230973600706,0.0042231312335539,0.0034620025162321,36.766138407573,0.00020932910726058,0.00020932910726058,0.00020932910726058,2131919.05846,0.011979444923498
6220800,0.68031962643503,0.011631371003519,0.0040596537168856,0.0040596827852563,0.0035120345013766,-0.0010364926042422,0.0010364772681887,-5.4115171217914e-06,5.3795555784549e-06,-3.3537730583215e-07,3.8310364795484e-07,-0.001065870224279,0.0010620402405779,-0.0010623042160609,0.0010655783410596,-0.001065697449465,0.0010622528649136,-0.0010620500527894,0.0010658774027908,-0.00097787633059279,0.0009673735478361,-0.00096718768967003,0.0009780447292928,6.3932250949093e-07,-7.4525940833105e-08,5.2011695345524e-07,1.4234559903076e-07,-0.0010361876102028,0.0010367978836847,-0.0010635018040938,0.0010644632548167,-0.0010635934948194,0.0010643296023876,-0.0010636797939827,0.0010641992385823,-0.0010638453938609,0.0010640510483512,-0.00097217620397487,0.00097298213964158,-0.00097259688750027,0.00097264661721994,-0.0010350375147634,0.0010361993975787,-0.001035764740769,0.0010353752246238,5.9791338287012e-06,-4.8247925027902e-06,-0.00084525727264303,0.00084640122144968,3.8962954685944e-07,7.697958459342e-07,-0.00086126351197982,0.00086585996561053,-0.0008610813363317,0.00086598212894688,-0.0008648455581373,0.00086225970454314,-0.00086473513575471,0.00086236225021593,-0.00089372963078158,0.00088433150699742,-0.0008830201043775,0.00089496103314854,0.002883738349054,0.0026922916187971,0.75528323605964,1473840,32975,0.0043093190755896,0.0043093512276105,0.0035183828694262,36.758721041297,0.00020926976833038,0.00020926976833038,0.00020926976833038,2158007.0617939,0.012211038167404
6307200,0.69429001930932,0.011857897075138,0.0041414575215383,0.0041414864232485,0.0035749531303509,-0.0010567281899985,0.0010565918158272,-5.5893332121194e-06,5.4357798516778e-06,-3.417802327863e-07,2.6806648942023e-07,-0.0010874295453604,0.0010834358427072,-0.0010837861801741,0.0010870528889696,-0.0010872912128578,0.0010836128180782,-0.0010835661041811,0.0010873158779002,-0.0009955446602238,0.00098465734899799,-0.0009846293232988,0.000995557101165,5.0929943589136e-07,-9.7213467750599e-08,4.6831528845149e-07,3.8561676946607e-08,-0.0010564398208691,0.001056895837897,-0.0010850665345549,0.0010858548869564,-0.0010851739578147,0.0010857039390922,-0.001085208126355,0.0010856260439715,-0.0010853901843932,0.0010854606590784,-0.00098968715161707,0.00099042481478118,-0.00099015814914978,0.00099003708439431,-0.0010550539873033,0.0010559391977219,-0.0010556761295565,0.0010552228351165,6.038250940644e-06,-5.0002574034963e-06,-0.000858316552301,0.00085934520946364,3.0697837904088e-07,7.3844565953599e-07,-0.00087517079706419,0.000879713530789,-0.00087497260804689,0.0008798537327523,-0.00087883213109986,0.00087603547603874,-0.00087870496103611,0.00087615600698184,-0.00090832419537042,0.00089859954546929,-0.00089738671237973,0.00090945685488899,0.0029458935659189,0.0027553854647795,0.7555462239776,1473840,32975,0.0043930113636844,0.0043930435671961,0.0035723866657593,36.751300622051,0.0002092104049764,0.0002092104049764,0.0002092104049764,2179172.0436782,0.01243515834783
6393600,0.70780108723378,0.012076678124332,0.004220534605408,0.0042205633902614,0.0036355801286626,-0.0010761984548299,0.0010761929748611,-5.5925403367352e-06,5.5709646990439e-06,-3.4137736997965e-07,3.9880155316292e-07,-0.0011082235823511,0.0011042705987009,-0.0011045342217977,0.0011079340590351,-0.001108042325793,0.0011044911329265,-0.0011042713549335,0.0011082405703483,-0.0010124008892323,0.0010015550054567,-0.0010013520948391,0.0010125905383637,5.4830894969709e-07,-1.8829471568789e-07,3.4611144042066e-07,1.0875539107344e-07,-0.0010760012194752,0.0010764056363736,-0.0011059167167212,0.0011066333219161,-0.0011059603881951,0.0011065466456575,-0.0011061015522864,0.0011063607612799,-0.0011062202073644,0.0011062598910586,-0.001006705819644,0.0010071589684077,-0.0010069887783554,0.0010069604413104,-0.0010742431207839,0.0010752677021185,-0.0010749927739906,0.0010744254564443,6.0634192361753e-06,-5.1139645556721e-06,-0.00087077017501521,0.00087171077909796,3.5864320826167e-07,5.9821587658801e-07,-0.00088844678160885,0.000893012198611,-0.00088831268235496,0.00089308841618294,-0.00089215415145978,0.00088928742442456,-0.0008920910380714,0.00088934421876818,-0.00092230319547238,0.00091229073406882,-0.00091123294775266,0.0009232852856527,0.0030055778585353,0.0028160346752093,0.75471971282775,1473840,32975,0.0044740443749736,0.0044740760983812,0.0036239303511472,36.743879888866,0.00020915103911092,0.00020915103911092,0.00020915103911092,2197050.1635886,0.012651450623475
6480000,0.72085427782994,0.012289162110384,0.0042973575161772,0.0042973861522719,0.003694418441935,-0.0010954662353869,0.0010948937158432,-5.9381727994906e-06,5.3405581503968e-06,-5.7124300372276e-07,7.3540831714174e-08,-0.0011287071886924,0.0011241870368446,-0.0011249857994839,0.0011278798800613,-0.001128563972871,0.0011243697925582,-0.0011247492134651,0.0011281654264945,-0.0010293135640352,0.0010177213233991,-0.0010181303847579,0.0010288949663301,5.5040172190731e-07,-9.2464487019803e-08,5.025979791572e-07,6.7477055154401e-08,-0.0010949317561749,0.001095442037854,-0.0011260487379016,0.0011268932616785,-0.0011261487846358,0.0011267485401154,-0.0011261943089286,0.0011266617389981,-0.0011263795008537,0.0011264881171032,-0.0010230730879699,0.001023882535286,-0.0010235608532502,0.0010234854940114,-0.0010930306702327,0.001094007510095,-0.001093704539399,0.0010932156458185,6.0200672202174e-06,-5.274624629749e-06,-0.00088276955974749,0.00088350604321352,1.5803740178094e-07,5.9387700942807e-07,-0.00090134697322437,0.00090567771020358,-0.00090114466343379,0.00090582250042257,-0.00090509605216966,0.00090192587997127,-0.00090496130216431,0.00090204491971285,-0.0009357162739424,0.00092543886391236,-0.00092450260583158,0.00093654901278776,0.0030631274886485,0.0028746659849855,0.75876643118261,1473840,32975,0.0045527834087158,0.0045528118341923,0.0036733450805208,36.736459111163,0.0002090916728893,0.0002090916728893,0.0002090916728893,2211076.5237125,0.012860982514
6566400,0.73345287790718,0.012495125276439,0.0043718436885645,0.004371871566207,0.0037514100216679,-0.001114031786308,0.0011135968239382,-5.9793307956369e-06,5.5232680701589e-06,-4.6848163755337e-07,9.6945463762937e-08,-0.0011483766726125,0.0011439399728625,-0.0011445749198963,0.0011477176413149,-0.0011482474714684,0.0011441018521607,-0.0011443668152518,0.0011479668136719,-0.0010455193945145,0.0010338443288987,-0.0010341341539455,0.0010452193817435,1.1012382188707e-07,-4.5773397350065e-07,6.2008335302803e-08,-3.227525906079e-07,-0.0011139747302701,0.0011136679203519,-0.0011461851140997,0.0011461825635968,-0.0011462791165472,0.001146048673529,-0.0011463150487791,0.0011459714634805,-0.0011464804389035,0.0011458191685023,-0.0010396696103422,0.001039611251704,-0.0010400969348279,0.0010392648264615,-0.0011120927138898,0.0011121970373943,-0.0011126760769448,0.0011115084426358,6.248294052389e-06,-5.2690176707595e-06,-0.00089417786720475,0.0008951467342022,3.0011255720773e-07,6.8533986172251e-07,-0.00091349750880694,0.00091815478563093,-0.00091331964170725,0.00091828332340486,-0.00091731987228496,0.00091432204908174,-0.0009172105310261,0.00091442770710325,-0.00094891082462409,0.00093863790577198,-0.00093749554058258,0.00094996529268964,0.0031193075614824,0.0029312151547474,0.7619961747627,1473840,32975,0.0046300648505779,0.0046300936797074,0.0037212119937222,36.729623889482,0.00020903699111586,0.00020903699111586,0.00020903699111586,2207265.5644725,0.013066039962107
6652800,0.74591059772097,0.012699795213205,0.0044458711424156,0.0044458987982154,0.0038080252725742,-0.0011331948866103,0.0011332174349038,-5.7727202814684e-06,5.7774788871142e-06,-3.1046071690249e-07,3.9563119469963e-07,-0.0011685975802185,0.0011645573391629,-0.0011647806432504,0.0011683502585986,-0.001168427645935,0.0011647653907414,-0.0011645296125514,0.0011686450135802,-0.0010623339837032,0.0010511195716648,-0.0010509046295451,0.0010625393943921,5.5848848433902e-07,-1.4402521179255e-07,4.2269739576562e-07,8.7950093150408e-08,-0.0011329840257006,0.0011334431966645,-0.0011662096108531,0.0011670006621441,-0.00116628494551,0.0011668821607315,-0.0011663844714825,0.0011667414660883,-0.0011665333665531,0.0011666070616554,-0.001056375223045,0.0010569932407316,-0.0010567525793753,0.0010566964210364,-0.001131081295426,0.0011320965558947,-0.0011317978463992,0.0011312799886634,6.2217607046386e-06,-5.3435666271737e-06,-0.00090632785387015,0.00090719754232679,2.7512065770579e-07,6.1112455815418e-07,-0.0009264347501439,0.00093102588361475,-0.00092626919294629,0.00093113519472063,-0.00093027091652701,0.00092717322915519,-0.00093017595250629,0.00092726172441325,-0.00096278266723374,0.00095234758468217,-0.00095132540858587,0.0009637225622435,0.0031785350213332,0.0029874205079086,0.76550573304006,1473840,32975,0.0047104814933208,0.0047105121016983,0.0037714684556061,37.168788869869,0.00021255031095895,0.00021255031095895,0.00021255031095895,2204747.7417425,0.013279914880028
6739200,0.75822048476656,0.012903191589103,0.0045194486964305,0.0045194762397698,0.0038642666529025,-0.001152603145408,0.0011525315970648,-5.911392023994e-06,5.8216527973302e-06,-3.9583079329946e-07,3.8781894969677e-07,-0.0011890470841817,0.0011848254917668,-0.0011851689772205,0.0011886795407379,-0.0011888515846878,0.001185059777827,-0.0011848921798393,0.0011890000652748,-0.0010795171752046,0.0010680575379524,-0.0010679111884343,0.0010796551053456,5.5845622717398e-07,-2.2222911993546e-07,4.7103836032757e-07,-3.9428302141831e-08,-0.0011523844883787,0.0011527654691891,-0.0011865665153102,0.0011873632412976,-0.0011866991097724,0.0011871862427809,-0.0011867656401862,0.0011870777787216,-0.0011869726844077,0.0011868849751256,-0.0010734035795749,0.0010740885379686,-0.0010739522883696,0.001073618459263,-0.0011505967217851,0.0011515520814319,-0.0011513892765743,0.001150660330571,6.3249242353695e-06,-5.4240066314583e-06,-0.00091825575996156,0.00091914869438631,2.0000866767838e-07,7.110263545712e-07,-0.00093916179777742,0.00094377929464286,-0.00093893818297901,0.00094394648359429,-0.00094306031320768,0.00093986568743225,-0.0009429063774168,0.00094001255221069,-0.00097653546434477,0.00096600434875907,-0.00096490140358652,0.00097755627216342,0.0032375804583815,0.0030432881924212,0.76954155523921,1473840,32975,0.0047907643419293,0.0047907955896052,0.0038210562331898,37.634673314868,0.00021627738651895,0.00021627738651895,0.00021627738651895,2199860.7403283,0.013492884591962
6825600,0.77035789942076,0.013106684350123,0.0045930182046591,0.0045930457050302,0.0039206204404338,-0.0011720239367294,0.0011718828709352,-6.0151181443186e-06,5.8527789117962e-06,-3.4468574476004e-07,2.6608729858065e-07,-0.0012093648679153,0.0012050917545012,-0.0012054420467779,0.0012089913989181,-0.0012092286464773,0.0012052648009219,-0.0012052263510783,0.0012092505922446,-0.0010968849854273,0.0010851586110258,-0.001085142037724,0.0010968903666239,9.015806158248e-07,2.965061689889e-07,9.1921576847016e-07,3.8124747031857e-07,-0.0011713380657442,0.0011725818758036,-0.0012064495527878,0.0012080571904877,-0.0012065954556428,0.001207871415957,-0.0012065934727933,0.0012078335890353,-0.0012068127010024,0.0012076318392126,-0.0010901611955762,0.0010918039023687,-0.0010907424657777,0.0010913085638312,-0.0011699279798617,0.0011715684759227,-0.0011705530517186,0.0011708380860778,6.4656391694281e-06,-5.4188635353432e-06,-0.00093003382838183,0.00093107030323767,2.572607101586e-07,7.952577956522e-07,-0.00095167697305576,0.00095647249980579,-0.00095144100089156,0.00095664731426432,-0.00095562037513623,0.00095251587541582,-0.00095545538023606,0.00095266930324113,-0.00099029124798508,0.00097977836176764,-0.0009785133938656,0.00099146331828896,0.0032966762331524,0.0030992129858898,0.78034422350417,1473840,32975,0.0048711435235821,0.0048711704470175,0.0038702710336444,38.103074897862,0.00022002459918289,0.00022002459918289,0.00022002459918289,2189238.5489635,0.013705710329862
6912000,0.78229715889184,0.01330377541951,0.0046643973586802,0.0046644245766156,0.0039749534842144,-0.0011911308031532,0.001190958619225,-6.1224499841005e-06,5.9315884522426e-06,-2.624584433734e-07,1.508722804966e-07,-0.0012293260528162,0.0012250208663323,-0.0012253406936832,0.0012289819277295,-0.0012292511879225,0.0012251313734301,-0.0012251857835406,0.0012291780154993,-0.001113885045046,0.0011018865245033,-0.0011019639791815,0.0011137986816745,4.3413261147299e-07,2.4087440260087e-08,5.7819965995837e-07,-2.7666210279458e-08,-0.0011908023038928,0.0011913025328825,-0.0012267879119629,0.0012276126596559,-0.0012269542091895,0.0012274038189383,-0.0012268664080793,0.0012274515381842,-0.0012271053745153,0.0012272268514843,-0.0011073349539252,0.0011083561373385,-0.0011079765943828,0.001107792166928,-0.0011897544906503,0.0011904353645229,-0.0011901844895021,0.0011899077859423,6.5433872196714e-06,-5.5277380974308e-06,-0.00094129788153913,0.00094230484551714,2.0918761214451e-07,8.1533625102902e-07,-0.00096386051040849,0.00096866719646053,-0.00096360566510192,0.00096886697482672,-0.00096786636272758,0.00096464706022359,-0.00096768089524788,0.00096482566404348,-0.0010034576637995,0.00099275691551205,-0.0009915066059347,0.0010046249786308,0.0033543038967335,0.0031532680073696,0.76812823530175,1473840,32975,0.0049502932063897,0.0049503248468282,0.003916993580232,38.571681585102,0.00022377345268081,0.00022377345268081,0.00022377345268081,2177685.3907018,0.013913571404269
6998400,0.79401312529603,0.013496211146609,0.004734161590496,0.0047341888172084,0.0040278607389044,-0.0012090616710155,0.0012086790748635,-6.2664357125598e-06,5.8634600889902e-06,-3.7115130680702e-07,4.9237626409046e-08,-0.0012486723488787,0.0012441298574295,-0.0012446591335576,0.0012481142873032,-0.0012485925964375,0.0012442415205455,-0.0012445031291519,0.0012483130472309,-0.0011291410364595,0.0011168554607702,-0.0011171396028902,0.0011288393538312,4.4567889952088e-07,2.7727150022202e-08,4.8977867528087e-07,7.5590613419736e-08,-0.0012086201831477,0.0012091355769846,-0.0012460352962828,0.0012468155156539,-0.0012461410191998,0.0012466692902119,-0.0012461169283451,0.0012466533980805,-0.0012462954261713,0.0012464936795262,-0.0011225331116983,0.0011233767876108,-0.0011229886563234,0.001123007874342,-0.0012073091101612,0.0012080764510373,-0.0012077455613532,0.0012075392739509,6.7232465354001e-06,-5.4236903411151e-06,-0.00095193206038576,0.00095321864067643,4.4155737103935e-07,8.5908547261886e-07,-0.00097501638321366,0.0009801884666078,-0.00097482419625985,0.00098032633728781,-0.00097904774809465,0.00097614433431418,-0.00097892492241439,0.00097626055322968,-0.0010158045079891,0.0010052478864449,-0.0010037717468044,0.0010171897558374,0.0034078470551715,0.0032059431920581,0.7640024459929,1473840,32975,0.0050241909250425,0.005024221730064,0.0039617365787416,39.040332850913,0.0002275226628073,0.0002275226628073,0.0002275226628073,2202779.9740672,0.014108808789102
7084800,0.80548142693987,0.013683976138704,0.0048022587573153,0.0048022859662262,0.004079431415162,-0.0012267825245821,0.0012265693238241,-6.2716292448045e-06,6.0403325205885e-06,-2.6179566737361e-07,1.0878113524769e-07,-0.0012676215498196,0.001263203025618,-0.0012635500169279,0.0012672497823367,-0.0012675606592601,0.001263299140709,-0.0012634086168322,0.0012674320252783,-0.0011443809299336,0.0011320762152934,-0.0011322070928767,0.0011442391973334,4.2271368007066e-07,5.5239896570107e-08,5.0852750098526e-07,6.0323755528868e-08,-0.0012264235906523,0.0012269431452481,-0.0012650497225436,0.0012658277451777,-0.0012651630949954,0.0012656711611222,-0.0012651136633173,0.0012656803760078,-0.0012653013425245,0.0012655086719123,-0.0011377380092772,0.001138635860161,-0.0011382261466136,0.0011382279930562,-0.0012250741196736,0.0012257848167936,-0.0012254630292668,0.0012253036856185,6.6749273097467e-06,-5.6550477704103e-06,-0.00096244884096239,0.00096345957585582,2.894655297212e-07,7.3871543206868e-07,-0.00098623624120739,0.00099118519131289,-0.00098603379865115,0.00099133266046931,-0.00099032840147005,0.00098707834434863,-0.00099019553170696,0.00098720505456324,-0.0010281194664935,0.0010171188766653,-0.0010159172840129,0.0010292396705614,0.0034609368870709,0.0032572116101296,0.76187600919628,1473840,32975,0.0050979989406393,0.0050980294697224,0.0040048411471901,39.508989491636,0.00023127191593308,0.00023127191593308,0.00023127191593308,2212781.4219249,0.014302241171279
7171200,0.81667946825609,0.01386608785346,0.0048683608726989,0.0048683880418775,0.0041293389388835,-0.0012441483969705,0.0012440766114246,-6.1656067026376e-06,6.0745117159668e-06,-2.208184739072e-07,2.0834312271255e-07,-0.0012861622805003,0.0012818916614025,-0.0012821157138899,0.0012859137485599,-0.001286078591451,0.0012820042834254,-0.0012819526632939,0.0012861136206717,-0.0011591423767428,0.0011470619874912,-0.001147038126364,0.0011591630388503,4.2164733637478e-07,-4.0404012431772e-09,5.3666885757799e-07,-2.930433269456e-08,-0.0012438893885657,0.0012443481953254,-0.0012836628800438,0.0012844371673209,-0.0012838147113778,0.0012842412098846,-0.0012837483263276,0.001284274998706,-0.0012839745060536,0.0012840627104898,-0.0011526030229051,0.001153537896032,-0.0011532016383078,0.0011530059795674,-0.0012424726153459,0.0012431431725882,-0.0012429171391586,0.0012425959162076,6.6360883125714e-06,-5.6228810911341e-06,-0.00097233429478071,0.00097333781388832,2.2853402638901e-07,7.9473618978093e-07,-0.00099697315360516,0.0010018491819185,-0.00099673272312737,0.0010020389562485,-0.00100104070854,0.0009977689010886,-0.0010008684295498,0.00099793381919181,-0.0010396323680709,0.0010287239569015,-0.001027491298878,0.001040780400346,0.0035124539695449,0.0033067721419666,0.75690078755257,1473840,32975,0.0051702714920734,0.0051702972297836,0.0040458829476317,39.97764583727,0.00023502116669816,0.00023502116669816,0.00023502116669816,2219162.7260515,0.014490498355364
7257600,0.82758595665164,0.014042133606487,0.0049323188691178,0.0049323457922293,0.0041774689451396,-0.0012610900773849,0.0012607204862319,-6.3864280223144e-06,5.995241582734e-06,-3.7055324472451e-07,6.2120507653324e-08,-0.0013044168675447,0.0012998023070941,-0.0013003229749907,0.0013038717463568,-0.0013043356668889,0.0012999154848675,-0.0013001618386702,0.0013040723215077,-0.0011734517358971,0.0011609348800437,-0.0011612100939263,0.0011731734709897,6.2742872708324e-07,1.9964583618883e-07,7.9902409500663e-07,1.2251995157065e-07,-0.0012604752466886,0.0012613455377719,-0.001301522300933,0.0013027434090376,-0.0013017121603386,0.001302511225364,-0.0013016062442781,0.0013025807542242,-0.0013018684046539,0.0013023315799932,-0.0011664298518705,0.0011678851156111,-0.0011671377377473,0.0011672489758031,-0.001258897331023,0.001259944183618,-0.0012593439725555,0.0012593923982997,6.7237432873283e-06,-5.6765557573013e-06,-0.00098167147504229,0.00098270884253425,1.9042000250722e-07,8.6616071180734e-07,-0.0010070787337649,0.0010120011517863,-0.0010068007877583,0.0010122242807056,-0.0010111946369673,0.0010078743343414,-0.0010109852320198,0.0010080743626098,-0.0010506521518778,0.0010396770109237,-0.0010383695563625,0.0010518661501932,0.0035615809981881,0.0033544906794907,0.75136027140277,1473840,32975,0.0052398703081384,0.0052398911589397,0.0040847331579068,40.446302663401,0.0002387704213072,0.0002387704213072,0.0002387704213072,2230742.9322537,0.014671140977414
7344000,0.83808216064747,0.014210578157238,0.0049935557417041,0.0049935822690263,0.0042234401465073,-0.0012768056436774,0.0012765122804931,-6.4484886056138e-06,6.135502323743e-06,-3.1247718936967e-07,7.8458855560863e-08,-0.0013214849051748,0.0013168915180254,-0.0013173242456956,0.0013210302113828,-0.0013214182945103,0.0013169936003506,-0.0013171775475055,0.0013212176998799,-0.0011865360618251,0.0011738896402589,-0.0011740965051597,0.0011863200564187,4.9152938522647e-07,1.0378503905681e-07,6.9397752778415e-07,-6.689486065719e-09,-0.0012763475607194,0.0012769847579609,-0.0013187230704125,0.001319708186585,-0.0013189197062282,0.001319466760924,-0.0013187942957145,0.0013195555852987,-0.0013190638643399,0.0013192992638703,-0.0011795445121707,0.001180803262242,-0.0011802796118109,0.0011801454716679,-0.0012745547162742,0.0012753211196786,-0.0012749657570179,0.0012748177273325,6.8385072457811e-06,-5.7652057475866e-06,-0.00099011429494091,0.00099117882398824,1.9131077323026e-07,8.9184352027588e-07,-0.0010162579427586,0.0010212676137769,-0.0010159714592554,0.0010214987224396,-0.001020441454506,0.001017070780731,-0.0010202246748778,0.0010172806093949,-0.0010607697307028,0.001049638192289,-0.001048295649475,0.0010620254760515,0.0036066970564545,0.0033998409118759,0.74719297732948,1473840,32975,0.0053051575418994,0.0053051870292414,0.0041198570212559,40.737738455614,0.00024110190764491,0.00024110190764491,0.00024110190764491,2241903.6783813,0.014839296940819
7430400,0.84803451048524,0.014369589265577,0.0050513885904197,0.005051415102052,0.0042667855731051,-0.0012914023221441,0.001290955595399,-6.6179610555073e-06,6.1514362452199e-06,-3.2032398370393e-07,-6.7820685776236e-08,-0.0013373606946057,0.0013325975656756,-0.0013331372342445,0.0013367977504395,-0.0013373381744558,0.0013326532646692,-0.0013330358542114,0.001336939928675,-0.0011986078407635,0.0011855790427493,-0.0011859858260105,0.0011981916093307,4.27673500798e-07,1.7785777350094e-07,7.0272140152687e-07,-6.7200454693708e-09,-0.0012908629039678,0.0012915090751225,-0.0013345298383733,0.0013354805025053,-0.0013347302161335,0.0013352363506717,-0.0013345562035443,0.0013353756342727,-0.0013348289523406,0.0013351155157001,-0.0011913932295963,0.0011927144457938,-0.0011921357487267,0.0011920466001472,-0.0012889199519548,0.0012895566190453,-0.0012891943463313,0.0012891892715958,6.9682540009573e-06,-5.8211661448714e-06,-0.00099743674879136,0.00099857402731945,2.232866601316e-07,9.3283014839711e-07,-0.0010243521637385,0.00102949237674,-0.0010240634422572,0.0010297278123586,-0.0010285977294983,0.0010252342015016,-0.00102837768539,0.0010254468833349,-0.0010696983018511,0.0010584612708313,-0.0010570425336519,0.0010710306050761,0.0036469665172548,0.0034421997429696,0.74405231163427,1473840,32975,0.0053653275199772,0.0053653563069151,0.0041504256707131,40.784530148924,0.00024147624119139,0.00024147624119139,0.00024147624119139,2248344.2190761,0.014992459987373
7516800,0.85745358337311,0.014519464304739,0.0051059168766606,0.0051059433495858,0.0043076040784929,-0.0013050769612918,0.0013047708712853,-6.5768879319503e-06,6.2516479693388e-06,-2.4927326822266e-07,1.1358078539085e-09,-0.0013522538888898,0.0013476117232784,-0.0013480111317556,0.0013518319380288,-0.0013522309770468,0.0013476670656413,-0.0013479088774239,0.001351972223248,-0.0012097539390976,0.0011968110380388,-0.001197076594333,0.0012094815128833,4.14063553323e-07,1.6714622949353e-07,7.2259446645823e-07,-5.2232730534024e-08,-0.0013046204095008,0.0013052417395756,-0.0013494855474257,0.0013504324610941,-0.0013497067395369,0.0013501670108442,-0.0013495101122981,0.0013503268327988,-0.0013498053851945,0.0013500462719089,-0.0012025632734866,0.0012039247209965,-0.0012033712186387,0.0012031918695529,-0.0013024924765305,0.0013030805101887,-0.0013027660098042,0.0013027183991698,6.9903668993497e-06,-5.8589019490467e-06,-0.0010041542800473,0.0010052769489219,1.8365669565307e-07,9.5831151479947e-07,-0.0010318816276852,0.0010370066792658,-0.001031571976507,0.0010372632802494,-0.0010361480054529,0.0010327280182204,-0.0010359060565498,0.0010329632491864,-0.0010779145989286,0.0010666258295951,-0.0010652037662515,0.0010792541827527,0.0036842994895423,0.0034816613218895,0.74114180652121,1473840,32975,0.0054222818560051,0.0054223111645503,0.0041783025038501,40.816137771157,0.00024172910216925,0.00024172910216925,0.00024172910216925,2251342.0682849,0.015136386320175
7603200,0.86635866068777,0.014660693414993,0.0051573118112329,0.0051573382655463,0.0043460433382141,-0.0013181546109146,0.00131767768201,-6.7279083501636e-06,6.230497997766e-06,-3.2739906556772e-07,-9.1103893443371e-08,-0.00136652372152,0.0013616726493211,-0.0013622372557594,0.0013659356179993,-0.0013665057471986,0.0013617237528186,-0.0013621404597473,0.0013660725603011,-0.0012204105928539,0.0012071641999479,-0.0012076068627325,0.00121996156757,4.097618462051e-07,1.7632507737123e-07,7.7491993764995e-07,-1.0008712237429e-07,-0.0013176103222265,0.0013182365393196,-0.0013636342465731,0.0013646150823636,-0.0013638889406033,0.0013643157890002,-0.0013636538817758,0.0013645141543543,-0.0013639826328315,0.0013641998659429,-0.001213015572396,0.0012144845503652,-0.0012139210093654,0.0012136528225774,-0.0013153159229322,0.0013158624800445,-0.0013155759143043,0.0013155134586443,7.1094611260286e-06,-5.8701535632274e-06,-0.0010102287662381,0.0010114590437115,1.8784418985559e-07,1.0625574403829e-06,-0.0010387532048431,0.0010439954905372,-0.0010384105159592,0.0010442857304474,-0.0010430634861829,0.0010396740112246,-0.0010427885434482,0.0010399424943477,-0.0010854771184007,0.001074202571306,-0.0010726376637283,0.0010869557511019,0.0037188474913185,0.0035183824204175,0.73878159432435,1473840,32975,0.0054761136838245,0.0054761435054314,0.0042037640195202,40.846303335596,0.00024197042668476,0.00024197042668476,0.00024197042668476,2252548.6847999,0.015271540477723
7689600,0.87477000989836,0.014793816822715,0.0052057612517703,0.0052057877018302,0.0043822678691148,-0.0013303690817757,0.0013300881193063,-6.6520581186209e-06,6.3525123929206e-06,-2.3830387976015e-07,1.5113253003907e-08,-0.0013798669392908,0.0013751905496729,-0.0013755650255932,0.00137946912643,-0.0013798450199248,0.0013752468818056,-0.0013754635696383,0.0013796109081215,-0.0012302478430949,0.0012171587679075,-0.0012173978042262,0.0012299997651999,5.0038818028022e-07,2.515858928828e-07,8.8606902301633e-07,-4.2872665309989e-08,-0.0013298391486832,0.0013306323322414,-0.0013769700096105,0.0013781405966264,-0.001377241878202,0.0013778231638081,-0.0013769954930412,0.0013780342500079,-0.0013773411286855,0.0013777016999714,-0.0012228211298816,0.0012245043193398,-0.001223777770137,0.0012236211069771,-0.0013273864568261,0.0013280958120589,-0.0013276612215402,0.0013277324107297,7.1505619028689e-06,-5.8756750031706e-06,-0.0010158077559728,0.0010170731004712,1.7872810316454e-07,1.1075285328853e-06,-0.0010451309607702,0.0010504053706281,-0.0010447689806526,0.0010507124399226,-0.0010494554271855,0.0010460670151039,-0.0010491622901756,0.0010463528421819,-0.0010924782331713,0.0010812124289801,-0.0010795951193544,0.001094012256556,0.0037508812170091,0.0035525343229719,0.73730524595061,1473840,32975,0.0055271257664191,0.0055271549886816,0.0042270186852387,40.876322084748,0.00024221057667798,0.00024221057667798,0.00024221057667798,2251150.0826761,0.015398744291533
7776000,0.88270807489416,0.014919209740589,0.0052513991683624,0.0052514255885297,0.0044163849836972,-0.0013422054199813,0.0013416320247411,-6.8697005418092e-06,6.276056594467e-06,-3.9373490622124e-07,-1.1974337120282e-07,-0.0013927768058615,0.0013877532563816,-0.0013884273170613,0.0013920793817183,-0.0013927468804112,0.0013878166374755,-0.0013883182494255,0.0013922279982511,-0.0012398576478542,0.001226344068903,-0.0012268696717283,0.0012393234610583,4.231309056037e-07,1.5083053175971e-07,8.1131559200575e-07,-1.4828338487722e-07,-0.0013416187587003,0.0013422331328941,-0.0013897876838196,0.0013907968522112,-0.0013900695633737,0.0013904692666668,-0.0013898186840618,0.0013906826004292,-0.0013901744471172,0.0013903398796408,-0.0012322987033615,0.0012338250620856,-0.0012332846715084,0.0012329104855059,-0.0013390419199429,0.0013395852379409,-0.0013393380513118,0.0013391979483753,7.2197228162218e-06,-5.9480620751654e-06,-0.0010209127926867,0.001022175052037,1.623403793644e-07,1.1212494166757e-06,-0.0010510184127588,0.0010563273198313,-0.0010506479172941,0.0010566451316934,-0.0010553918527234,0.0010519430959097,-0.0010550891138689,0.0010522392813321,-0.0010990324678119,0.0010876353038039,-0.0010860100638983,0.0011005719314463,0.003780615641696,0.003584240408101,0.73590666425681,1473840,32975,0.0055755565124357,0.0055755860706943,0.0042482275347177,40.906325636368,0.00024245060509094,0.00024245060509094,0.00024245060509094,2246536.1010035,0.015518644614519
7862400,0.89019327471798,0.015037240099586,0.0052943576550661,0.0052943840646873,0.004448498379833,-0.0013531049979842,0.0013528192021518,-6.7835675886816e-06,6.4789657147443e-06,-2.7778099619049e-07,5.0219267175492e-08,-0.0014047107597505,0.0013999181120785,-0.0014003224206338,0.0014042823180085,-0.0014046632738765,0.0013999995848333,-0.0014001955316584,0.0014044492062195,-0.001248591060649,0.0012352703028964,-0.0012354873565254,0.0012483621433359,4.5507882150239e-07,1.3058597843022e-07,7.8983118582799e-07,-1.1437401996792e-07,-0.001352655985101,0.001353282527487,-0.0014018300860184,0.001402851757619,-0.0014020942812954,0.0014025427114476,-0.0014018801431068,0.0014027197998382,-0.001402218315653,0.0014023954723395,-0.0012411577793352,0.0012426240900874,-0.0012420902948955,0.001241764963901,-0.0013499395178048,0.0013505642048322,-0.0013502879857597,0.0013501275562589,7.3294672488413e-06,-5.9558174360111e-06,-0.0010254998764117,0.0010268629609366,2.3932653861582e-07,1.1443557258419e-06,-0.0010563603423658,0.0010618263169636,-0.0010560070865226,0.0010621261801979,-0.0010607716758587,0.0010574018699425,-0.0010604867069639,0.0010576806626409,-0.0011050334878587,0.0010936062837454,-0.0010918981950689,0.0011066590842669,0.0038080171012271,0.0036136218690012,0.73456826689713,1473840,32975,0.0056213052884716,0.0056213345588867,0.0042675023746058,40.936327612352,0.00024269062089882,0.00024269062089882,0.00024269062089882,2240665.3491405,0.015631146326336
7948800,0.89724587307835,0.015148261952016,0.005334763626521,0.0053347900191205,0.0044787083063746,-0.0013635379695581,0.0013632355670421,-6.8461870696064e-06,6.5250486488229e-06,-2.7594317201239e-07,3.1398791223672e-08,-0.0014161244452764,0.0014112857605208,-0.0014117008710145,0.0014156872074327,-0.0014160835286597,0.0014113605534712,-0.001411580303436,0.0014158470109489,-0.0012569432927768,0.0012434929311819,-0.0012437348573205,0.0012566927071404,4.3600957867991e-07,1.3215141804777e-07,8.1195032726796e-07,-1.5462747703091e-07,-0.0013630895897807,0.001363698215135,-0.0014132239527712,0.0014142406670642,-0.0014135072627574,0.0014139109138283,-0.0014132670515007,0.0014141155506117,-0.0014136245680107,0.0014137706982875,-0.0012494204729906,0.0012509369612973,-0.0012504144455935,0.0012500164947933,-0.0013603033644405,0.0013608695456434,-0.0013606322347335,0.0013604539662698,7.287653937519e-06,-6.1069199029321e-06,-0.0010297991747694,0.0010309711319034,1.1399508235366e-07,1.0794520002019e-06,-0.0010614120419828,0.0010667043895327,-0.0010610391930503,0.0010670243552562,-0.0010658599751907,0.0010622436177583,-0.0010655552286037,0.0010625423555153,-0.0011106905854207,0.0010989843716884,-0.0010974487006413,0.0011121442366966,0.0038332082624272,0.0036407954457368,0.7332777651936,1473840,32975,0.0056644886348068,0.0056645178069266,0.0042849769912401,40.966329427937,0.00024293063542349,0.00024293063542349,0.00024293063542349,2233695.8417935,0.015736620416771
8035200,0.90388588241351,0.015252620304897,0.0053727412062965,0.0053727675804025,0.0045071115181978,-0.0013733857517352,0.0013730568958081,-6.8921598019283e-06,6.5443304190264e-06,-2.838732075049e-07,1.295196415593e-08,-0.0014269092442892,0.0014220258340912,-0.0014224630275497,0.0014264482612853,-0.001426871623055,0.0014220970243941,-0.0014223460138996,0.0014266046270549,-0.001264765772091,0.0012512216053408,-0.0012514919159476,0.0012644832795669,4.2671827529715e-07,1.3309874406164e-07,8.7760949704563e-07,-2.2905836867911e-07,-0.0013729284184707,0.001373528539006,-0.0014239683320008,0.0014250202585639,-0.0014242989107193,0.0014246435995939,-0.0014240077893137,0.0014248985503679,-0.0014244125989811,0.001424506653226,-0.0012571297236975,0.0012587776249409,-0.0012582597279307,0.0012577194908,-0.0013700936079884,0.001370594625542,-0.0013704122439303,0.001370189200229,7.4653606729891e-06,-5.9948638586563e-06,-0.0010334544985808,0.0010349144478567,1.8724870677519e-07,1.2945324487026e-06,-0.0010658199460635,0.0010713733845518,-0.0010653997901312,0.0010717409928174,-0.0010702899548537,0.0010668909174836,-0.0010699377872163,0.0010672373496388,-0.0011156324838218,0.0011041992693494,-0.0011023264742901,0.0011174225411217,0.0038563091447752,0.0036658749902651,0.73202632473613,1473840,32975,0.0057052253775226,0.0057052546315436,0.00430077315801,40.996331230363,0.0002431706498429,0.0002431706498429,0.0002431706498429,2225800.6435113,0.01583542979007
8121600,0.91014377401218,0.015350819156118,0.0054084727835976,0.00540849914284,0.0045338472296803,-0.0013827070459385,0.0013824421936086,-6.9055900285075e-06,6.6220163950049e-06,-2.9710896351859e-07,9.05311920418e-08,-0.001437150334915,0.0014322703208894,-0.0014326746894974,0.0014367238895326,-0.0014370832036889,0.0014323719343006,-0.001432527820526,0.0014369105584985,-0.001272127259924,0.0012585884194788,-0.0012587660363057,0.0012719412200583,4.6688530148057e-07,8.2828489234598e-08,8.2264902435623e-07,-1.8315084189741e-07,-0.0013822863720528,0.0013828771638383,-0.0014342185279696,0.0014352571408535,-0.0014345146860723,0.0014349144299693,-0.0014342878639991,0.0014351052366331,-0.0014346583425452,0.0014347472601823,-0.0012645635308915,0.0012660734250455,-0.0012655948356271,0.0012651142678246,-0.0013793271154726,0.0013799406398163,-0.0013797342327631,0.0013794464678945,7.3824420581779e-06,-6.1694595756977e-06,-0.0010370706659455,0.0010382748912124,1.1064476954218e-07,1.1157627911485e-06,-0.0010701212345914,0.0010754847086135,-0.0010697351119776,0.0010758179601834,-0.0010746217386022,0.0010709715595493,-0.0010743036268287,0.0010712836448584,-0.0011205589065485,0.0011087448424211,-0.0011071637697203,0.0011220581986737,0.0038777540125795,0.0036890275884062,0.73080589035633,1473840,32975,0.0057439667715653,0.0057439959905885,0.0043152784861838,41.059576482091,0.00024367661185673,0.00024367661185673,0.00024367661185673,2217223.6982327,0.015928882860921
8208000,0.91604973511068,0.015443354249893,0.0054421383473042,0.0054421646917518,0.0045590512108374,-0.0013916150323476,0.0013914002706953,-6.9461025386749e-06,6.7125560990831e-06,-3.304119875133e-07,1.7445503072421e-07,-0.0014469554898415,0.0014420429353906,-0.001442436044817,0.0014465400218442,-0.0014468497510539,0.0014421836006218,-0.0014422508151654,0.0014467659837814,-0.0012791574722553,0.0012655793266706,-0.0012656680329832,0.0012790607643517,4.9686070892011e-07,-4.5338943039647e-09,6.4543504046509e-07,-6.2751700416627e-08,-0.0013912477830685,0.0013917818064107,-0.001444065418529,0.001444987714733,-0.0014442638167119,0.0014447445939849,-0.0014441732763486,0.0014447966366454,-0.0014444460330179,0.0014445381698918,-0.0012717670206142,0.0012728896757044,-0.0012725086605201,0.0012722234725609,-0.0013881301231308,0.0013889008963076,-0.0013886521020333,0.0013882910234215,7.3875258904719e-06,-6.2959769529442e-06,-0.0010403565601856,0.0010414393167934,1.9749916652033e-07,9.0548139370067e-07,-0.0010740333935333,0.0010794189875792,-0.0010737463718206,0.0010796532707368,-0.001078577738507,0.0010748619549108,-0.0010783587126754,0.0010750750674031,-0.0011251781179966,0.0011130147193874,-0.0011116542302597,0.0011264568243111,0.0038977800169522,0.0037104177497193,0.72960979383291,1473840,32975,0.0057809657265806,0.0057809949151182,0.0043286916488933,41.165028657832,0.00024452022926265,0.00024452022926265,0.00024452022926265,2208127.4017488,0.016017694054166
8294400,0.92161917458787,0.015530537415728,0.0054738498162968,0.0054738761480256,0.0045828114514056,-0.0014000750757459,0.0013998616922923,-6.963154772017e-06,6.7310158493907e-06,-3.2977155568254e-07,1.7505080977464e-07,-0.0014562436895189,0.00145132042156,-0.0014517123082428,0.0014558293758524,-0.0014561373520406,0.0014514611212552,-0.0014515267427035,0.0014560552736888,-0.0012857811258033,0.0012721701421945,-0.0012722572747648,0.0012856860702539,4.693008165507e-07,-3.2453629931662e-08,5.9287115202456e-07,-6.6704269426915e-08,-0.0013997364570019,0.0014002146011378,-0.0014533837696303,0.0014542345677288,-0.0014535663058417,0.0014540076567487,-0.0014534919096492,0.0014540432151196,-0.0014537486517822,0.0014538011250716,-0.0012784265314997,0.0012794446467836,-0.0012791205266637,0.0012788266045882,-0.0013965711374447,0.0013973023885078,-0.0013970931027444,0.0013966928964926,7.3967001849142e-06,-6.3227532124079e-06,-0.0010432858192184,0.0010443509237815,2.1280768079384e-07,8.722456859585e-07,-0.0010776247961726,0.001083020985081,-0.0010773543498018,0.001083239477615,-0.0010821812536012,0.0010784520506443,-0.0010819785942032,0.0010786492551538,-0.0011293221254241,0.0011170901273836,-0.0011157636926877,0.0011305673666215,0.0039161818560773,0.0037301460848092,0.72884501328117,1473840,32975,0.005816006907155,0.0058160360997579,0.0043408400703595,41.273108928746,0.00024538487142996,0.00024538487142996,0.00024538487142996,2198434.2117966,0.016101249193788
8380800,0.92686657372985,0.015612622415437,0.0055036991478065,0.0055037254680476,0.0046051977995826,-0.0014081122732524,0.0014079017634443,-6.9786690857099e-06,6.7494119801291e-06,-3.4308293012341e-07,1.9129285138926e-07,-0.0014650579138166,0.0014601167041671,-0.0014605152004722,0.0014646369554501,-0.0014649423517306,0.0014602671862934,-0.0014603204661591,0.0014648726446479,-0.0012920643521254,0.001278433043822,-0.0012785072091966,0.0012919819080976,5.1404802612646e-07,-1.6746036278425e-08,6.3360084868596e-07,-4.5843677813582e-08,-0.0014077445699828,0.0014082837273832,-0.0014621507299596,0.0014630784481241,-0.0014623398872122,0.0014628449065029,-0.0014622682029048,0.0014628775529336,-0.0014625316048418,0.0014626288131401,-0.0012846638629956,0.0012857533608373,-0.0012853772631582,0.0012851157641358,-0.0014045597362494,0.0014053736113285,-0.0014051105708704,0.0014047355777852,7.4206885982051e-06,-6.333009546118e-06,-0.0010459181595209,0.0010469969274956,2.0986742974843e-07,8.8902348490931e-07,-0.001080922493313,0.0010863371281143,-0.0010806452448585,0.0010865618764065,-0.00108549038695,0.0010817567930004,-0.0010852809713739,0.0010819603273286,-0.0011331310390659,0.0011208861510702,-0.0011195393026179,0.0011343966742531,0.0039331325599284,0.0037482957506964,0.72822748902451,1473840,32975,0.0058492984046983,0.0058493275332611,0.0043518213716323,41.381439219471,0.00024625151375577,0.00024625151375577,0.00024625151375577,2187382.1787285,0.016180069026839
8467200,0.93180619496685,0.015689846156718,0.0055317729293029,0.0055317992381438,0.0046262739892717,-0.0014157292987172,0.0014155078685177,-7.0444779133941e-06,6.8040658461733e-06,-3.5111948597882e-07,1.8844904511187e-07,-0.0014734219759618,0.0014684279757337,-0.0014688391434986,0.0014729884513759,-0.0014733044823684,0.0014685802054101,-0.0014686425587849,0.0014732258495263,-0.0012980489353122,0.0012842902125956,-0.0012843739119436,0.0012979572243069,5.0333054296336e-07,-3.2878566170931e-08,5.9830603820784e-07,-3.7763941105124e-08,-0.0014153696326551,0.0014158818080522,-0.0014705081638987,0.001471396323075,-0.0014706830176928,0.0014711773017302,-0.0014706273403649,0.0014711936245516,-0.0014708764272392,0.0014709594112416,-0.001290620424408,0.0012916384693573,-0.0012912915567689,0.0012910435755614,-0.0014121836607317,0.0014129903979455,-0.0014127396460556,0.001412347062463,7.4688601571147e-06,-6.4057909895859e-06,-0.001048305838983,0.0010493600137415,2.1908502556068e-07,8.5495137304106e-07,-0.001083931248874,0.0010893761354593,-0.0010836686174504,0.0010895866464454,-0.0010885395981117,0.0010847556283576,-0.0010883446465254,0.001084944836645,-0.0011367184108457,0.0011243162092978,-0.0011230081321642,0.0011379447413534,0.0039486413602094,0.0037649449571054,0.72765586853112,1473840,32975,0.005880819880898,0.0058808490278981,0.0043617078260299,41.489795015478,0.00024711836012382,0.00024711836012382,0.00024711836012382,2175722.704517,0.016254184680992
8553600,0.93645209272627,0.015762438949848,0.0055581553276995,0.0055581816269402,0.0046461019952088,-0.0014229149492165,0.0014227118957067,-7.057286616276e-06,6.8353241983604e-06,-3.488987045461e-07,2.0449370982474e-07,-0.0014813084835403,0.0014763136629391,-0.0014767108749307,0.0014808886189416,-0.0014811863394451,0.001476470393123,-0.001476509825395,0.0014811307008012,-0.0013036329224475,0.0012898540239674,-0.0012899146072373,0.0013035642871203,5.0709411903489e-07,-4.2913306342669e-08,5.2408722812219e-07,3.0184297961917e-08,-0.0014225675994757,0.0014230735390641,-0.0014784182876351,0.0014792577726622,-0.0014785465696414,0.0014790863391577,-0.0014785421012268,0.0014790504942924,-0.0014787446295568,0.0014788638426658,-0.0012962690354762,0.0012971369698129,-0.001296801827086,0.001296682189428,-0.001419371631392,0.0014202330395814,-0.0014199412796072,0.0014195761556332,7.4685331256713e-06,-6.4506124489479e-06,-0.0010504593415352,0.0010514681877764,2.6674448675762e-07,7.6092432348653e-07,-0.001086679697833,0.0010921414851767,-0.0010864642816945,0.001092304927081,-0.0010913028139552,0.001087506123674,-0.0010911550458035,0.0010876482569494,-0.0011400183328876,0.0011274801795738,-0.0011262646259101,0.001141152398706,0.0039627631126203,0.0037801697684983,0.72712544830381,1473840,32975,0.0059106143699209,0.0059106435546761,0.0043705791630751,41.598153468117,0.00024798522774494,0.00024798522774494,0.00024798522774494,2163771.131016,0.016323763553956
8640000,0.9408180724487,0.015830625142446,0.0055829284126054,0.0055829547038328,0.0046647420260076,-0.0014297172232887,0.0014295026771394,-7.1031153381867e-06,6.869652072273e-06,-3.4168241640392e-07,1.8556949403415e-07,-0.0014887770350595,0.0014837527081506,-0.0014841527717361,0.0014883544821576,-0.001488663426153,0.0014839006979598,-0.0014839602837868,0.0014885877983854,-0.0013089262868983,0.0012950488045772,-0.0012951296420052,0.001308837585511,4.985589707421e-07,-2.5319449899803e-08,5.329397874047e-07,3.0106533359145e-08,-0.0014293596874393,0.0014298744944294,-0.001485870488492,0.0014867130793073,-0.0014860016413863,0.0014865386619996,-0.0014859857427492,0.001486514565508,-0.0014861911443263,0.0014863249390155,-0.0013015001561037,0.001302394235446,-0.0013020414737299,0.0013019306034522,-0.0014262087706547,0.0014270504957018,-0.0014267529499798,0.0014264196863139,7.5064184484682e-06,-6.493306479966e-06,-0.0010523673457333,0.0010533714764271,2.6007254297233e-07,7.6305550334274e-07,-0.0010891791101851,0.0010946601231797,-0.0010889608535386,0.0010948265378231,-0.0010938291339156,0.0010899979441287,-0.0010936784614063,0.001090143007512,-0.0011430325875009,0.0011304139903902,-0.0011292002835071,0.0011441649002387,0.0039755756527719,0.0037940442990812,0.72663263919491,1473840,32975,0.0059387583226835,0.0059387874766575,0.0043785156432572,41.706512207296,0.00024885209765837,0.00024885209765837,0.00024885209765837,2151626.0829672,0.016389041607695
8726400,0.94491764986156,0.015894623149149,0.0056061721885074,0.0056061984721546,0.0046822524884869,-0.001436129524851,0.0014359227898744,-7.1365949294761e-06,6.9108162133837e-06,-3.4689604691805e-07,1.9869554022434e-07,-0.0014958291299504,0.0014907817199397,-0.0014911799582991,0.001495408263382,-0.0014957094578864,0.0014909357632711,-0.0014909814561232,0.0014956477370274,-0.0013138872463745,0.0012999502570788,-0.0013000173036111,0.0013138121876919,5.0402309608674e-07,-3.8185729840974e-08,4.9614692893524e-07,5.946038884548e-08,-0.0014357795818628,0.0014362870253796,-0.0014929225704909,0.0014937419527435,-0.001493032031937,0.001493589726444,-0.0014930437900667,0.0014935373359089,-0.001493227545153,0.0014933698615911,-0.0013064702097418,0.0013072858989549,-0.0013069472596104,0.0013068875083181,-0.0014326489929021,0.0014335235657398,-0.0014332110745262,0.0014328744409483,7.5341166282975e-06,-6.5406980781896e-06,-0.0010540762321574,0.0010550605303557,2.8285877240272e-07,7.19936139671e-07,-0.0010914451074251,0.0010969533647508,-0.0010912488443741,0.0010970979024984,-0.0010961201945331,0.0010922661962199,-0.0010959914791351,0.0010923893401349,-0.0011458241524829,0.0011330904150959,-0.0011319181417967,0.0011469145728313,0.003987154530983,0.0038066407094768,0.72617462840046,1473840,32975,0.0059653264035598,0.0059653555752107,0.0043855940437014,41.814870985009,0.00024971896788007,0.00024971896788007,0.00024971896788007,2139374.7100424,0.016450247958527
8812800,0.94876401566071,0.015954132167519,0.0056277938240447,0.0056278201013741,0.0046985182421003,-0.0014421405066927,0.0014419504687224,-7.1607810233303e-06,6.9508190944109e-06,-3.6226032488414e-07,2.3338331445665e-07,-0.0015024518854541,0.0014973834706589,-0.0014977825645721,0.0015020303390218,-0.0015023172767517,0.001497553532289,-0.0014975660639509,0.0015022881231519,-0.0013185439261624,0.0013045737252003,-0.0013046073029901,0.0013185018064257,5.7963512089323e-07,-1.1855885438059e-08,5.5929401025664e-07,1.0171572951933e-07,-0.0014417474147199,0.0014423580516686,-0.0014994722996609,0.0015004172786491,-0.0014995874663319,0.0015002592920164,-0.0014996094297487,0.0015001982303109,-0.0014998022407748,0.0015000222744418,-0.0013110529626318,0.0013119792813515,-0.0013115546493658,0.0013115600154473,-0.0014386121022823,0.0014396322777889,-0.0014392239802742,0.0014389245708854,7.5767929563312e-06,-6.5634447732165e-06,-0.001055513670938,0.0010565158799865,2.8108241781231e-07,7.3943291952046e-07,-0.001093488768208,0.0010990281438626,-0.0010932854079544,0.0010991812174996,-0.0010981858328903,0.0010943198468521,-0.0010980494181755,0.0010944521713407,-0.0011482073497923,0.0011354344522014,-0.0011342331661521,0.0011493237206378,0.0039973975845769,0.0038178850177299,0.71961928912256,1473840,32975,0.0059902499708693,0.0059902795530423,0.004391623608022,41.923229659516,0.00025058583727612,0.00025058583727612,0.00025058583727612,2127801.1725289,0.01650704909566
8899200,0.95235059183006,0.016009414699219,0.0056478786912286,0.0056479049689954,0.0047136310389948,-0.0014470293165855,0.0014467677198773,-7.1925143469598e-06,6.9114899723999e-06,-3.8049653765265e-07,1.7776689957424e-07,-0.0015082555329998,0.0015031304920659,-0.0015035875623529,0.0015077759417989,-0.0015081317671825,0.0015032885814841,-0.0015033851237383,0.0015080194449887,-0.0013217036225787,0.0013076600451605,-0.0013077779937333,0.0013215775729753,5.1046554291328e-07,-4.4863693450652e-08,5.0226936615978e-07,5.3136507379997e-08,-0.0014466520659462,0.001447159336359,-0.0015053063557913,0.0015061338278221,-0.001505419942445,0.0015059774055662,-0.001505431530402,0.001505924896539,-0.0015056193029679,0.00150575331958,-0.0013142288812937,0.001315052259294,-0.0013147182859644,0.001314641866575,-0.001443266257344,0.0014441494197886,-0.0014438409981864,0.0014434870760439,7.5622820929397e-06,-6.5697371286754e-06,-0.001056558867596,0.0010575421552993,2.7618255611237e-07,7.2558897829548e-07,-0.0010948130253336,0.0011003351029267,-0.001094612763896,0.0011004839253315,-0.00109950735969,0.0010956292524371,-0.0010993745309621,0.0010957564962427,-0.001150172424564,0.0011373859793249,-0.001136210008734,0.0011512657837231,0.0040039046177027,0.0038278450457175,0.71680618133864,1473840,32975,0.0060103445944171,0.006010373913906,0.004395943823679,41.925660260788,0.00025060528208631,0.00025060528208631,0.00025060528208631,2127517.0510279,0.016552296286634
8985600,0.95567270779292,0.016060694224132,0.0056664971901049,0.0056665234641451,0.0047276735698819,-0.0014515834617815,0.0014513904247892,-7.1417003879832e-06,6.9289866455289e-06,-3.6297740457737e-07,2.2855787376261e-07,-0.0015134750579965,0.0015084188298503,-0.0015088183146798,0.0015130532911194,-0.0015133394176037,0.00150858794191,-0.0015086047005391,0.0015133075820617,-0.0013248406791561,0.0013109087415274,-0.001310947944337,0.0013247939768667,5.1920259285976e-07,-6.8901594723518e-08,5.0861121968677e-07,3.1789037658514e-08,-0.0014512481048347,0.0014517403331134,-0.001510557567316,0.0015113904564442,-0.0015106802958272,0.0015112248245494,-0.0015106941146477,0.0015111705919769,-0.0015108911196257,0.0015109899140936,-0.00131742147203,0.0013182464581504,-0.0013179381085032,0.0013178089219906,-0.0014477694692558,0.0014486597583299,-0.0014483760805614,0.001447964601225,7.553019099466e-06,-6.5458913534249e-06,-0.001057259039875,0.001058256629969,2.6954482399483e-07,7.4653076674834e-07,-0.0010959469530167,0.0011014629791516,-0.0010957377233498,0.0011016208525704,-0.0011006301305416,0.0010967680664147,-0.0011004880663097,0.0010969046239059,-0.001151712074631,0.0011389810833909,-0.0011377806945219,0.0011528283281591,0.0040093355805557,0.003836578091314,0.71784138570249,1473840,32975,0.0060293422224477,0.0060293719278211,0.0043989031931132,41.804248516174,0.00024963398812939,0.00024963398812939,0.00024963398812939,2119346.9137744,0.016593932575878
9072000,0.95874906933955,0.016108118284035,0.0056837097602928,0.0056837360334106,0.0047406724903321,-0.0014561543713203,0.001455984070654,-7.1253272254244e-06,6.9356978703955e-06,-3.770356429649e-07,2.6567184956226e-07,-0.00151846205767,0.0015134143921709,-0.0015138084879768,0.0015180456045881,-0.0015183103544524,0.0015136008633272,-0.0015135781279732,0.0015183174104231,-0.0013282700820946,0.0013143883489289,-0.001314386955604,0.0013282636292789,5.3101415971066e-07,-1.0831714354412e-07,5.1893642059906e-07,-6.0384534581124e-09,-0.0014558439482296,0.0014563087760181,-0.001515546374314,0.0015163847092463,-0.0015156848342651,0.0015162029901736,-0.0015156994513766,0.001516147722956,-0.0015159121583873,0.0015159507522535,-0.0013208751349307,0.0013217023471437,-0.0013214382092816,0.0013212169095981,-0.0014524687438089,0.0014533660446958,-0.0014531255759128,0.001452621334799,7.5580978212768e-06,-6.5313410284077e-06,-0.0010578445492502,0.0010588621226505,2.558113602926e-07,7.809014175502e-07,-0.0010970871393924,0.0011026040088074,-0.0010968618570544,0.0011027780382268,-0.0011017671963362,0.0010979121433462,-0.00110160922858,0.0010980646919243,-0.0011531402422355,0.0011404553989852,-0.0011392200449513,0.0011542931346086,0.0040147195781021,0.0038441411252806,0.71683842076659,1473840,32975,0.0060483132504275,0.0060483423978186,0.0044014009104695,41.675086786477,0.00024860069429181,0.00024860069429181,0.00024860069429181,2103578.9245263,0.016635046592421
9158400,0.96159829024513,0.016151972051432,0.005699622452006,0.0056996487210598,0.0047527008783658,-0.0014602089831283,0.0014600056986887,-7.1257620384232e-06,6.9033461120349e-06,-3.5409773813993e-07,2.0917077639088e-07,-0.0015229995456069,0.0015179558959628,-0.0015183565382659,0.0015225764535424,-0.001522873833787,0.0015181157772206,-0.0015181522422781,0.0015228217437655,-0.0013311552729389,0.0013172458470527,-0.0013173035497696,0.0013310898229837,5.0545205917156e-07,-5.4509893521361e-08,4.6953038843343e-07,7.102281915195e-08,-0.0014598681933607,0.0014603607620254,-0.0015201056431628,0.0015209033786803,-0.0015202025554747,0.0015207640159116,-0.0015202327305578,0.0015206929380318,-0.0015204039209308,0.00152053832602,-0.0013237812116849,0.0013245386160693,-0.001324220969733,0.0013241777461983,-0.001456524325474,0.0014574139829744,-0.0014571038810905,0.00145674798632,7.5143765851254e-06,-6.543289414052e-06,-0.0010583012442428,0.0010592632057285,2.9070950442178e-07,6.8965774438831e-07,-0.0010979632025262,0.0011034561947582,-0.0010977800130295,0.0011035882789145,-0.0011026327333271,0.0010987749171411,-0.0011025168064126,0.0010988854977319,-0.0011543926896991,0.0011416414766911,-0.0011405042284519,0.0011554483598101,0.0040184576064286,0.0038506296098644,0.71554036643517,1473840,32975,0.006065031152431,0.0060650602828148,0.0044032044844424,41.545185854987,0.0002475614868399,0.0002475614868399,0.0002475614868399,2092461.6323759,0.016670875259638
9244800,0.96423769170334,0.016192529074025,0.0057143346886507,0.005714360953797,0.0047638334315777,-0.0014639030961749,0.0014637064052621,-7.1367470265499e-06,6.9209943584076e-06,-3.4866976813198e-07,2.1017388685391e-07,-0.0015271884114658,0.0015221432976577,-0.0015225359065292,0.0015267734504631,-0.0015270641495724,0.0015223017104798,-0.0015223330547231,0.0015270172366034,-0.0013337456826356,0.0013198134363219,-0.0013198660015769,0.0013336855635297,5.0652403174708e-07,-4.8888062697095e-08,4.7690181778365e-07,7.0312061318041e-08,-0.0014635622685852,0.0014640615000757,-0.0015242898865557,0.0015250954267596,-0.0015243894101406,0.0015249533757013,-0.0015244155301612,0.0015248865313843,-0.0015245893377739,0.0015247292117859,-0.0013263523227443,0.0013271258187045,-0.0013267998675792,0.0013267568685487,-0.0014602215041677,0.0014611106738814,-0.0014607967578541,0.0014604493593197,7.5279167455268e-06,-6.5586066793733e-06,-0.0010586082337214,0.0010595684673243,2.8591185432117e-07,6.9283507254823e-07,-0.001098664451174,0.0011041626839153,-0.0010984786325959,0.00110429743681,-0.0011033435714951,0.0010994717459478,-0.0011032250037836,0.001099585002096,-0.0011554595684209,0.0011426810704689,-0.0011415430651684,0.0011565162490832,0.0040211844980031,0.0038561339520036,0.71424966669843,1473840,32975,0.0060803381197547,0.0060803672347956,0.0044044974282703,41.415209424214,0.00024652167539371,0.00024652167539371,0.00024652167539371,2082274.2371358,0.01670331683276
9331200,0.96668329238339,0.0162300454607,0.0057279400496805,0.0057279663112513,0.0047741390997685,-0.0014673071523059,0.001467122252952,-7.1343380380945e-06,6.9302593091903e-06,-3.6342239624154e-07,2.3696019682466e-07,-0.0015310645664989,0.0015260152175449,-0.0015264098260996,0.0015306476805061,-0.0015309266840123,0.00152618750255,-0.0015261933883486,0.0015309053208592,-0.0013360886008217,0.0013221751078845,-0.0013222022148658,0.0013360540050995,5.1951306881046e-07,-7.7476999018671e-08,4.8340557040209e-07,4.8468132490719e-08,-0.0014669798907876,0.0014674637731869,-0.0015281601900529,0.0015289736128967,-0.0015282690457681,0.0015288220592604,-0.0015282994451315,0.0015287508377059,-0.0015284825644146,0.0015285840243813,-0.0013287053188238,0.0013294774165519,-0.0013291805313109,0.0013290805328507,-0.0014636245076068,0.0014645295564724,-0.0014642403752559,0.001463827138608,7.5370453083188e-06,-6.5565399735009e-06,-0.0010588054359144,0.0010597768501967,2.7747699651258e-07,7.1264236949544e-07,-0.0010992388301767,0.0011047411187703,-0.0010990436498396,0.0011048852947826,-0.0011039203327045,0.0011000478842393,-0.0011037923544559,0.0011001705363171,-0.0011563640982577,0.0011435993489819,-0.0011424405820376,0.0011574412354651,0.0040230766418405,0.0038607387353873,0.71296598238553,1473840,32975,0.0060944546575451,0.0060944837542408,0.0044053606442477,41.285225150825,0.0002454818012066,0.0002454818012066,0.0002454818012066,2072409.3800686,0.016732901681782
9417600,0.96894988856874,0.016264757883748,0.0057405250564113,0.0057405513147832,0.0047836815125537,-0.001470455083785,0.001470262126624,-7.1401600301784e-06,6.9280320332372e-06,-3.5552400543554e-07,2.2081317051598e-07,-0.0015346482983524,0.0015295977125765,-0.0015299923767158,0.0015342313907174,-0.0015345182824822,0.0015297619517885,-0.0015297838058739,0.0015344809713815,-0.0013382419620536,0.0013243089031987,-0.0013243520291056,0.0013381912962049,5.1230570345119e-07,-6.0622041451775e-08,4.9138180154194e-07,4.9906727957615e-08,-0.0014701190550645,0.0014706124083216,-0.0015317414272914,0.0015325584456098,-0.001531852403934,0.0015324047449468,-0.001531872788851,0.0015323437327801,-0.0015320580542223,0.0015321747620176,-0.0013308369494666,0.0013316328758334,-0.0013313185701872,0.0013312295500373,-0.001466778290173,0.0014676671723435,-0.0014673706918932,0.0014669885871721,7.5396215851761e-06,-6.5577465828445e-06,-0.0010589169380062,0.0010598897139768,2.7492202974312e-07,7.1661270725693e-07,-0.001099701455644,0.001105204196853,-0.0010995041671738,0.0011053505808128,-0.0011043842305072,0.0011005097081003,-0.0011042541181158,0.0011006345502666,-0.0011571480787318,0.0011443832844325,-0.0011432209700204,0.0011582288228179,0.0040242110069286,0.0038645220513092,0.71168889586132,1473840,32975,0.0061074694694525,0.0061074985537515,0.0044058469429308,41.155240056122,0.00024444192044897,0.00024444192044897,0.00024444192044897,2062877.332854,0.016759863649023
9504000,0.97105114050726,0.016296884456939,0.005752169418862,0.0057521956742677,0.0047925193638093,-0.0014733612292571,0.0014731514019237,-7.1371809545611e-06,6.9082099917611e-06,-3.4195361252407e-07,1.9004620376181e-07,-0.0015379589817358,0.0015329139079272,-0.0015333106861586,0.0015375400068476,-0.0015378434892579,0.001533063322441,-0.0015331166473635,0.0015377747522127,-0.0013401981016016,0.0013262557889853,-0.0013263305115857,0.0013401158630183,4.9898919114603e-07,-2.958886495531e-08,5.0374402172889e-07,5.493992055683e-08,-0.0014730080489925,0.0014735188356589,-0.0015350522008947,0.0015358742993156,-0.0015351655774286,0.0015357181615118,-0.0015351690228485,0.0015356744228946,-0.0015353566959083,0.001535503022355,-0.001332768929319,0.0013336042118174,-0.0013332576690104,0.0013331936478083,-0.0014696925210492,0.0014705530676822,-0.0014702416842789,0.001469918351594,7.5291352527987e-06,-6.5455621932501e-06,-0.0010589488569942,0.0010599233310418,2.7215295596977e-07,7.2115531243175e-07,-0.001100067160934,0.0011055615869361,-0.0010998674723204,0.0011057104437038,-0.0011047423880761,0.0011008746580125,-0.0011046098551454,0.001101001956548,-0.0011578044087862,0.001145066022235,-0.0011438996039802,0.0011588893703375,0.0040246580568723,0.003867555790227,0.71041796749566,1473840,32975,0.006119464823288,0.0061194939095692,0.0044060027927359,41.025254872351,0.0002434020389788,0.0002434020389788,0.0002434020389788,2053684.7305098,0.016784417086246
9590400,0.97299965506686,0.016326626126697,0.0057629465459028,0.0057629727986591,0.0048007067821346,-0.0014760285914976,0.0014758237977197,-7.1310328846836e-06,6.907039637249e-06,-3.4399204442804e-07,1.9718761956825e-07,-0.0015410202415232,0.0015359795795789,-0.0015363743275834,0.0015406031995881,-0.0015409016691356,0.0015361320174249,-0.0015361772972855,0.0015408410256779,-0.001341965594045,0.0013280384447177,-0.0013281051492117,0.0013418913102825,5.0151883827987e-07,-3.6238126645429e-08,4.7059817168362e-07,8.3916895557914e-08,-0.0014756799834727,0.001476186656771,-0.0015381263639481,0.0015389268348595,-0.0015382193715772,0.0015387914937441,-0.0015382462113604,0.0015387238894727,-0.0015384135052267,0.0015385732847581,-0.0013345777072451,0.0013353448384711,-0.001335005966216,0.0013349955445991,-0.0014723527052423,0.0014732388659991,-0.00147291072921,0.0014725950534147,7.5141934941284e-06,-6.5533161776279e-06,-0.0010589235198778,0.0010598752458757,2.9152260574397e-07,6.7860049512633e-07,-0.0011003406195457,0.0011058306519608,-0.0011001616031706,0.0011059589302515,-0.0011050134770734,0.0011011461366229,-0.0011049015625474,0.0011012528490273,-0.0011583891530479,0.0011456145863836,-0.001144491377956,0.001159430705462,0.0040244822781082,0.0038699061047381,0.70915276415175,1473840,32975,0.0061305167860188,0.0061305458674569,0.0044058694450867,40.895269676165,0.00024236215740932,0.00024236215740932,0.00024236215740932,2044834.0239963,0.01680675843906
9676800,0.97479954228967,0.016354054214351,0.0057728828615249,0.0057729091118331,0.0048082622409926,-0.0014783147434223,0.0014781100923563,-7.1236388685059e-06,6.8997304235328e-06,-3.5549216881932e-07,2.0894969143618e-07,-0.0015436799293643,0.0015386366192619,-0.0015390389268157,0.0015432553485644,-0.0015435537384168,0.0015387968331249,-0.0015388342740211,0.001543500939223,-0.0013434014616711,0.0013294966239974,-0.0013295554613467,0.0013433351514142,5.0821449820863e-07,-5.2859814429424e-08,4.7102076300304e-07,7.375139648358e-08,-0.0014779710870533,0.0014784680009285,-0.0015407841124579,0.001541586047098,-0.001540880587066,0.001541447174141,-0.0015409115274953,0.0015413753352223,-0.0015410822915746,0.0015412211848032,-0.0013360284703223,0.0013367885301976,-0.0013364670056242,0.0013364287572295,-0.0014746342644025,0.0014755298564289,-0.0014752151442584,0.0014748631463933,7.5083281478392e-06,-6.544589625538e-06,-0.0010586868826273,0.0010596414905586,2.8775686262743e-07,6.8535483190968e-07,-0.0011003945278806,0.0011058790632543,-0.001100212050002,0.0011060108766568,-0.0011050625803479,0.0011011994653181,-0.0011049471719232,0.0011013096817728,-0.001158705088614,0.0011459512037692,-0.0011448216546942,0.001159753010242,0.0040230662312047,0.0038715957145378,0.70789658249028,1473840,32975,0.0061399801450417,0.0061400092293108,0.0044049115122989,40.684089161212,0.0002406727132897,0.0002406727132897,0.0002406727132897,2036086.8888128,0.016825031052329
9763200,0.97645563933093,0.01637931287482,0.0057820290936181,0.0057820553417921,0.0048152284394101,-0.0014802247762493,0.0014800055236141,-7.1269343834434e-06,6.8883246566128e-06,-3.5069137718711e-07,1.8943613930814e-07,-0.0015459312635553,0.0015408842455979,-0.0015412929679658,0.0015455003285295,-0.0015458130231858,0.001541036342697,-0.0015410965006746,0.0015457377100557,-0.001344533986968,0.0013306142819817,-0.001330695954221,0.001344444510522,5.0311103082419e-07,-3.3664372953058e-08,4.8908220438964e-07,6.9488649298301e-08,-0.001479866872303,0.0014803776526285,-0.0015430269711268,0.0015438420787417,-0.001543130853563,0.0015436956201248,-0.0015431464424259,0.0015436395385607,-0.0015433245562052,0.0015434779839328,-0.0013371313865369,0.0013379349590206,-0.0013375916666353,0.0013375533217023,-0.0014765474245653,0.0014774258331317,-0.0014771043042264,0.0014767829634576,7.5082595739008e-06,-6.5366477732466e-06,-0.0010582522754723,0.001059214570848,2.8050697035725e-07,7.0034496394726e-07,-0.0011002260077201,0.0011057079721134,-0.0011000361107726,0.0011058471940853,-0.0011048913012193,0.0011010310390079,-0.0011047684219159,0.0011011486659388,-0.0011587856623875,0.0011460550826897,-0.0011449099289476,0.0011598486661324,0.0040204118257766,0.0038726679901618,0.70839618710859,1473840,32975,0.0061478556497352,0.0061478846786295,0.0044031410652716,40.385458950143,0.00023828367160114,0.00023828367160114,0.00023828367160114,2027364.5973637,0.016839248380323
9849600,0.97798035342468,0.016402586754712,0.0057904527832693,0.0057904790292839,0.004821654942159,-0.0014820867370999,0.0014818948533239,-7.10681254659e-06,6.8956061510516e-06,-3.5216610893642e-07,2.1835203972217e-07,-0.0015480116536353,0.0015429862879034,-0.001543377779385,0.0015475980443928,-0.0015478835808173,0.0015431484658339,-0.0015431712831153,0.0015478455993959,-0.0013457538550179,0.0013318841670237,-0.0013319283845269,0.0013457023233279,5.1999351488598e-07,-4.6946193518572e-08,4.990145177182e-07,6.3629863889321e-08,-0.0014817405995471,0.0014822552374373,-0.0015451087989383,0.0015459429306952,-0.0015452178326544,0.0015457912987264,-0.001545238205583,0.0015457303046533,-0.0015454215217605,0.0015455634829582,-0.0013383717082885,0.0013391849561591,-0.0013388474886099,0.00133878757276,-0.0014785093161286,0.0014794158036977,-0.0014790959721376,0.001478743170787,7.5035061726147e-06,-6.5286821236157e-06,-0.0010577986694078,0.001058764311269,2.7437353420451e-07,7.0997352383566e-07,-0.00110009076703,0.0011055666155483,-0.0010998955493091,0.0011057110139032,-0.0011047517685789,0.0011008939297689,-0.0011046236306012,0.0011010166880958,-0.001158831400503,0.0011461214951504,-0.001144968154009,0.0011599029801205,0.0040177662733401,0.0038731842235006,0.70888742541245,1473840,32975,0.0061556186248612,0.0061556476986993,0.0044012835469981,40.081360169871,0.00023585088135896,0.00023585088135896,0.00023585088135896,2015634.9019899,0.016853148778133
9936000,0.97938534141075,0.016424044802778,0.0057982162106161,0.0057982424548017,0.0048275861373603,-0.001483766911657,0.0014835880157951,-7.091591732961e-06,6.8934750968802e-06,-3.5024542154405e-07,2.2940293873912e-07,-0.0015498918770178,0.0015448821201301,-0.0015452639598053,0.0015494882637535,-0.0015497607298857,0.0015450474277691,-0.001545054301382,0.0015497388865493,-0.0013468343926022,0.0013329977386374,-0.0013330261578797,0.0013467992281411,5.1445817786912e-07,-6.1665611682671e-08,5.0038316115231e-07,4.1880964083413e-08,-0.0014834373717987,0.0014839317852727,-0.0015470017272338,0.00154782637037,-0.001547118101092,0.0015476670420199,-0.0015471342284651,0.0015476106552165,-0.0015473248638541,0.0015474360853607,-0.0013394693738913,0.0013402818918656,-0.00133996760902,0.0013398616867773,-0.001480301288474,0.0014811888058224,-0.0014808969451847,0.0014805072508098,7.4803995544892e-06,-6.5345373788102e-06,-0.0010573189345828,0.0010582559831751,2.4885528806842e-07,7.0720014230262e-07,-0.0010999089966184,0.0011053431317254,-0.0010997063725694,0.0011054951693921,-0.0011045642659445,0.0011006761880845,-0.0011044287163659,0.0011008065703936,-0.001158816830423,0.0011461025685784,-0.0011449705758918,0.0011598672159308,0.0040146408024064,0.0038732008423554,0.70914385583322,1473840,32975,0.0061625992193688,0.006162628258963,0.004399250391438,39.776741396637,0.00023341393117309,0.00023341393117309,0.00023341393117309,2004489.7543464,0.016865279408662
10022400,0.98068117394306,0.016443848345506,0.0058053782632968,0.0058054045057349,0.0048330655764746,-0.0014852663059238,0.0014850756061315,-7.0943267645746e-06,6.8843517714631e-06,-3.5699369251736e-07,2.2437297045209e-07,-0.0015515918198917,0.0015465718648306,-0.0015469658499866,0.0015511757429003,-0.0015514601481037,0.0015467376886172,-0.0015467556872042,0.0015514269313187,-0.0013477675974506,0.0013339259692981,-0.0013339652150588,0.0013477208067279,5.1897919776985e-07,-5.8911555860554e-08,4.9910001098473e-07,5.0518746206922e-08,-0.0014849272052842,0.0014854289460655,-0.0015486941313331,0.0015495234460076,-0.001548807436,0.0015493674496679,-0.001548827117836,0.0015493071729251,-0.0015490147194253,0.0015491359074442,-0.0013404015615127,0.0013412111083881,-0.0013408900465022,0.0013408007561164,-0.0014818683459172,0.0014827682084117,-0.0014824658820991,0.0014820849999248,7.4940214848591e-06,-6.5146211355672e-06,-0.0010567688160926,0.0010577390497456,2.7016180092443e-07,7.1898124177024e-07,-0.0010996208971528,0.0011050891008338,-0.0010994214205625,0.0011052380262433,-0.0011042741765174,0.0011004242767501,-0.0011041417464906,0.001100551532133,-0.0011587120659947,0.0011460343896977,-0.0011448720305429,0.0011597927876556,0.0040110257158141,0.0038727710434472,0.70947160337209,1473840,32975,0.0061687801143607,0.0061688091739332,0.0043970522437941,39.472069706562,0.0002309765576525,0.0002309765576525,0.0002309765576525,1994283.4471156,0.016875615914509
10108800,0.98187741082356,0.016462142834465,0.0058119920041099,0.0058120182450838,0.0048381325852713,-0.0014866078986776,0.0014864278971462,-7.0860886325163e-06,6.8868077744821e-06,-3.5741770569393e-07,2.355329078353e-07,-0.0015531174081762,0.0015481061861818,-0.0015484934030618,0.0015527081422715,-0.0015529818236725,0.0015482758946532,-0.0015482793551698,0.0015529632229102,-0.0013485824319066,0.0013347610201327,-0.0013347857284367,0.0013485501854085,5.1664589539558e-07,-7.2869386314885e-08,4.9046339516489e-07,4.279768533859e-08,-0.0014862822936748,0.001486767752192,-0.0015502304664841,0.0015510471049837,-0.0015503434269527,0.0015508914153389,-0.0015503673047945,0.0015508269305335,-0.0015505545769636,0.0015506559489436,-0.0013412369813257,0.0013420254954988,-0.0013417247327892,0.0013416160786851,-0.0014832987073325,0.0014841939589685,-0.0014839075545598,0.0014834992549577,7.4890481391451e-06,-6.5139119499399e-06,-0.0010562092680641,0.0010571752446248,2.6848528346377e-07,7.1635421389743e-07,-0.0010993105488226,0.0011047729663789,-0.0010991114861667,0.0011049216236068,-0.0011039619288662,0.0011001100306796,-0.0011038298499616,0.0011002370086735,-0.0011585709796753,0.0011458943965066,-0.0011447365770208,0.0011596471676846,0.0040070676762297,0.0038719426890012,0.70986525474939,1473840,32975,0.0061743542909666,0.006174383373002,0.0043947365346055,39.167392532247,0.00022853914025797,0.00022853914025797,0.00022853914025797,1984392.359741,0.016884598964928
10195200,0.98298270036866,0.016479059844165,0.005818105441871,0.0058181316815819,0.0048428227207124,-0.0014878070294267,0.0014875879305427,-7.0986770609979e-06,6.8582458727884e-06,-3.7934455107171e-07,2.2195941172932e-07,-0.0015544407329691,0.0015493920156995,-0.001549820904486,0.001553984085732,-0.0015543049416848,0.0015495648304408,-0.0015496009245316,0.0015542447088823,-0.0013494622380896,0.0013356120852406,-0.0013356660634859,0.0013493873811544,5.1827551742695e-07,-7.6849302604527e-08,5.0267135051402e-07,2.679085800034e-08,-0.0014874615383377,0.0014879452354188,-0.0015515282145118,0.0015523552441268,-0.0015516491962189,0.0015521875646684,-0.0015516627655984,0.0015521335765434,-0.0015518581898218,0.001551944390023,-0.0013420835501453,0.0013428981874634,-0.00134259884661,0.001342454807981,-0.0014845357563855,0.0014854238362668,-0.0014851438335003,0.0014847186394218,7.480569319483e-06,-6.5030885348036e-06,-0.0010556733746389,0.0010566457261386,2.5492638388702e-07,7.3284936998903e-07,-0.0010990692311224,0.0011045210164265,-0.0010988626507136,0.0011046807213741,-0.0011037144344069,0.0010998667945018,-0.0011035704169298,0.0011000122329302,-0.0011582829983599,0.0011456493378374,-0.0011444714766152,0.0011593774483376,0.0040027848284559,0.0038707589724204,0.71032017547334,1473840,32975,0.0061792352017748,0.006179259239049,0.0043925393761891,38.862714854695,0.00022610171883756,0.00022610171883756,0.00022610171883756,1973815.7276898,0.016892287431051
10281600,0.9840048712448,0.016494718232094,0.0058237617056001,0.0058237879301293,0.0048471685963643,-0.0014889167871898,0.0014887233594576,-7.0769631467389e-06,6.8641765632375e-06,-3.6624861307413e-07,2.3100424642991e-07,-0.0015557390604664,0.0015507235957384,-0.0015511256771639,0.0015553149886219,-0.001555602102616,0.0015508947360867,-0.0015509101578577,0.0015555715245515,-0.0013499410816087,0.0013361386441576,-0.0013361753336233,0.0013498969004093,5.1788661524222e-07,-7.5985045651337e-08,5.0578091180153e-07,2.5641821614142e-08,-0.0014885853721899,0.0014890690248901,-0.0015528449021991,0.0015536719121108,-0.0015529685143316,0.0015535053689481,-0.0015529830315052,0.0015534503273587,-0.0015531809976803,0.0015532684444237,-0.0013425911865313,0.001343408275089,-0.0013431102750889,0.0013429665760654,-0.0014857691912441,0.0014866560384495,-0.0014863823771306,0.0014859571539555,7.4788698758555e-06,-6.4924265046746e-06,-0.0010550110975973,0.0010559884438714,2.5813261625335e-07,7.3840116002454e-07,-0.0010985816953676,0.001104034060704,-0.0010983719034004,0.0011041935460869,-0.0011032226351366,0.001099381758881,-0.001103079769068,0.0010995195463631,-0.0011581233280755,0.0011454998587405,-0.0011443199217111,0.0011592216503017,0.0039982748908892,0.0038692588055401,0.71083234319496,1473840,32975,0.0061838810117922,0.0061839100961367,0.004389816158882,38.558036958772,0.00022366429567018,0.00022366429567018,0.00022366429567018,1965516.2612256,0.016898973100088
10368000,0.98495101511722,0.016509225648626,0.0058290004868565,0.0058290267104229,0.0048511984513471,-0.0014899007798267,0.0014896927407447,-7.0820579572602e-06,6.8545201362315e-06,-3.6646883985238e-07,2.1654759467555e-07,-0.0015568570212132,0.0015518333482285,-0.0015522452415276,0.0015564231699529,-0.001556724726634,0.001551999686274,-0.0015520343383628,0.0015566749575451,-0.0013505073105188,0.0013366897728443,-0.0013367460457572,0.0013504436640703,5.1344650365811e-07,-6.6219036321012e-08,5.161646441069e-07,2.0387407415639e-08,-0.0014895594735995,0.001490048297,-0.0015539559904887,0.0015547885428096,-0.0015540846964978,0.0015546167866782,-0.0015540893868068,0.001554571720195,-0.0015542924866823,0.0015543845985438,-0.0013431371523067,0.0013439794731172,-0.0013436717317154,0.0013435224122983,-0.0014868353248454,0.0014877084400057,-0.0014874346930508,0.0014870233847106,7.4784570137531e-06,-6.4884021739658e-06,-0.0010543845812367,0.0010553655259767,2.5216270457382e-07,7.4803494217516e-07,-0.0010981704407609,0.0011036196820245,-0.0010979554876017,0.0011037844249836,-0.0011028099248481,0.001098968933304,-0.0011026618795117,0.0010991119353108,-0.0011578456901792,0.00114523535483,-0.0011440464199593,0.001158952563188,0.0039935069365334,0.0038674773263376,0.71139823788239,1473840,32975,0.0061879223904922,0.0061879514743857,0.0043872368537036,38.253359111488,0.0002212268728919,0.0002212268728919,0.0002212268728919,1956505.7684729,0.016904570630414
10454400,0.98583387002441,0.016522775702909,0.0058338917457481,0.0058339179684299,0.0048549659887306,-0.0014910397210065,0.0014908622338466,-7.0624557861679e-06,6.8656462444576e-06,-3.5510886302784e-07,2.3568120417003e-07,-0.0015581206641601,0.0015531276698689,-0.0015535116449991,0.0015577146549819,-0.001557985784723,0.0015532966045271,-0.0015532982267321,0.0015579690230243,-0.0013512409871311,0.0013374650520796,-0.0013374880185548,0.0013512105452347,5.1631049306264e-07,-7.0993294364942e-08,4.9582821735807e-07,3.885851071051e-08,-0.0014907146179712,0.0014912015857902,-0.0015552408937996,0.0015560613976106,-0.001555356898961,0.0015559026309871,-0.0015553769563667,0.0015558419828854,-0.0015555673404952,0.0015556678637599,-0.0013439126649757,0.0013447124787166,-0.0013444094567646,0.0013442937653694,-0.0014880682168645,0.0014889598222798,-0.0014886750184296,0.001488267301826,7.4679593339888e-06,-6.4904635398582e-06,-0.0010539780177209,0.0010549463560355,2.6505480932175e-07,7.2224515230342e-07,-0.0010979626643583,0.0011034094575839,-0.0010977605985553,0.0011035613151187,-0.0011025992496362,0.0010987614140746,-0.00110246410879,0.0010988915781969,-0.0011577919099367,0.0011451644445679,-0.0011440011326039,0.0011588735225517,0.0039896351305276,0.0038654783842876,0.71201273672135,1473840,32975,0.0061926989461016,0.0061927280280516,0.0043855362036361,38.084965923735,0.00021987972738988,0.00021987972738988,0.00021987972738988,1948175.6818924,0.016912556850289
10540800,0.98666394177841,0.016535464679397,0.0058384724436819,0.0058384986655327,0.0048584935701821,-0.0014923867036361,0.001492194342797,-7.0672276505356e-06,6.8552837682231e-06,-3.5532423488947e-07,2.2105744620807e-07,-0.0015595828641688,0.0015545821722473,-0.0015549760142107,0.0015591672682658,-0.0015594529974175,0.001554746081174,-0.0015547677027028,0.0015594168236756,-0.0013522000835253,0.0013384094521494,-0.0013384528007731,0.0013521496018673,5.5248717324116e-07,-1.9738198205976e-08,5.459005918537e-07,7.7024413183931e-08,-0.0014920103847536,0.0014925849737081,-0.0015566563100028,0.0015575627748862,-0.0015567761414,0.0015574001196832,-0.0015567872738458,0.0015573488631647,-0.001556981691509,0.0015571706652667,-0.0013448118780136,0.0013457168960109,-0.0013453213007043,0.0013452867201948,-0.001489460076999,0.0014904210181664,-0.0014900526274842,0.0014897423500403,7.4597941081621e-06,-6.4932407076971e-06,-0.001053776919759,0.0010547342193024,2.5355762593828e-07,7.2252419317539e-07,-0.0010979702193328,0.001103400374085,-0.0010977640117297,0.0011035558820197,-0.0011026050445374,0.0010987541091473,-0.0011024655939782,0.0010988879636585,-0.0011579275326244,0.0011452984132964,-0.0011441411908659,0.0011590018281321,0.0039866746489581,0.0038632971619043,0.70913079024684,1473840,32975,0.006198242913312,0.0061982721262569,0.0043846910524233,38.051797323143,0.00021961437858515,0.00021961437858515,0.00021961437858515,1940563.1933633,0.01692297404589
10627200,0.98744476483899,0.016547383948317,0.005842774761517,0.0058428009827255,0.0048618082040746,-0.0014933491317234,0.0014931434589396,-7.0721894620069e-06,6.8471626321995e-06,-3.4428757827181e-07,1.96390765846e-07,-0.001560853189167,0.0015558516400694,-0.001556246922472,0.0015604355499277,-0.0015607346371352,0.001556003723214,-0.0015560500261205,0.0015606732325057,-0.0013526111907128,0.001338798906971,-0.0013388667224852,0.0013525358092172,5.0033635394486e-07,-3.6927793945008e-08,4.1530437465711e-07,1.3706134808393e-07,-0.0014930010634305,0.0014935057771578,-0.0015579977129465,0.001558760033315,-0.0015580550730772,0.0015586610699027,-0.0015581173094789,0.0015585573788532,-0.0015582490531266,0.0015584430524095,-0.0013453345897231,0.0013459936094566,-0.0013456573343258,0.0013457511522402,-0.0014903463485066,0.0014912663734999,-0.0014909042769369,0.0014906232574627,7.4322644650023e-06,-6.5175451265416e-06,-0.0010535275483256,0.001054433004576,3.2211032602476e-07,6.0106727529115e-07,-0.0010977426630831,0.0011031834065516,-0.0010975999814397,0.0011032759945975,-0.0011023764102587,0.0010985382754633,-0.0011023006057443,0.0010986091397153,-0.0011580186147562,0.0011452774739444,-0.0011442363117776,0.0011589780578452,0.0039826314655565,0.0038609609655058,0.70805559987318,1473840,32975,0.006202198864347,0.0062022279483683,0.0043835571355587,38.027042455293,0.00021941633964234,0.00021941633964234,0.00021941633964234,1938920.4959957,0.016929866895244
10713600,0.98817930467379,0.01655857307239,0.0058468131347507,0.0058468393552515,0.0048649205823873,-0.0014944100629146,0.0014942111272954,-7.0645645029431e-06,6.846344721237e-06,-3.4259937002812e-07,2.0137354655229e-07,-0.0015621121348626,0.0015571190389489,-0.0015575087211408,0.0015617001753514,-0.0015619925158211,0.001557272235047,-0.0015573107411382,0.0015619389379292,-0.0013532283289293,0.0013394322631478,-0.0013394921980743,0.0013531609494714,5.0172338556061e-07,-3.8798877064379e-08,4.271970788883e-07,1.2474532776601e-07,-0.0014940655751927,0.0014945698506768,-0.0015592565717394,0.0015600276016777,-0.0015593218906432,0.0015599205205667,-0.0015593772926711,0.0015598238617945,-0.0015595169826984,0.0015597014270564,-0.0013459489196807,0.0013466301554102,-0.0013462951395355,0.001346363762156,-0.0014914169296949,0.0014923315546737,-0.0014919781379545,0.001491685364754,7.4319185134164e-06,-6.509505294098e-06,-0.0010532814386044,0.001054194624966,3.1406988900789e-07,6.1704708632378e-07,-0.001097625224111,0.0011030628498533,-0.0010974745492969,0.0011031634395095,-0.0011022561443472,0.0010984204895286,-0.001102172356357,0.0010984993513102,-0.0011580724940393,0.0011453552763108,-0.0011442985581334,0.0011590477539556,0.003979046244045,0.0038584822495549,0.70657682439605,1473840,32975,0.0062066037528153,0.006206632807579,0.0043825617592095,38.003082692313,0.0002192246615385,0.0002192246615385,0.0002192246615385,1934378.8614619,0.016937814199392
10800000,0.98887032062829,0.016569076643115,0.0058506038124016,0.0058506300322039,0.0048678427985099,-0.0014953737669415,0.0014951698387216,-7.0695216023981e-06,6.846243932179e-06,-3.4815698517653e-07,2.0200616804579e-07,-0.0015632917999559,0.0015582900460523,-0.0015586867570028,0.0015628728020918,-0.0015631701250861,0.0015584453204869,-0.0015584867557397,0.0015631136292262,-0.0013537515145385,0.0013399477336936,-0.0013400105608053,0.0013536810854865,5.0317102900129e-07,-4.3577376003252e-08,4.3012781594009e-07,1.1849391983231e-07,-0.0014950284370812,0.0014955294063816,-0.0015604310505721,0.0015612038663047,-0.0015604994091968,0.0015610937219339,-0.0015605537724445,0.0015609980597586,-0.0015606964838511,0.0015608725696872,-0.0013464663472006,0.0013471512001624,-0.0013468215622283,0.0013468758188036,-0.0014923614254461,0.0014932757678922,-0.0014929286719815,0.0014926234272546,7.4372525355227e-06,-6.5090998788801e-06,-0.0010530207757438,0.0010539396443755,3.123268439006e-07,6.2450533963049e-07,-0.0010974643013642,0.0011029061404235,-0.001097310590611,0.0011030098231343,-0.0011020968989643,0.0010982621859614,-0.0011020100388384,0.0010983441250012,-0.0011581061964208,0.0011453930393053,-0.0011443274296168,0.0011590902392334,0.0039752483483366,0.0038558747622486,0.7050324687837,1473840,32975,0.0062105819657188,0.0062106110245596,0.0043815009567382,37.979203343338,0.0002190336267467,0.0002190336267467,0.0002190336267467,1930660.9124688,0.016944827138124
10886400,0.9895204061392,0.016578935849579,0.0058541617163747,0.0058541879355344,0.0048705861976701,-0.0014962703088724,0.0014960627437123,-7.0687783145911e-06,6.8418466789961e-06,-3.4808750704571e-07,1.9827306850455e-07,-0.0015643966886187,0.0015593942571197,-0.0015597933678102,0.0015639753381184,-0.0015642762146894,0.0015595482642029,-0.0015595945744459,0.0015642148786312,-0.0013542181030807,0.0013404144684055,-0.0013404822983974,0.0013541428555844,4.9962484779044e-07,-4.3356868444842e-08,4.2645206490141e-07,1.1872921520312e-07,-0.0014959248503973,0.0014964224373964,-0.0015615385652979,0.0015623054479011,-0.0015616056234642,0.001562196613381,-0.0015616600353653,0.0015621008992741,-0.0015618014375301,0.0015619767194405,-0.0013469361584705,0.0013476149687802,-0.0013472874511626,0.0013473433646082,-0.0014932391671879,0.0014941477422434,-0.0014938026809219,0.0014934991793141,7.4323937680801e-06,-6.5088707020471e-06,-0.0010527579448254,0.0010536722423958,3.1201970153624e-07,6.2027089340109e-07,-0.0010972909245527,0.0011027278360939,-0.0010971385750211,0.0011028302445303,-0.0011019218526699,0.001098085596177,-0.0011018363285651,0.0010981662423884,-0.0011581236440734,0.0011454095611321,-0.0011443499019216,0.001159101726247,0.0039713521374625,0.003853151104945,0.70342888562763,1473840,32975,0.0062142849852731,0.0062143140388935,0.0043804094494404,37.955332263281,0.00021884265810624,0.00021884265810624,0.00021884265810624,1927188.0545302,0.016951249129823
10972800,0.99013200103559,0.016588189658576,0.0058575009678169,0.0058575271863889,0.0048731615043707,-0.0014970986469175,0.0014968984527006,-7.062529634854e-06,6.8430352602083e-06,-3.430611842216e-07,2.0052585419233e-07,-0.0015654295216517,0.0015604370744755,-0.0015608279009148,0.0015650164802438,-0.0015653099666898,0.0015605901553575,-0.0015606300483389,0.0015652550760206,-0.0013546296323878,0.0013408374900929,-0.0013408988353964,0.0013545609130084,5.012516297974e-07,-3.8886378922905e-08,4.2958684650637e-07,1.2171066736507e-07,-0.0014967538302752,0.0014972575042948,-0.0015625737825111,0.0015633458662926,-0.0015626408827994,0.0015632369851388,-0.0015626944061181,0.0015631422654014,-0.0015628358412645,0.0015630180457346,-0.0013473497775385,0.0013480357985379,-0.0013477012401261,0.0013477640193693,-0.0014940469168014,0.0014949587564156,-0.0014946077099393,0.001494313063904,7.4295101013436e-06,-6.5067499214461e-06,-0.0010524868909961,0.0010534004227662,3.1156717602752e-07,6.1997024429048e-07,-0.0010971006430284,0.0011025350666055,-0.0010969482393286,0.0011026375027659,-0.0011017298515154,0.0010978944447366,-0.00110164427039,0.001097975153462,-0.0011581211332298,0.0011454112859092,-0.0011443524365253,0.0011590985745873,0.0039673685062913,0.0038503231293343,0.70177133507186,1473840,32975,0.0062177284799513,0.0062177575333396,0.0043792912995959,37.931462037803,0.00021865169630242,0.00021865169630242,0.00021865169630242,1923949.7225433,0.01695711617998
11059200,0.99070740056206,0.016596874793431,0.0058606348683875,0.0058606610864206,0.0048755788386227,-0.001497874250974,0.0014976686845433,-7.0630744202908e-06,6.8381629045171e-06,-3.4653432268958e-07,1.9864762802616e-07,-0.00156640665302,0.001561409771887,-0.0015618064552768,0.0015659877383581,-0.0015662865693906,0.001561563377662,-0.001561608104957,0.0015662268433832,-0.0013550007081736,0.0013412079433936,-0.0013412741014068,0.0013549270569403,5.0243645897272e-07,-3.9323093414812e-08,4.3028624254921e-07,1.2171328437931e-07,-0.0014975263802662,0.0014980307847427,-0.0015635479504628,0.001564321517139,-0.0015636153116306,0.0015642123987285,-0.001563669059725,0.0015641173770974,-0.0015638107335744,0.0015639929365384,-0.0013477201237561,0.0013484069299656,-0.0013480722717437,0.0013481345352476,-0.0014947934733937,0.0014957074201308,-0.0014953557991412,0.0014950601572198,7.4281851829858e-06,-6.5037943804799e-06,-0.0010522092173096,0.0010531243452983,3.1201310413561e-07,6.2110500018459e-07,-0.0010968948004734,0.0011023291536663,-0.0010967421879291,0.0011024318334792,-0.001101522612844,0.0010976900024072,-0.0011014368051723,0.0010977709329781,-0.0011581019307504,0.0011453981882988,-0.0011443374075502,0.0011590812173352,0.0039633076682135,0.0038474019327851,0.7000642145745,1473840,32975,0.0062209273305305,0.0062209563726912,0.0043781501817929,37.907591901244,0.00021846073520995,0.00021846073520995,0.00021846073520995,1920936.3813521,0.016962462268512
11145600,0.99124876371031,0.01660502884217,0.0058635769386269,0.0058636031561381,0.0048778487474045,-0.0014985991456876,0.0014983787183289,-7.0693420204534e-06,6.8295073644748e-06,-3.5035837303549e-07,1.8760425411318e-07,-0.0015673282345282,0.0015623197305455,-0.0015627288370277,0.0015668969036495,-0.0015672105160299,0.0015624709099754,-0.0015625328535535,0.0015671335811681,-0.00135533547108,0.0013415277812447,-0.0013416112823252,0.001355244612109,4.9881265834453e-07,-3.5821460069778e-08,4.2895724879064e-07,1.2286597724534e-07,-0.0014982439223299,0.0014987481685389,-0.0015644654059873,0.0015652355666261,-0.0015645319309741,0.0015651272979194,-0.0015645840951891,0.0015650338488045,-0.0015647249466596,0.0015649102245441,-0.0013480476432205,0.0013487343142552,-0.0013483973268871,0.0013484642728809,-0.0014954862371827,0.001496393905432,-0.001496041654375,0.0014957536771732,7.4258764009862e-06,-6.5037847782803e-06,-0.0010519290862275,0.0010528419615058,3.1213078237797e-07,6.1875080575232e-07,-0.0010966770876513,0.0011021092750656,-0.0010965253449749,0.0011022111570873,-0.0011013042034711,0.0010974709432387,-0.0011012192157131,0.0010975510625605,-0.0011580720757029,0.0011453675243987,-0.001144309846987,0.001159048217256,0.0039591801829424,0.0038443987164768,0.69856587677763,1473840,32975,0.006223896656284,0.006223925692899,0.0043769904991211,37.883721772867,0.00021826977418294,0.00021826977418294,0.00021826977418294,1918137.0442175,0.016967322633624
11232000,0.99175721428356,0.016612705377842,0.0058663455733415,0.0058663717903674,0.004879988014133,-0.0014992265946056,0.0014990008566285,-7.0695990955012e-06,6.824373072977e-06,-3.5230481146308e-07,1.8419341235753e-07,-0.0015681328284928,0.001563121208646,-0.0015635350862407,0.0015676968307139,-0.0015680155302082,0.001563271917908,-0.0015633397114699,0.0015679329946401,-0.0013556007699809,0.0013417920095917,-0.0013418817956636,0.0013555042944537,5.0240075056658e-07,-3.0730996564797e-08,4.3424719415947e-07,1.2636283775091e-07,-0.0014988643803857,0.0014993772901262,-0.0015652641952327,0.0015660429820998,-0.0015653312957719,0.0015659341119561,-0.0015653824207386,0.0015658418254227,-0.0015655238330257,0.001565717683243,-0.0013483070200636,0.001349004436891,-0.0013486582977157,0.0013487326394748,-0.0014960922841511,0.0014970064773669,-0.0014966461738405,0.0014963676982559,7.4228872477043e-06,-6.5019143078761e-06,-0.0010515970467506,0.0010525088437672,3.1071868016125e-07,6.1909944242476e-07,-0.0010964106235773,0.0011018394285816,-0.0010962581530127,0.0011019418956051,-0.0011010360360995,0.0010972027153584,-0.0011009503585414,0.0010972833973442,-0.0011579778199228,0.0011452773090357,-0.0011442200950429,0.0011589530515797,0.0039548156334701,0.0038413280765591,0.70017945801193,1473840,32975,0.0062264822859712,0.0062265113076738,0.0043756177233421,37.826007459686,0.00021780805967749,0.00021780805967749,0.00021780805967749,1914964.6765715,0.016971185883745
11318400,0.99223404383593,0.016619907995769,0.0058689426256636,0.0058689688422801,0.0048819965278257,-0.001500048407411,0.0014998354379381,-7.0592463796404e-06,6.8268783561758e-06,-3.4847598341085e-07,1.9318272267819e-07,-0.0015689347880831,0.0015639367663268,-0.0015643396771113,0.0015685097096741,-0.0015688158703861,0.0015640891565453,-0.0015641424666938,0.0015687476271057,-0.001356244993206,0.0013424583379356,-0.0013425332520223,0.0013561628685178,5.008351446028e-07,-3.7450525305982e-08,4.3588883275572e-07,1.1637247617593e-07,-0.0014996967065922,0.0015002013707916,-0.0015660741990684,0.0015668504433025,-0.0015661451256584,0.0015667376778881,-0.0015661941149741,0.0015666475158832,-0.001566339387997,0.0015665193847718,-0.0013489614946087,0.0013496605754731,-0.001349324249036,0.001349377178946,-0.0014970765409401,0.0014979837841366,-0.0014976355978475,0.0014973398243768,7.4214570488799e-06,-6.4955521498504e-06,-0.001051269081599,0.0010521857810799,3.0741875576785e-07,6.2741621852832e-07,-0.0010962838094818,0.0011017110897049,-0.0010961276148739,0.0011018174450046,-0.0011009066743919,0.0010970769721348,-0.0011008172372323,0.0010971615452386,-0.0011578899283717,0.0011452059787907,-0.001144140049267,0.0011588742901215,0.0039511368091812,0.0038381911397461,0.70048021508925,1473840,32975,0.0062299091953307,0.0062299382434528,0.0043742771969263,37.737336803452,0.00021709869442761,0.00021709869442761,0.00021709869442761,1906468.1263664,0.016976793749079
11404800,0.9926812827294,0.016626665562828,0.0058713787253647,0.0058714049415644,0.0048838818958989,-0.0015006798632749,0.0015004702770454,-7.0538445511394e-06,6.8248930525948e-06,-3.4684841574595e-07,1.9490519853127e-07,-0.0015696274263893,0.0015646351928964,-0.0015650347779703,0.0015692056846584,-0.0015695084594009,0.0015647876326568,-0.0015648375188341,0.0015694436397234,-0.0013566356131304,0.0013428596717799,-0.0013429310598183,0.0013565568889564,5.0029651323513e-07,-3.8066250748081e-08,4.3537041772718e-07,1.1570732221103e-07,-0.001500330431979,0.0015008339354398,-0.001566770259438,0.00156754543634,-0.0015668412256918,0.0015674326319047,-0.001566890222504,0.0015673424699732,-0.0015670355370924,0.0015672143083053,-0.0013493580186637,0.0013500559998566,-0.0013497209306362,0.0013497725596558,-0.0014977840406537,0.0014986901019966,-0.001498343168677,0.0014980462050121,7.4174921057569e-06,-6.4921689868084e-06,-0.0010509063452805,0.0010518224454838,3.070398551443e-07,6.2718342713964e-07,-0.001096051747383,0.0011014759474175,-0.0010958955255295,0.0011015823639186,-0.001100672161956,0.0010968442628913,-0.0011005827009137,0.0010969288924539,-0.0011577495915012,0.0011450723704581,-0.0011440069953094,0.0011587335228517,0.0039469449068361,0.0038349966399916,0.70057435713774,1473840,32975,0.0062325289762493,0.0062325580144344,0.0043727791537223,37.646735966588,0.0002163738877327,0.0002163738877327,0.0002163738877327,1900586.0526212,0.01698059941965
11491200,0.99310086901266,0.016633007182143,0.0058736643926474,0.0058736906084583,0.0048856521810377,-0.0015012367512944,0.0015010089397377,-7.0619010946219e-06,6.8137323574281e-06,-3.5487101584791e-07,1.8586012288871e-07,-0.0015702354457766,0.001565226765712,-0.0015656435019097,0.0015697944306247,-0.0015701167024313,0.0015653768248663,-0.0015654444328229,0.0015700313400766,-0.0013570381432396,0.0013432450667964,-0.0013433370401476,0.0013569400673235,5.1643998146476e-07,-2.0257766201413e-08,4.515430133926e-07,1.3174752638497e-07,-0.0015008615640535,0.0015013988454924,-0.001567352505012,0.0015681621865713,-0.0015674248692527,0.0015680494348852,-0.0015674690031247,0.0015679582532356,-0.0015676171711599,0.0015678278126485,-0.0013497334323698,0.0013504683695734,-0.0013501021195874,0.0013501822253613,-0.0014983598191607,0.0014993005360282,-0.0014989179681793,0.0014986541434135,7.4301024218472e-06,-6.4762177879443e-06,-0.0010505453362581,0.0010514923880927,3.2129721161926e-07,6.4149482699873e-07,-0.0010958300660307,0.0011012871307687,-0.0010956758592944,0.0011013917677682,-0.0011004513456585,0.0010966557150261,-0.001100360040818,0.0010967413140742,-0.0011575333771384,0.0011448935979622,-0.0011437985410534,0.0011585456069093,0.0039426277334506,0.0038317532207238,0.70071348460244,1473840,32975,0.0062347951930888,0.0062348252479362,0.0043713526846163,37.555952788233,0.00021564762230586,0.00021564762230586,0.00021564762230586,1894807.5424957,0.016983759707222
11577600,0.99349461204818,0.01663896024639,0.0058758095195002,0.0058758357351937,0.0048873149916965,-0.0015017720231759,0.0015015615929106,-7.052426429578e-06,6.8226076045602e-06,-3.4582496674559e-07,1.9302143216243e-07,-0.0015708572199985,0.0015658663732924,-0.0015662658224701,0.0015704356078106,-0.0015707392010648,0.0015660178237848,-0.0015660695027122,0.0015706725900631,-0.0013572637377181,0.0013434895419043,-0.0013435627596047,0.0013571831442061,4.9952571830585e-07,-3.5930578189059e-08,4.36209188785e-07,1.1620209600948e-07,-0.0015014214984674,0.0015019263476017,-0.0015680004929283,0.001568776155643,-0.0015680715704305,0.0015686632530797,-0.0015681194844603,0.001568574163826,-0.0015682649322955,0.0015684458795113,-0.0013499856531622,0.0013506863279774,-0.0013503489544274,0.0013504025110188,-0.0014989953421855,0.0014998998175302,-0.0014995516584311,0.0014992587408839,7.4157890532817e-06,-6.4902682429917e-06,-0.0010501603257,0.0010510766139175,3.0695383990936e-07,6.2744920274949e-07,-0.0010955313645036,0.0011009544461791,-0.0010953750676332,0.001101060993594,-0.0011001505956134,0.0010963239659842,-0.0011000610202716,0.0010964087276006,-0.0011574226823304,0.001144749358348,-0.0011436836216258,0.0011584069113164,0.0039383129377174,0.0038284689527432,0.70089480910787,1473840,32975,0.0062370460703409,0.0062370751146408,0.0043696993083011,37.465151122674,0.00021492120898139,0.00021492120898139,0.00021492120898139,1890066.146317,0.016986655990664
11664000,0.99386419781535,0.016644550314168,0.0058778234583066,0.0058778496736677,0.004888877182194,-0.001502248841975,0.0015020333110396,-7.0520451622625e-06,6.8160235598196e-06,-3.4812424165229e-07,1.9056748401462e-07,-0.0015713750059352,0.0015663822342463,-0.0015667855388376,0.0015709474147762,-0.0015712597103344,0.0015665335288145,-0.0015665877774452,0.0015711853222021,-0.0013576044664232,0.0013438292525151,-0.001343904115008,0.0013575135241876,5.0368529562614e-07,-3.1889135215779e-08,4.4417933991297e-07,1.1727840626522e-07,-0.0015018916325733,0.0015024054964581,-0.0015685117205719,0.0015692989237519,-0.0015685860820229,0.0015691849578151,-0.0015686283960421,0.0015690956484244,-0.0015687787740139,0.0015689653079751,-0.0013503133454722,0.0013510301383393,-0.0013506882834505,0.0013507412940724,-0.0014995117668112,0.0015004223937287,-0.001500069921803,0.0014997812823087,7.3761767410557e-06,-6.5215073684435e-06,-0.0010498445620801,0.0010506897621548,2.6660439032176e-07,5.9519532006682e-07,-0.001095348990356,0.0011006943541346,-0.0010951895233296,0.0011008042566949,-0.0010999664635697,0.0010960683482528,-0.0010998721116469,0.0010961558604946,-0.0011572362539038,0.0011445072977733,-0.0011435065342058,0.0011581526256821,0.003933959920814,0.0038251512929117,0.70111591347994,1473840,32975,0.0062390080334004,0.006239038623471,0.0043682484109435,37.374347610738,0.0002141947808859,0.0002141947808859,0.0002141947808859,1884551.1545319,0.016989173108018
11750400,0.99421119724539,0.016649801120972,0.0058797147433142,0.0058797409589245,0.0048903454187335,-0.0015027171014325,0.001502510062795,-7.0462668847825e-06,6.8198780417796e-06,-3.4286508715779e-07,1.9340771422159e-07,-0.0015719183646119,0.0015669347248801,-0.0015673299661443,0.0015715009976244,-0.0015718011984556,0.0015670853098714,-0.0015671344558664,0.0015717371290089,-0.0013577890696734,0.0013440261067972,-0.0013440967493764,0.00135771107901,4.9852639750328e-07,-3.4324976933634e-08,4.3882794666207e-07,1.1416290882934e-07,-0.0015023679786741,0.0015028734237862,-0.0015690646095085,0.0015698415481959,-0.0015691371921391,0.0015697271030746,-0.0015691827533127,0.0015696404226665,-0.0015693297289244,0.0015695105872401,-0.0013505136153438,0.0013512203150317,-0.0013508814662722,0.0013509319059743,-0.0015000617332029,0.0015009627254866,-0.0015006155729931,0.0015003242466199,7.410742635737e-06,-6.4864913778508e-06,-0.0010494077624512,0.0010503227972544,3.0403264141956e-07,6.2916796944553e-07,-0.001094992486055,0.0011004098173269,-0.0010948346609564,0.0011005179340044,-0.0010996087670958,0.0010957822812871,-0.0010995176594023,0.001095868591865,-0.001157052786379,0.001144388384837,-0.0011433224281391,0.0011580373671725,0.0039296183414772,0.0038218070872557,0.7013746843816,1473840,32975,0.0062409631066701,0.0062409921684769,0.0043665883210522,37.283543853097,0.00021346835082478,0.00021346835082478,0.00021346835082478,1879985.4060073,0.016991460354061
11836800,0.99453707430283,0.016654738247261,0.0058814926098542,0.0058815188251811,0.004891726812226,-0.0015031403649397,0.0015029366055953,-7.0431811373465e-06,6.8200946041269e-06,-3.4006732676019e-07,1.9384758281067e-07,-0.0015723927137466,0.0015674140929016,-0.0015678052614157,0.0015719793888874,-0.0015722762913055,0.0015675638778444,-0.0015676105235435,0.0015722147277137,-0.001358019421316,0.0013442617936073,-0.0013443299024476,0.0013579439351209,4.9796184658521e-07,-3.2509664202986e-08,4.3797624264916e-07,1.1624351171933e-07,-0.0015027922640156,0.0015032989469238,-0.0015695416800348,0.0015703181217719,-0.0015696133196329,0.0015702046609621,-0.0015696590760199,0.0015701177985235,-0.0015698051091869,0.0015699889223767,-0.0013507470098457,0.0013514529139344,-0.0013511120582991,0.0013511673297474,-0.0015005453524953,0.0015014462476664,-0.0015010969106514,0.0015008100863992,7.4091799784263e-06,-6.4852255907866e-06,-0.0010490297865422,0.0010499444919641,3.0530977109236e-07,6.2752692126137e-07,-0.0010947156587253,0.001100132678644,-0.0010945588140869,0.001100239814174,-0.001099330989063,0.0010955060616058,-0.0010992408288398,0.0010955914263689,-0.001156856590328,0.001144193709643,-0.0011431290587793,0.0011578399114279,0.0039252628143779,0.0038184435801845,0.70215791366137,1473840,32975,0.00624272093628,0.0062427500027507,0.0043650260723594,37.192740076163,0.0002127419206093,0.0002127419206093,0.0002127419206093,1875095.9022301,0.016993447444334
11923200,0.99484319350762,0.016659389953812,0.0058831670359838,0.0058831932510475,0.0048930296667811,-0.0015035800719214,0.0015033796647452,-7.0391465986975e-06,6.8193395674739e-06,-3.3947261944512e-07,1.9669627699727e-07,-0.0015728508564094,0.0015678764564372,-0.0015682650451406,0.0015724400805836,-0.0015727336403013,0.0015680269594557,-0.0015680694742156,0.0015726762309475,-0.0013583037180209,0.0013445547707932,-0.0013446189421062,0.0013582323720996,4.9777631574698e-07,-3.4938610100621e-08,4.4120568242135e-07,1.1028405977978e-07,-0.0015032349878076,0.0015037390409876,-0.0015700013472784,0.0015707789089453,-0.0015700758718309,0.0015706624994959,-0.0015701193606988,0.0015705779882655,-0.0015702685910436,0.0015704458845384,-0.0013510328815945,0.0013517443468603,-0.0013514073525678,0.001351449464464,-0.0015010710297832,0.0015019688983951,-0.001501625204817,0.0015013300459474,7.4080838724108e-06,-6.4816314561799e-06,-0.0010486598821952,0.0010495770836284,3.0202177662904e-07,6.3341870600215e-07,-0.0010944692464295,0.0010998842004157,-0.0010943094144595,0.0010999943256656,-0.0010990831063583,0.0010952590402294,-0.0010989897241406,0.0010953475051852,-0.0011566576823122,0.0011440048707992,-0.0011429346339242,0.0011576464489046,0.0039210538209785,0.0038150686436552,0.70419384051517,1473840,32975,0.0062445468839886,0.00624457605794,0.0043635034486879,37.101936243298,0.00021201548994638,0.00021201548994638,0.00021201548994638,1869544.31492,0.016995613580396
12009600,0.99513116768734,0.016663779855266,0.0058847465998882,0.0058847728147285,0.0048942604406496,-0.0015041554446862,0.0015039359553903,-7.0487487311774e-06,6.8096496072941e-06,-3.4638067653968e-07,1.8480055795822e-07,-0.0015733756275936,0.0015683839653033,-0.0015687899907283,0.0015729474513491,-0.0015732603478577,0.001568532722986,-0.0015685959553898,0.001573182076702,-0.0013587896346307,0.0013450193382455,-0.0013451045269135,0.0013586972718104,4.9550159567668e-07,-3.2347778533305e-08,4.4566374963122e-07,1.0624786891833e-07,-0.0015038005850353,0.0015043049842518,-0.0015705168282929,0.0015712956690858,-0.0015705939800417,0.0015711765699374,-0.0015706329535909,0.0015710964729991,-0.0015707850559081,0.001570961472331,-0.0013515026403724,0.0013522246649171,-0.0013518858190494,0.0013519215400153,-0.001501782324222,0.0015026731567631,-0.0015023319391284,0.0015020384275691,7.4050464755588e-06,-6.4846039335673e-06,-0.0010483567407815,0.0010492681204185,2.9486547864832e-07,6.3470829256899e-07,-0.0010943312589681,0.0010997376622288,-0.0010941685773268,0.0010998506715595,-0.0010989451781931,0.0010951127005525,-0.0010988490245093,0.0010952039329922,-0.001156533783864,0.0011438779396797,-0.0011428104561131,0.0011575192726704,0.0039173701177243,0.0038116891379784,0.7063573879658,1473840,32975,0.006246887801583,0.0062469167210589,0.0043622416541981,37.033459346736,0.00021146767477388,0.00021146767477388,0.00021146767477388,1862362.3656065,0.016999092313873
12096000,0.99540239465278,0.016667928440784,0.0058862387587007,0.0058862649731952,0.004895424708888,-0.0015047283678232,0.0015045117079366,-7.0441032540232e-06,6.8076263274921e-06,-3.4283957942683e-07,1.8433065470838e-07,-0.0015738955664787,0.0015689102890859,-0.001569312313138,0.0015734715134529,-0.001573781592883,0.0015690576602688,-0.0015691193825094,0.0015737049214406,-0.001359275701342,0.0013455125318679,-0.0013455968583264,0.0013591844260904,4.9118788918893e-07,-3.2645734078703e-08,4.4837755143458e-07,9.8630432787172e-08,-0.0015043773152009,0.0015048769344931,-0.0015710412965369,0.0015718174245583,-0.0015711217525628,0.0015716949134575,-0.0015711560375461,0.0015716195223868,-0.0015713115656312,0.0015714809963372,-0.0013519892150586,0.0013527178086376,-0.0013523821731636,0.0013524040944057,-0.0015025022717365,0.0015033813453018,-0.0015030478016428,0.0015027499122182,7.4017706662644e-06,-6.4812796869069e-06,-0.0010480795813679,0.0010489910952553,2.8991197978678e-07,6.4004227097902e-07,-0.0010942203594809,0.0010996211847948,-0.0010940542801261,0.0010997377132118,-0.0010988320914991,0.0010949984801744,-0.0010987326057907,0.0010950931526305,-0.0011564264618326,0.0011437802799897,-0.0011427087963597,0.0011574148728547,0.0039138340796229,0.0038083108787852,0.7086432367091,1473840,32975,0.0062492639492499,0.0062492928788751,0.0043610998709092,36.983803900069,0.00021107043120055,0.00021107043120055,0.00021107043120055,1855392.4204951,0.017002765041744
12182400,0.99565789834791,0.016671850392379,0.005887648858501,0.0058876750726249,0.0048965264612531,-0.0015052768278276,0.0015050624557882,-7.0434315826051e-06,6.8089826521593e-06,-3.3919603383103e-07,1.8329054984121e-07,-0.0015743907437201,0.0015694093094854,-0.001569807284658,0.0015739704145423,-0.001574278715673,0.0015695550183329,-0.0015696158308098,0.0015742023592107,-0.0013597508237799,0.0013459869131404,-0.0013460702782836,0.001359659788963,4.9422363444243e-07,-2.4856514008589e-08,4.6083311523366e-07,9.7397157782392e-08,-0.0015049213151708,0.0015054321393666,-0.0015715313156431,0.0015723217152178,-0.0015716162226076,0.0015721946408408,-0.0015716441462715,0.0015721252519629,-0.0015718042593111,0.0015719821320053,-0.0013524509725272,0.0013532056561128,-0.0013528581281642,0.0013528792426794,-0.0015031871464546,0.0015040678625551,-0.0015037278629763,0.0015034405677785,7.3962740634169e-06,-6.4874403959399e-06,-0.0010478074195317,0.0010487072441141,2.7713415677792e-07,6.4087169197937e-07,-0.0010941127276959,0.0010994975376505,-0.0010939418603826,0.0010996186675406,-0.0010987246525076,0.0010948749237878,-0.0010986205619645,0.0010949740444669,-0.0011563162851094,0.0011436620300344,-0.0011425973760274,0.0011572974935943,0.0039103096667412,0.0038049377388113,0.7110527587176,1473840,32975,0.0062515376942852,0.0062515666168908,0.0043599541090978,36.935322765569,0.00021068258212455,0.00021068258212455,0.00021068258212455,1848577.2886943,0.017006225435754
12268800,0.99589862309562,0.016675557492041,0.0058889812415824,0.0058890074553527,0.0048975687951061,-0.0015058066854779,0.0015055765400553,-7.0507251822285e-06,6.8009000158581e-06,-3.4536480369137e-07,1.7313258967748e-07,-0.0015748664457707,0.001569870611276,-0.0015702830761933,0.0015744318421844,-0.0015747552709614,0.001570015162697,-0.0015700932365435,0.001574662217491,-0.0013602034705428,0.0013464245760092,-0.0013465247966526,0.0013600961741181,4.9250899385466e-07,-2.2683829623664e-08,4.6479820051244e-07,9.3880866016162e-08,-0.0015054431373058,0.0015059542838744,-0.0015719989715746,0.001572790977565,-0.0015720866119736,0.0015726612011769,-0.0015721110253044,0.0015725958977217,-0.0015722734027223,0.0015724504271332,-0.0013528920660451,0.0013536557506734,-0.0013533056419067,0.0013533219337887,-0.0015038453712996,0.0015047194622178,-0.0015043821798607,0.0015040974860998,7.410959149434e-06,-6.4720364810915e-06,-0.0010475150928225,0.0010484448480908,2.8838268747356e-07,6.5972621973837e-07,-0.0010939824604296,0.0010993943548589,-0.0010938092384985,0.0010995179461678,-0.0010985941337175,0.0010947717504704,-0.0010984875751662,0.0010948734162758,-0.0011561860360019,0.0011435652254033,-0.00114246874867,0.0011572002586563,0.0039067898491072,0.0038015727316767,0.71326268742515,1473840,32975,0.0062536970558949,0.0062537260295881,0.0043588108873086,36.88695240627,0.00021029561925016,0.00021029561925016,0.00021029561925016,1841884.8751797,0.017009455828927
12355200,0.99612545359783,0.016679040928447,0.0058902333900266,0.0058902596035337,0.0048985479348864,-0.0015062664776569,0.0015060501600883,-7.0403193938086e-06,6.8034438771341e-06,-3.3891571153489e-07,1.8080604743245e-07,-0.0015752864241915,0.0015703073793886,-0.0015707057721016,0.0015748654911049,-0.0015751754648692,0.0015704520763988,-0.0015705154692456,0.001575096327666,-0.0013605902065154,0.0013468317573957,-0.0013469196170906,0.0013604967623621,5.1231736171564e-07,-3.6923605287145e-09,4.8977886210681e-07,1.0731636909541e-07,-0.0015058905355641,0.0015064404222396,-0.0015724060774521,0.0015732409146261,-0.001572497146706,0.0015731071059624,-0.001572517586471,0.0015730452922463,-0.0015726843513453,0.0015728954099197,-0.0013532646191135,0.0013540782398661,-0.0013536904499472,0.0013537320808284,-0.0015044066715492,0.0015053168722372,-0.0015049451534513,0.0015046936565893,7.4037671277885e-06,-6.4711530525843e-06,-0.0010472297568959,0.0010481542381235,2.8002733798451e-07,6.6284810696474e-07,-0.0010938480894399,0.0010992485927278,-0.0010936712503627,0.0010993753784273,-0.0010984575022248,0.0010946290973078,-0.0010983469046799,0.0010947352225134,-0.001156034543824,0.001143420005732,-0.0011423242497554,0.001157043987991,0.0039031791543985,0.0037982132602648,0.71122382290496,1473840,32975,0.0062556276499746,0.0062556568816857,0.0043576230629401,36.838593369874,0.00020990874695899,0.00020990874695899,0.00020990874695899,1835720.7931623,0.017012175702078
12441600,0.99633921998766,0.016682275558326,0.0058913972730018,0.0058914234862215,0.004899454799103,-0.0015063591739265,0.0015061441676469,-7.0383148925885e-06,6.803888500603e-06,-3.3888823329462e-07,1.8142908899484e-07,-0.0015755556654737,0.0015705774616031,-0.0015709753930852,0.0015751356979396,-0.0015754437897704,0.0015707226606008,-0.0015707850288161,0.0015753665302528,-0.0013603970535158,0.0013466438924987,-0.0013467278394112,0.0013603056022924,4.9355015964757e-07,-2.3373849317124e-08,4.6760430673179e-07,9.1224105279261e-08,-0.0015060031402224,0.001506514468307,-0.0015726958642936,0.0015734904603942,-0.0015727853683724,0.0015733587727342,-0.0015728086745858,0.0015732946978089,-0.001572972702703,0.0015731475369496,-0.0013530956180058,0.001353864269957,-0.0013535140041915,0.0013535248615753,-0.0015044419019044,0.0015053161222036,-0.0015049803973341,0.0015046931630739,7.4059522334663e-06,-6.4676536189811e-06,-0.0010468300591765,0.0010477591224793,2.854031842948e-07,6.6217147264351e-07,-0.0010934422600119,0.0010988484355717,-0.001093267323864,0.0010989738465068,-0.0010980507182102,0.001094228825464,-0.0010979424763903,0.0010943323550739,-0.0011557674108705,0.0011431573838541,-0.001142059995128,0.0011567832119013,0.0038984291256982,0.0037948521406219,0.70080290635602,1473840,32975,0.0062560135554999,0.0062560426780625,0.0043559770733901,36.79023565383,0.00020952188523064,0.00020952188523064,0.00020952188523064,1835499.0978003,0.017011286366037
12528000,0.9965407013586,0.016685337057775,0.0058924983179233,0.0058925245309965,0.0049003142088552,-0.0015057466751749,0.0015055232413781,-7.0418507120496e-06,6.799060005024e-06,-3.327113073285e-07,1.6608641854313e-07,-0.0015755324845335,0.001570553754574,-0.0015709521340432,0.0015751115185865,-0.0015754273368953,0.0015706916764189,-0.0015707690988381,0.0015753339250005,-0.0013591734416801,0.0013454082113173,-0.001345506412861,0.0013590655462036,4.9633964137118e-07,9.8320471047687e-10,4.7006630419851e-07,1.16821310558e-07,-0.001505372604913,0.0015059116285153,-0.0015726652371169,0.0015734736376841,-0.0015727481252277,0.0015733491357359,-0.001572771253067,0.0015732848071704,-0.0015729280905206,0.0015731454546987,-0.0013518573956109,0.0013526388166094,-0.0013522538880669,0.0013523233768915,-0.001503365254421,0.0015042510543509,-0.0015038818719772,0.0015036514310013,7.407082907726e-06,-6.4653575718737e-06,-0.001046295884477,0.001047227436341,2.9790021118598e-07,6.5162028832142e-07,-0.001092575887102,0.0010979915089596,-0.0010924087720707,0.0010981092625174,-0.0010971845235805,0.0010933722646803,-0.0010970826929774,0.0010934687684949,-0.0011553003922155,0.0011426882891126,-0.0011415954341951,0.0011563116063861,0.0038915374530819,0.0037915094743955,0.70372108050031,1473840,32975,0.0062534618550097,0.0062534910832469,0.0043537602585888,36.741877781891,0.00020913502225513,0.00020913502225513,0.00020913502225513,1846843.2111122,0.017003839659281
12614400,0.99673062898956,0.016688193440174,0.0058935261604054,0.0058935523734359,0.0049011149063331,-0.0015062978104607,0.0015060684936088,-7.0470380725206e-06,6.7971409292531e-06,-3.3838465692171e-07,1.6720222320046e-07,-0.0015759710998431,0.0015709836258232,-0.0015713904878355,0.0015755415129213,-0.0015758648214306,0.0015711234088565,-0.0015712036026168,0.0015757677662199,-0.001359708784493,0.0013459326180067,-0.0013460364464223,0.00135959688376,4.8554103307547e-07,-1.6702220982202e-08,4.6073104676704e-07,9.5344042122901e-08,-0.0015059354443744,0.001506444876809,-0.0015731121041656,0.0015738958130514,-0.0015731967598406,0.0015737678644621,-0.001573218807556,0.0015737052059329,-0.0015733797650344,0.0015735602719375,-0.0013523991174368,0.0013531593894782,-0.0013528098153823,0.0013528306768611,-0.0015041171871306,0.0015049809288347,-0.0015046444343994,0.0015043715937688,7.3986163544757e-06,-6.4768411465841e-06,-0.0010460641030712,0.0010469773455206,2.826361235112e-07,6.4826100009161e-07,-0.0010925071626337,0.0010979023191791,-0.0010923360145766,0.001098024154787,-0.0010971167741888,0.0010932825306297,-0.0010970123558123,0.0010933833063073,-0.00115523956715,0.0011426092075744,-0.0011415303859342,0.001156233741353,0.0038884567003517,0.0037881761820991,0.6967465645965,1473840,32975,0.006255729774199,0.0062557583789748,0.0043527686886783,36.693520074785,0.00020874816059828,0.00020874816059828,0.00020874816059828,1838776.6271862,0.01700744453869
12700800,0.99690968940714,0.016690890020432,0.0058944962801757,0.0058945224928845,0.0049018712473716,-0.0015059312929284,0.0015057078982596,-7.0445004763324e-06,6.8018186946218e-06,-3.3257564830338e-07,1.6638990392858e-07,-0.0015760249995701,0.0015710440505977,-0.00157144322292,0.0015756037536077,-0.0015759199701368,0.001571182198176,-0.0015712599441328,0.0015758273465307,-0.0013588445683669,0.0013450725171839,-0.0013451717774371,0.0013587379190428,4.8623846655912e-07,-9.3118781991306e-09,4.5398444704212e-07,1.1138897917998e-07,-0.0015055677582229,0.0015060856640227,-0.0015731695329859,0.0015739524298276,-0.0015732480031442,0.0015738320009439,-0.0015732754596773,0.0015737637937329,-0.0015734282998707,0.0015736280115929,-0.0013515431883071,0.0013522922448768,-0.0013519286260113,0.0013519864357123,-0.0015034569562583,0.0015043277675444,-0.0015039744333653,0.0015037266286248,7.40344290886e-06,-6.4743020410517e-06,-0.0010456120394397,0.0010465319331799,2.9755773174843e-07,6.4058574192753e-07,-0.001091829041682,0.0010972387514455,-0.00109166540965,0.0010973529255771,-0.0010964388231257,0.0010926177347585,-0.0010963418201642,0.0010927101032975,-0.0011549133098499,0.0011422791892693,-0.001141202519811,0.0011559089788357,0.0038825595844045,0.0037848641851173,0.69757499611891,1473840,32975,0.0062542255851973,0.0062542546333191,0.0043509045394795,36.645162252346,0.00020836129801877,0.00020836129801877,0.00020836129801877,1845838.0219818,0.01700248828265
12787200,0.99707762335317,0.01669341835065,0.005895405710206,0.0058954319227811,0.0049025807176628,-0.001506072980257,0.001505852917095,-7.0420241260292e-06,6.8025962391797e-06,-3.333187842717e-07,1.7058544633747e-07,-0.001576143687399,0.0015711650113924,-0.0015715625177789,0.0015757241557513,-0.0015760370822058,0.0015713047564542,-0.0015713775870481,0.0015759494056216,-0.0013589104843891,0.0013451448069119,-0.0013452392324989,0.0013588086848089,4.8835906067497e-07,-1.2129296358263e-08,4.5775260118151e-07,1.0688040879002e-07,-0.0015057114626569,0.0015062286700823,-0.0015732875230805,0.0015740741138634,-0.0015733687086345,0.0015739509366999,-0.0015733950484496,0.0015738838461003,-0.0015735506387481,0.0015737452472736,-0.0013516097229577,0.0013523645604513,-0.001352003173201,0.0013520502654614,-0.0015036913272089,0.0015045638372851,-0.001504213636929,0.0015039573685669,7.4037362233309e-06,-6.4723553978619e-06,-0.0010451654373712,0.0010460875859186,2.9462226691951e-07,6.4590409150749e-07,-0.0010914863615321,0.0010968949980728,-0.0010913199857803,0.0010970119244043,-0.001096095636952,0.0010922745361895,-0.0010959958548363,0.0010923696391871,-0.0011545941198625,0.0011419665437185,-0.0011408847248957,0.0011555946405072,0.0038781987438191,0.0037815698366532,0.69747002995644,1473840,32975,0.0062548178911011,0.0062548469479246,0.0043490617395847,36.496015760335,0.00020716812608268,0.00020716812608268,0.00020716812608268,1840476.8827112,0.01700181940207
12873600,0.99723453342715,0.01669578082797,0.0058962553658441,0.0058962815782951,0.0049032438838313,-0.0015059458593797,0.0015057257891332,-7.0402608993755e-06,6.800837780498e-06,-3.3447639518875e-07,1.7173399494562e-07,-0.0015760470458546,0.0015710687676366,-0.0015714670534282,0.0015756267456195,-0.0015759396763654,0.0015712092902032,-0.0015712813632408,0.0015758527716098,-0.0013586674615948,0.0013449060444951,-0.0013449996962256,0.0013585664429712,4.8876982033861e-07,-1.4028016428051e-08,4.5550461416071e-07,1.0768045330582e-07,-0.0015055850665426,0.0015061008101784,-0.0015731919409341,0.0015739768281719,-0.0015732721377681,0.0015738546705308,-0.0015733002140395,0.0015737857723843,-0.0015734548243629,0.0015736482243259,-0.0013513714055389,0.0013521210445761,-0.0013517618939711,0.0013518097744501,-0.0015036017591295,0.0015044760126911,-0.0015041263474149,0.0015038673804303,7.4013820004979e-06,-6.4712042911754e-06,-0.0010445706565685,0.0010454916007921,2.9552619784928e-07,6.4377548969458e-07,-0.0010909448127852,0.0010963520894818,-0.0010907794333967,0.0010964680087162,-0.0010955529240749,0.0010917327946351,-0.0010954541540105,0.0010918268747247,-0.0011541098008055,0.0011414834626548,-0.0011404038703265,0.0011551081272239,0.0038729389815075,0.0037782928544299,0.69742424887141,1473840,32975,0.0062542906416114,0.0062543196838083,0.0043465955654361,36.268582610969,0.00020534866088775,0.00020534866088775,0.00020534866088775,1836506.4323968,0.01699823910707
12960000,0.9973812006339,0.016697989239499,0.005897049481206,0.0058970756935418,0.0049038640647509,-0.0015057914981443,0.0015055657453717,-7.0444671815475e-06,6.7993804436525e-06,-3.3728976095489e-07,1.6921568638658e-07,-0.0015759089906138,0.0015709233997166,-0.0015713265733694,0.0015754814403197,-0.001575800037522,0.0015710647051758,-0.0015711415784785,0.0015757060280692,-0.0013584450822497,0.0013446797909701,-0.0013447768202557,0.0013583390653844,4.9073221123197e-07,-1.2243671133134e-08,4.5838087621902e-07,1.0544710807216e-07,-0.0015054259603031,0.0015059447762999,-0.0015730471423941,0.0015738365135653,-0.0015731277464102,0.0015737124895322,-0.0015731555420953,0.001573646640872,-0.0015733096349129,0.0015735057180299,-0.0013511445166654,0.0013518999849036,-0.0013515388218641,0.0013515820051673,-0.0015034780145824,0.0015043547279229,-0.0015039995247485,0.0015037437506929,7.3891550783335e-06,-6.4865916993925e-06,-0.001043993026453,0.0010448875284163,2.7883156831263e-07,6.3308216541123e-07,-0.0010904288846465,0.001095808403181,-0.0010902635085712,0.0010959277933164,-0.0010950388005171,0.0010911878227847,-0.0010949351794888,0.0010912873948068,-0.0011536087095288,0.0011409594067067,-0.0011399061406751,0.0011545842025998,0.0038676724852345,0.0037750361128498,0.69743139829245,1473840,32975,0.0062536387711266,0.0062536662909814,0.0043441478603018,36.036255481746,0.00020349004385397,0.00020349004385397,0.00020349004385397,1832355.7922904,0.016994422581366
13046400,0.99751838088516,0.016700055083567,0.005897792201377,0.0058978184132726,0.0049044444689178,-0.0015056156538533,0.0015054092319445,-7.0353786030061e-06,6.8095868527249e-06,-3.2820795795062e-07,1.7915222954157e-07,-0.0015757532300965,0.0015707864445114,-0.0015711702136408,0.0015753445564236,-0.0015756440860457,0.0015709285393194,-0.0015709854469758,0.0015755694350281,-0.001358178827691,0.0013444339240577,-0.0013445120621318,0.001358093654084,4.9058158102493e-07,-1.3127647152067e-08,4.5900716043023e-07,1.0487409257972e-07,-0.0015052599094057,0.0015057781494006,-0.0015729002824409,0.0015736900551799,-0.0015729815067958,0.0015735650714342,-0.0015730092294868,0.0015735002318646,-0.0015731636872496,0.0015733580860378,-0.0013508888064142,0.0013516447533258,-0.0013512850920255,0.0013513254112952,-0.0015033511554965,0.0015042271188038,-0.0015038731024003,0.0015036153508587,7.4076125164761e-06,-6.4695882925168e-06,-0.001043370874758,0.0010443011796243,2.9625622626653e-07,6.5121973166368e-07,-0.0010898607089328,0.0010952768909333,-0.0010896947331636,0.0010953952631762,-0.0010944712456985,0.0010906558923321,-0.001094367308322,0.0010907551283009,-0.0011530821061001,0.001140467695438,-0.0011393785629556,0.0011540920142065,0.0038624334760225,0.0037718024048002,0.69748631289727,1473840,32975,0.0062529498227738,0.0062529766797155,0.0043416445905778,35.803467173366,0.00020162773738692,0.00020162773738692,0.00020162773738692,1828410.5742727,0.016990475019329
13132800,0.99764677168024,0.016701988945784,0.0058984873543479,0.0058985135656893,0.0049049880257465,-0.00150544282568,0.0015052243675279,-7.0414673423423e-06,6.8022377966254e-06,-3.3469085117344e-07,1.7447144139845e-07,-0.0015755997792611,0.0015706206632524,-0.0015710170700871,0.0015751785724932,-0.0015754896717475,0.0015707634464647,-0.0015708316215088,0.0015754042640006,-0.0013579132573529,0.0013441566656816,-0.0013442480861479,0.001357815568303,4.8834710702269e-07,-1.711692037842e-08,4.5728816680255e-07,1.0040486836819e-07,-0.001505084120646,0.001505596220349,-0.0015727436267529,0.0015735286028817,-0.0015728255061931,0.0015734030039171,-0.001572852484368,0.0015733376987023,-0.0015730077498051,0.0015731945140658,-0.0013506189499631,0.0013513711554152,-0.0013510179226702,0.0013510488377861,-0.0015032162956191,0.0015040872903568,-0.0015037385123524,0.0015034716700453,7.4040963878543e-06,-6.4711366787195e-06,-0.0010427691600501,0.0010436941896578,2.9207029031888e-07,6.5044318200374e-07,-0.0010893096894832,0.0010947179185602,-0.001089142327695,0.0010948377734766,-0.001093920523035,0.0010900995656235,-0.0010938153346036,0.0010902004211368,-0.0011525779216185,0.0011399622209132,-0.0011388736522986,0.001153580542172,0.0038572290892431,0.0037685942265573,0.69758469158775,1473840,32975,0.0062522084576317,0.0062522352645491,0.0043391408343695,35.570632443543,0.00019976505954834,0.00019976505954834,0.00019976505954834,1824521.735668,0.016986420986687
13219200,0.99776701418389,0.016703800536329,0.0058991384459258,0.0058991646568446,0.0049054974335588,-0.0015052584138147,0.0015050264666307,-7.047706679309e-06,6.7945262538676e-06,-3.4118115126252e-07,1.6805404614351e-07,-0.0015754327995133,0.0015704407084229,-0.0015708505253374,0.0015749980802359,-0.0015753226558209,0.0015705834340188,-0.001570665292653,0.0015752237200593,-0.0013576378947601,0.0013438693473674,-0.0013439748022382,0.0013575263123293,4.8811537183427e-07,-1.7672276874719e-08,4.5929324050707e-07,9.7752131603788e-08,-0.0015048928052693,0.0015054044083428,-0.0015725690900796,0.0015733552636086,-0.0015726522280761,0.0015732281680424,-0.0015726777124519,0.0015731640055739,-0.001572834392123,0.0015730194057637,-0.0013503354283692,0.0013510913343554,-0.0013507381382994,0.0013507642074331,-0.0015030670433175,0.001503935995094,-0.001503588764655,0.0015033191759076,7.3757393808483e-06,-6.4982134592949e-06,-0.0010421937986349,0.0010430635122196,2.6272354703515e-07,6.2532915818293e-07,-0.0010887836258377,0.0010941345326335,-0.0010886148687818,0.0010942559007981,-0.0010933945920087,0.0010895171182572,-0.0010932881866179,0.0010896193806629,-0.0011520982765662,0.0011394299534727,-0.0011383945332767,0.0011530458758964,0.0038520604937082,0.0037654137896459,0.69772291784523,1473840,32975,0.0062514161405938,0.0062514412611833,0.0043366425221204,35.337792963603,0.00019790234370883,0.00019790234370883,0.00019790234370883,1820666.0830558,0.016982267207412
13305600,0.9978796978947,0.016705496675925,0.0058997479980195,0.0058997742082287,0.0049059744696768,-0.0015050520412443,0.0015048352345999,-7.0396509367568e-06,6.8034564026499e-06,-3.3493182326368e-07,1.7550802882685e-07,-0.0015752529530313,0.0015702758538197,-0.0015706723001133,0.0015748345103418,-0.0015751441699941,0.0015704178150602,-0.0015704852239887,0.001575061921949,-0.0013573020395825,0.0013435433117505,-0.0013436324545099,0.0013572056519244,4.9015804946664e-07,-1.6865758713295e-08,4.6229894149594e-07,9.9460200064278e-08,-0.0015046935853206,0.0015052079059007,-0.0015723960079512,0.001573185842276,-0.001572481092605,0.0015730586601746,-0.0015725056599886,0.0015729933730238,-0.0015726651921528,0.0015728507869101,-0.00135000138419,0.0013507629309028,-0.001350406504223,0.0013504367588472,-0.0015029121573842,0.0015037840520348,-0.0015034407657903,0.0015031711876901,7.4041155826846e-06,-6.4706213420992e-06,-0.0010415543045155,0.0010424786100052,2.8977237808693e-07,6.5301177199785e-07,-0.0010881790831407,0.0010935854524637,-0.0010880087665801,0.001093706356345,-0.0010927879291418,0.0010889653957643,-0.0010926841395526,0.0010890645242554,-0.0011515905300851,0.0011389705623548,-0.0011378825648442,0.0011525970550324,0.0038469275704772,0.0037622624819049,0.69704602211301,1473840,32975,0.0062505922970328,0.0062506213128984,0.0043341062675275,35.104953055982,0.00019603962444785,0.00019603962444785,0.00019603962444785,1817020.3468074,0.016978016412752
13392000,0.99798536513486,0.016707083359564,0.0059003182386894,0.0059003444488179,0.004906420672057,-0.0015047616551594,0.0015045470208372,-7.0399889774234e-06,6.8059924893393e-06,-3.3400389919921e-07,1.7671747966748e-07,-0.001575022687561,0.0015700467112553,-0.0015704410995527,0.0015746063378076,-0.001574913800291,0.0015701887678647,-0.0015702538837053,0.0015748338293582,-0.0013568908621254,0.0013431316417042,-0.0013432183892914,0.0013567967492231,4.8941074346583e-07,-1.7897688901978e-08,4.6011739951358e-07,9.9843803779948e-08,-0.0015044051788747,0.0015049177148776,-0.0015721675605906,0.0015729548793125,-0.0015722518087101,0.0015728285609239,-0.0015722773388505,0.0015727622888734,-0.0015724360138078,0.0015726205922979,-0.0013495921228422,0.0013503492395399,-0.0013499947381929,0.0013500257068177,-0.0015026224077951,0.0015034935665406,-0.0015031513122204,0.0015028805715104,7.4050508994048e-06,-6.4725836223918e-06,-0.0010409358051192,0.0010418590693843,2.905045961687e-07,6.51195344052e-07,-0.0010875724320995,0.0010929795602568,-0.0010874029568191,0.0010930996438375,-0.0010921822130546,0.0010883585544031,-0.0010920793148734,0.0010884568282065,-0.0011510593242874,0.0011384346680294,-0.0011373485822312,0.0011520640899378,0.0038415929194116,0.003759141426813,0.69533863141032,1473840,32975,0.006249393890059,0.0062494229106976,0.0043315404978344,34.872113202605,0.00019417690562084,0.00019417690562084,0.00019417690562084,1814473.3969555,0.016972969621406
13478400,0.99808451514363,0.01670856834488,0.0059008519501934,0.0059008781602485,0.0049068382344379,-0.0015043743602674,0.0015041537684138,-7.0409159990799e-06,6.8009256419233e-06,-3.3525236914195e-07,1.7201312706463e-07,-0.0015747482293798,0.0015697688153986,-0.0015701680010493,0.0015743270305852,-0.0015746404483909,0.0015699097213622,-0.0015699819110709,0.0015745534031301,-0.0013563331083058,0.0013425707613604,-0.0013426646615441,0.0013562319453534,4.8611539730388e-07,-1.7758076941792e-08,4.5650889978491e-07,1.0017589452451e-07,-0.0015040165100973,0.0015045258485232,-0.0015718942069174,0.0015726758552932,-0.0015719771384752,0.0015725508630258,-0.001572002800349,0.0015724844566344,-0.0015721601417878,0.0015723440435822,-0.0013490358550813,0.0013497869773296,-0.0013494345386257,0.0013494673034243,-0.0015021845952979,0.0015030505950692,-0.0015027100915663,0.0015024409105784,7.4022253923401e-06,-6.4712673875319e-06,-0.0010402996042921,0.0010412213596814,2.9172465560437e-07,6.484737143378e-07,-0.0010869042083085,0.0010923097394711,-0.0010867361028719,0.0010924285797716,-0.001091512643942,0.0010876901979742,-0.0010914110705294,0.0010877871841558,-0.0011505014454392,0.0011378779148955,-0.0011367947015189,0.0011515033278642,0.0038360109594571,0.0037560521853942,0.69354140507254,1473840,32975,0.0062477777341334,0.0062478067802346,0.0043288991587275,34.639273356236,0.00019231418684989,0.00019231418684989,0.00019231418684989,1813476.617392,0.016966996103692
13564800,0.99817784202309,0.016709963711639,0.0059013534316611,0.0059013796416501,0.0049072306383277,-0.0015040657330214,0.0015038344853306,-7.0411612588121e-06,6.7889129406642e-06,-3.3835923219207e-07,1.6496177218542e-07,-0.0015745308822193,0.0015695452663297,-0.0015699527095394,0.0015741003331161,-0.0015744221467444,0.0015696849903996,-0.0015697692735485,0.001574324548603,-0.0013559010645544,0.0013421393460422,-0.0013422477688988,0.0013557887824923,4.8210518910301e-07,-1.7572235776965e-08,4.5265725004781e-07,9.8738722664814e-08,-0.0015037033330657,0.0015042081930115,-0.0015716743950839,0.0015724493598087,-0.0015717575743175,0.0015723255770126,-0.0015717824478788,0.0015722596887968,-0.0015719375232746,0.0015721203793221,-0.001348606493925,0.0013493511453463,-0.0013490030406386,0.0013490354312609,-0.0015018166193877,0.0015026748492036,-0.0015023318630479,0.001502067682893,7.4044117107648e-06,-6.4565365872413e-06,-0.0010397409704634,0.0010406808473708,3.0069924652313e-07,6.5592986249054e-07,-0.0010863445123487,0.0010917639098699,-0.0010861778618012,0.0010918834729028,-0.0010909494149222,0.0010871515444987,-0.0010908456776035,0.0010872472102734,-0.0011499809410326,0.0011373888791938,-0.0011362868302608,0.001150997986764,0.0038308269010688,0.0037529976824594,0.69236984542268,1473840,32975,0.0062464774502518,0.0062465004477852,0.0043266201141478,34.452706064408,0.00019082164851526,0.00019082164851526,0.00019082164851526,1812624.1182581,0.016962027321522
13651200,0.99826588972777,0.016711279605352,0.0059018262866829,0.005901852495795,0.0049076008228738,-0.0015038735112733,0.0015036359226989,-7.0389910944275e-06,6.779935640534e-06,-3.3969798448616e-07,1.602233263011e-07,-0.0015744140830144,0.0015694272245678,-0.0015698399465141,0.0015739787095743,-0.001574306736087,0.0015695662635268,-0.0015696579994649,0.0015742016188152,-0.0013555743544221,0.0013418165994469,-0.0013419343371848,0.001355454942833,4.8390238677042e-07,-1.263693881837e-08,4.5442275224964e-07,1.0434305800523e-07,-0.0015035056817477,0.0015040177285593,-0.0015715563711565,0.0015723369583227,-0.0015716384052671,0.0015722135883445,-0.0015716633754843,0.0015721476214247,-0.0015718169161265,0.0015720093400357,-0.0013482812065843,0.0013490303702224,-0.0013486742143539,0.0013487183850983,-0.0015015995605965,0.0015024617307789,-0.0015021108313669,0.0015018583795612,7.4063868536648e-06,-6.4436973736928e-06,-0.0010392479971119,0.0010402032246017,3.1045616500903e-07,6.6152623585552e-07,-0.0010858450236807,0.0010912785251239,-0.0010856804587769,0.0010913961545947,-0.0010904463192935,0.0010866696412816,-0.0010903449322636,0.0010867636208417,-0.00114956216012,0.0011369944782552,-0.0011358785460648,0.001150590893873,0.00382613534957,0.0037499801913335,0.69209793992307,1473840,32975,0.0062456680411799,0.006245696564343,0.0043246085792147,34.299219059564,0.00018959375247651,0.00018959375247651,0.00018959375247651,1811035.3300538,0.016958340915831
13737600,0.99834900008392,0.016712521291903,0.0059022724217992,0.0059022986308008,0.0049079502393029,-0.0015037607353481,0.0015035227904683,-7.0360351638775e-06,6.776105677441e-06,-3.3992345035516e-07,1.6036097986905e-07,-0.0015743351556663,0.001569350721304,-0.0015697638728719,0.0015738993037397,-0.0015742281165092,0.0015694895274746,-0.0015695809791783,0.0015741225361231,-0.0013553571175495,0.0013416045911897,-0.0013417213732808,0.0013552356893984,4.860914162302e-07,-1.075459850978e-08,4.544008360534e-07,1.0750178639459e-07,-0.0015033904196034,0.0015039062462538,-0.0015714770813341,0.0015722605089091,-0.0015715573733558,0.0015721376224266,-0.0015715836821805,0.0015720709999799,-0.0015717361164056,0.001571933390641,-0.0013480666381826,0.0013488152347003,-0.0013484546660779,0.0013485049973859,-0.0015015111000959,0.0015023788188757,-0.0015020232034871,0.0015017748465413,7.384723902008e-06,-6.458897527813e-06,-0.0010388024015491,0.0010397201820908,2.9404097921916e-07,6.4200797269748e-07,-0.0010854162361733,0.0010908103680714,-0.0010852524498713,0.0010909275644368,-0.0010900166004926,0.0010862038671096,-0.0010899164982097,0.0010862973030985,-0.0011492107274929,0.0011366103730827,-0.0011355310997995,0.0011502005926863,0.0038217689675831,0.0037470004828908,0.69185812568435,1473840,32975,0.0062451997636733,0.0062452265555504,0.0043226850747021,34.147795159408,0.00018838236127526,0.00018838236127526,0.00018838236127526,1808161.3289733,0.016955430710353
13824000,0.99842748210711,0.016713693518995,0.0059026935534763,0.005902719762158,0.004908280203361,-0.0015036377027753,0.0015034170132899,-7.0227901580541e-06,6.7827020075891e-06,-3.3296848950806e-07,1.6959583551349e-07,-0.001574253664551,0.0015692878364621,-0.001569685544499,0.0015738339885637,-0.0015741474193512,0.0015694271516403,-0.0015695010673666,0.0015740587207152,-0.0013550868130735,0.0013413583976904,-0.0013414541290858,0.0013549840324095,4.8767558099522e-07,-1.1479377293168e-08,4.5477206440866e-07,1.0971962538519e-07,-0.0015032758904671,0.0015037930234403,-0.001571405149209,0.0015721892676153,-0.0015714843750333,0.0015720680368832,-0.0015715122546581,0.0015719994448413,-0.0015716658266805,0.001571862810565,-0.0013478074876941,0.0013485568831959,-0.0013481951506759,0.0013482483257661,-0.0015014287330517,0.0015023017111,-0.001501949528808,0.0015016966442636,7.3788416409794e-06,-6.4582672832514e-06,-0.0010383334580236,0.001039244909413,2.9220115047572e-07,6.3764133010482e-07,-0.0010849538696883,0.0010903407939063,-0.0010847895470451,0.0010904558564488,-0.0010895501486296,0.0010857333793957,-0.0010894523235409,0.0010858265948562,-0.0011488680704882,0.0011362660702601,-0.0011351969636358,0.0011498557754498,0.0038174510464864,0.0037440591629565,0.69164746050567,1473840,32975,0.0062447255924197,0.006244754574151,0.0043207294485031,33.996564713292,0.00018717251770633,0.00018717251770633,0.00018717251770633,1805487.3028067,0.01695247985421
13910400,0.99850162297718,0.016714800654614,0.0059030912585998,0.0059031174672253,0.0049085919287892,-0.0015035094289063,0.0015032865199904,-7.0209889706972e-06,6.7770073369284e-06,-3.345703435164e-07,1.6976396862201e-07,-0.001574140107221,0.0015691742332878,-0.0015695740863925,0.0015737177557534,-0.0015740326272491,0.0015693144580537,-0.0015693896208615,0.001573942942056,-0.0013548998919718,0.0013411767462732,-0.0013412752314268,0.0013547942580044,4.9023314899405e-07,-1.0593265143404e-08,4.5608381331057e-07,1.1036840807261e-07,-0.0015031442603491,0.0015036646608304,-0.001571288444265,0.0015720772560362,-0.0015713681126815,0.0015719553910315,-0.0015713965580668,0.0015718868297421,-0.0015715491750586,0.001571749871723,-0.0013476230210145,0.001348373089901,-0.0013480092680236,0.0013480642701648,-0.0015013196664553,0.0015021970355482,-0.0015018382798725,0.0015015890365599,7.3875510409256e-06,-6.4418284248206e-06,-0.0010378667882102,0.0010388036660103,3.0416329745828e-07,6.5109899819312e-07,-0.001084527664359,0.0010899359729888,-0.0010843639166183,0.0010900529310648,-0.0010891226459751,0.001085333280395,-0.0010890234104193,0.0010854271349727,-0.0011484597082033,0.0011358922508187,-0.0011347941599158,0.0011494708205336,0.0038131756640485,0.0037411567201154,0.69146348465015,1473840,32975,0.0062441891756182,0.0062442156201697,0.0043188486473865,33.845353650363,0.00018596282920291,0.00018596282920291,0.00018596282920291,1802517.9962403,0.01694947369132
13996800,0.99857169038161,0.016715846761385,0.0059034669966305,0.0059034932049361,0.0049088865598181,-0.0015033787246422,0.0015031533509958,-7.0210707786644e-06,6.7737225997194e-06,-3.3576389589999e-07,1.6888518723832e-07,-0.0015740296806292,0.0015690624237186,-0.0015694646702794,0.0015736051143968,-0.0015739219739062,0.0015692029343889,-0.0015692802113724,0.0015738301242021,-0.001354693949051,0.0013409714060825,-0.0013410730852321,0.0013545847914668,4.9017336842017e-07,-1.1027675687666e-08,4.5583794961754e-07,1.0995535429412e-07,-0.0015030127422214,0.0015035326513797,-0.0015711778493894,0.0015719663640532,-0.001571257555223,0.0015718443369308,-0.0015712858747446,0.0015717756796821,-0.0015714383337599,0.0015716385939869,-0.001347418144499,0.0013481674766755,-0.001347804292314,0.0013478582021589,-0.0015012141826595,0.001502091249493,-0.0015017314946153,0.0015014821020131,7.3738288178165e-06,-6.4526486410013e-06,-0.0010374183766646,0.001038330630084,2.9195208959977e-07,6.3879568710654e-07,-0.0010841126901447,0.0010894953324829,-0.0010839490953242,0.0010896121907653,-0.0010887076267765,0.0010848939537003,-0.0010886076812152,0.0010849879735672,-0.0011480853256169,0.0011354969198961,-0.0011344216538609,0.0011490701894372,0.0038089447157521,0.003738293550709,0.6913041203631,1473840,32975,0.0062436422528391,0.0062436694132297,0.0043169398256201,33.694144551081,0.00018475315640865,0.00018475315640865,0.00018475315640865,1799682.166481,0.016946420983434
14083200,0.99863793400166,0.016716834418722,0.0059038217326065,0.0059038479406807,0.0049091647454348,-0.0015032418353013,0.0015030143867786,-7.0186523158764e-06,6.7695569718524e-06,-3.3696656766028e-07,1.6786092910274e-07,-0.0015739133426402,0.0015689455667075,-0.0015693501582827,0.0015734862874275,-0.0015738051870567,0.0015690863326126,-0.0015691657403624,0.0015737113077131,-0.0013544747086717,0.0013407573850763,-0.0013408625187379,0.0013543655305941,4.8850308765668e-07,-1.2880703578877e-08,4.5440797318719e-07,1.0809888029011e-07,-0.0015028769316352,0.0015033931908238,-0.0015710633972206,0.0015718480832472,-0.0015711431988174,0.0015717261340883,-0.0015711712249529,0.0015716574243073,-0.0015713240474899,0.0015715202643449,-0.0013472036654698,0.0013479500915256,-0.0013475923319006,0.0013476419761925,-0.0015011044593529,0.0015019783245283,-0.0015016220674507,0.0015013688867858,7.3761617358213e-06,-6.4433581814829e-06,-0.0010369526009909,0.0010378778335322,2.9747329201942e-07,6.4497885600715e-07,-0.0010836780094278,0.0010890721438655,-0.0010835140867796,0.0010891891133656,-0.0010882705864229,0.0010844732553812,-0.001088169482193,0.0010845675878642,-0.0011476940701831,0.0011351254236169,-0.0011340393557452,0.001148691046607,0.003804758153735,0.0037354696430185,0.69033351308737,1473840,32975,0.0062430705498146,0.0062430989150785,0.0043150369488585,33.542935689584,0.00018354348551667,0.00018354348551667,0.00018354348551667,1796874.1324127,0.016943324428834
14169600,0.99870058682007,0.016717764161074,0.0059041557410595,0.0059041819490043,0.0049094264710098,-0.0015030281578042,0.0015028018342945,-7.0113007647982e-06,6.7654920560695e-06,-3.3797630470018e-07,1.6901942346675e-07,-0.0015737776052583,0.0015688143003249,-0.0015692189475946,0.0015733508383094,-0.0015736698012769,0.0015689551085619,-0.0015690329606726,0.0015735768482642,-0.0013540944146887,0.0013403900061967,-0.0013404902263103,0.0013539869979098,4.8935999038359e-07,-1.4263736033567e-08,4.5331418883823e-07,1.1009917683131e-07,-0.0015026640956238,0.001503180134137,-0.0015709304315467,0.0015717144922675,-0.0015710091867912,0.0015715937146628,-0.0015710388974746,0.0015715230377962,-0.0015711920834923,0.001571387011712,-0.001346829314684,0.0013475742652826,-0.0013472153922408,0.0013472675296926,-0.0015008811610468,0.0015017576261009,-0.0015014061919704,0.0015011485524531,7.3714559576431e-06,-6.4370583803669e-06,-0.0010364671712572,0.0010373921855675,2.9991421650685e-07,6.4352727107996e-07,-0.0010831722416471,0.0010885639075885,-0.0010830084967839,0.0010886781575046,-0.0010877588988997,0.0010839656165587,-0.0010876618613946,0.0010840582753276,-0.0011473104376473,0.0011347495301287,-0.0011336671747361,0.0011483108412539,0.0038003780304622,0.0037326844249824,0.6870972867125,1473840,32975,0.0062421879095839,0.0062422169756195,0.004313024435053,33.391726939449,0.00018233381551559,0.00018233381551559,0.00018233381551559,1795505.5193677,0.016939483273539
14256000,0.99875986632139,0.016718639450599,0.0059044702618092,0.0059044964697312,0.0049096727190588,-0.0015025943822158,0.0015023750978934,-7.0044493215487e-06,6.765732970627e-06,-3.3416168798543e-07,1.7215999044239e-07,-0.0015735357939711,0.0015685818911538,-0.0015689792907319,0.0015731162099089,-0.0015734282019598,0.0015687225006411,-0.00156879359601,0.001573342117093,-0.0013534265780793,0.0013397356115744,-0.0013398287528309,0.0013533263747394,4.8907663952117e-07,-1.381590039108e-08,4.4721055390779e-07,1.1633262489631e-07,-0.0015022337350451,0.0015027499349155,-0.0015706953968504,0.0015714751877496,-0.0015707700086533,0.0015713586344442,-0.0015708037033539,0.0015712840244466,-0.0015709526756775,0.0015711521809908,-0.0013461740276633,0.0013469071873172,-0.0013465478660442,0.0013466127519071,-0.0015003230871765,0.0015012031498959,-0.001500847373265,0.0015005948379232,7.362891442649e-06,-6.4388995512963e-06,-0.0010359584808692,0.0010368732788375,3.0084661489431e-07,6.3220606399071e-07,-0.0010825538439726,0.0010879370242959,-0.0010823942284194,0.0010880474018004,-0.0010871383222356,0.0010833413432787,-0.0010870452038179,0.0010834299606225,-0.001146867051526,0.0011342984905206,-0.0011332306787495,0.0011478532335898,0.0037953953085729,0.0037299381049325,0.68368223369829,1473840,32975,0.0062404068055913,0.0062404357730186,0.0043108920128251,33.240518205542,0.00018112414564434,0.00018112414564434,0.00018112414564434,1797417.2818899,0.016933691483851
14342400,0.99881560205735,0.016719465343594,0.0059047669076483,0.0059047931155356,0.0049099053204099,-0.0015018976754579,0.0015016843842779,-6.9954090292841e-06,6.762226247501e-06,-3.30080407847e-07,1.7385733146841e-07,-0.0015730357723671,0.0015680926949323,-0.0015684831606956,0.0015726234017349,-0.0015729282567181,0.0015682329408978,-0.0015682986393329,0.001572847848735,-0.0013525061870093,0.0013388341891504,-0.0013389240611052,0.0013524123041188,4.8616168288181e-07,-1.43571428327e-08,4.3848130290403e-07,1.2160357733967e-07,-0.0015015418076312,0.0015020546350159,-0.0015702050857508,0.0015709768280684,-0.0015702755603055,0.0015708642754004,-0.0015703130139204,0.0015707860809231,-0.0015704569865654,0.0015706588028374,-0.0013452728740539,0.0013459894764874,-0.001345632167701,0.0013457083403565,-0.0014994878742095,0.001500365498059,-0.0015000076152737,0.0014997605221001,7.3553843505973e-06,-6.4340034582196e-06,-0.0010352523153806,0.0010361650537785,3.0702213049196e-07,6.2431407879226e-07,-0.0010817348805639,0.0010871171725024,-0.0010815804900693,0.001087222572591,-0.0010863157558401,0.0010825254795134,-0.0010862268407795,0.0010826094030072,-0.0011462000946696,0.0011336367520049,-0.0011325764061282,0.0011471776754718,0.0037894600734071,0.0037272309569389,0.68609892444207,1473840,32975,0.0062375349568564,0.0062375643244927,0.0043079565759083,32.967870880684,0.00017894296704547,0.00017894296704547,0.00017894296704547,1799252.9850716,0.016924865180738
14428800,0.99886781032721,0.016720239106016,0.0059050447774819,0.0059050709853846,0.0049101233431497,-0.001501602297643,0.0015013913586754,-6.9897003192535e-06,6.7578999390671e-06,-3.2913367721991e-07,1.7660464670031e-07,-0.0015726114355601,0.0015676732656449,-0.0015680633409483,0.001572201817627,-0.0015725036962066,0.0015678147383449,-0.0015678796208535,0.0015724276613499,-0.0013522609835172,0.0013386012028731,-0.0013386904118935,0.0013521722299002,4.8329472598218e-07,-1.8667684056566e-08,4.3741126157162e-07,1.140834433155e-07,-0.0015012507255129,0.0015017560927764,-0.0015697862635692,0.0015705506570204,-0.0015698559508614,0.0015704369253539,-0.0015698942018998,0.0015703619351407,-0.0015700389565043,0.0015702316401786,-0.0013450388723564,0.001345753401222,-0.0013454042660993,0.0013454637180865,-0.0014993689856969,0.0015002421822918,-0.0014998875125254,0.0014996300301075,7.3513140973714e-06,-6.4268629451881e-06,-0.0010345305285485,0.0010354489348208,3.0601394018301e-07,6.3071382760003e-07,-0.0010811140442036,0.0010864955230133,-0.0010809579928694,0.0010866045273643,-0.0010856935177609,0.0010819107693622,-0.0010855992971901,0.0010819975224954,-0.0011455632788618,0.0011330210619633,-0.0011319523096347,0.0011465463309691,0.0037847111387655,0.0037245613496737,0.68623943537184,1473840,32975,0.0062363155635666,0.0062363423977024,0.0043049786935162,32.615379039348,0.00017612303231478,0.00017612303231478,0.00017612303231478,1791506.8791465,0.016919355002322
14515200,0.9989167418923,0.016720964607223,0.0059053052766248,0.0059053314842263,0.0049103278463723,-0.0015010607253043,0.0015008526616274,-6.9818103501793e-06,6.7522302246838e-06,-3.2843637450394e-07,1.7840500304793e-07,-0.0015720449655564,0.0015671130800501,-0.0015675011370475,0.0015716387844534,-0.0015719352002227,0.0015672557373544,-0.0015673179360404,0.0015718647321145,-0.0013516970029464,0.001338056277275,-0.0013381444961147,0.0013516144718048,4.6977613664859e-07,-3.3206096341021e-08,4.2258804950837e-07,9.9933862145609e-08,-0.0015007238564865,0.0015012005360003,-0.0015692358040154,0.0015699721713506,-0.0015693059851406,0.0015698581127576,-0.0015693453535245,0.0015697836337518,-0.0015694888027172,0.0015696534059889,-0.0013445013430988,0.0013451850089964,-0.0013448643005535,0.0013448959569363,-0.0014988817396787,0.0014997273114175,-0.0014993974701573,0.0014991137759481,7.3492696095033e-06,-6.4156480942816e-06,-0.0010337422535484,0.0010346705610892,3.1150110742158e-07,6.3576959097799e-07,-0.0010803834440161,0.0010857704715836,-0.0010802290235356,0.0010858798401808,-0.0010849590281145,0.001081190630083,-0.0010848642881128,0.0010812772031022,-0.0011448113914741,0.0011322921774397,-0.0011312147774944,0.001145803503894,0.0037792250170363,0.0037219296766767,0.68643186108898,1473840,32975,0.0062340784444171,0.0062341008139168,0.0043017308934792,32.257908541923,0.00017326326833538,0.00017326326833538,0.00017326326833538,1787648.3002328,0.016911497972911
14601600,0.99896263951694,0.016721645400438,0.005905549679951,0.0059055758869837,0.0049105198335037,-0.0015005146783419,0.0015003025842822,-6.9778759894665e-06,6.7446085248128e-06,-3.3313603778501e-07,1.7889435901423e-07,-0.0015714850297717,0.0015665510426619,-0.0015669449047602,0.0015710731458051,-0.0015713734152865,0.001566695507461,-0.001566759888353,0.0015713002758024,-0.0013511202276536,0.0013374896298395,-0.0013375793345392,0.0013510352501487,4.6801234834678e-07,-4.0442968734272e-08,4.1857440695416e-07,9.4368148110749e-08,-0.0015001803315916,0.0015006474907901,-0.0015686781754034,0.0015694072994531,-0.0015687488658323,0.0015692927605682,-0.001568789964978,0.0015692172727137,-0.0015689340355976,0.0015690863342342,-0.0013439344649255,0.0013446075941925,-0.0013442992648365,0.0013443177592703,-0.0014983745701973,0.0014992157534372,-0.0014988953026317,0.0014985969815327,7.3300152195759e-06,-6.4233788440959e-06,-0.0010329742143575,0.001033875592747,2.9740705570642e-07,6.2296167235794e-07,-0.0010796564101315,0.0010850123669116,-0.0010795020363292,0.001085121857503,-0.0010842277431382,0.0010804359575394,-0.0010841326003889,0.0010805232182576,-0.0011440844447714,0.001131551669431,-0.0011305009347892,0.0011450509481223,0.0037737737857085,0.0037193362384825,0.68667198320647,1473840,32975,0.0062318085519389,0.0062318299994784,0.0042984905926601,31.89997292182,0.00017039978337456,0.00017039978337456,0.00017039978337456,1783758.2112144,0.01690358557303
14688000,0.99900572654615,0.016722284804121,0.0059057791835362,0.0059058053900042,0.0049107002305805,-0.0014999632745509,0.001499747019825,-6.9709215408388e-06,6.7320108433156e-06,-3.3365996693578e-07,1.76335837164e-07,-0.0015709193806722,0.001565988372025,-0.001566384017685,0.0015705029784395,-0.0015708071216325,0.0015661316253793,-0.0015661994293528,0.001570727873687,-0.0013505361627762,0.0013369190492285,-0.0013370108567647,0.0013504395465972,4.7247311515886e-07,-3.4457552956233e-08,4.2313594736149e-07,9.84750303693e-08,-0.0014996229918645,0.0015001001357411,-0.0015681094838028,0.0015688487813394,-0.0015681812503271,0.0015687344037322,-0.0015682198050497,0.0015686573166405,-0.0015683647731036,0.0015685275574603,-0.0013433481899835,0.001344032614298,-0.0013437158845724,0.0013437425860297,-0.0014978589408537,0.0014987092118507,-0.0014983759718898,0.0014980908898698,7.3297451774311e-06,-6.4039574230052e-06,-0.0010321862207299,0.0010331037745846,3.0498140718389e-07,6.3082633641561e-07,-0.001078906169573,0.0010842713359318,-0.0010787529222276,0.0010843810152592,-0.0010834714205174,0.0010797014757874,-0.0010833771252099,0.0010797893462023,-0.0011433357663856,0.0011308413401588,-0.0011297688814894,0.0011443180546551,0.0037683641496656,0.0037167812675204,0.68695613320681,1473840,32975,0.0062295162150662,0.0062295423739245,0.0042952569007763,31.541990964916,0.00016753592771933,0.00016753592771933,0.00016753592771933,1779873.6642631,0.016895640039847
14774400,0.99904620767438,0.016722885854014,0.0059059948815576,0.0059060210878096,0.0049108698846471,-0.0014994072503113,0.0014991904969864,-6.9618672872456e-06,6.7220210203525e-06,-3.3371556024815e-07,1.7619940273796e-07,-0.0015703484146316,0.0015654233710505,-0.0015658192260521,0.0015699312683716,-0.0015702359355033,0.0015655667623002,-0.0015656347396539,0.0015701561620647,-0.0013499460722648,0.0013363463253261,-0.0013364376187548,0.0013498460235569,4.815946270352e-07,-2.4926044837499e-08,4.3425848561438e-07,1.0611139424217e-07,-0.0014990571412262,0.0014995529811254,-0.0015675312288726,0.0015682903856939,-0.0015676042174473,0.0015681745654757,-0.0015676412949603,0.0015680988761427,-0.0015677876458693,0.0015679681301141,-0.0013427539412115,0.0013434605672141,-0.0013431251697715,0.0013431673298895,-0.0014973339897992,0.0014982014460474,-0.0014978504858453,0.0014975840182218,7.3303988221386e-06,-6.3843575848901e-06,-0.0010313962315137,0.0010323328451821,3.1269590017766e-07,6.4241001061167e-07,-0.0010781541803747,0.00108352965012,-0.0010779988999541,0.0010836406524338,-0.0010827127854364,0.0010789662988927,-0.0010826172766354,0.001079055358582,-0.0011425847794722,0.00113013053891,-0.0011290345953319,0.0011435877125667,0.003762995757556,0.0037142649119118,0.68728109465947,1473840,32975,0.0062272123305359,0.0062272375424218,0.0042920208766442,31.18400432693,0.00016467203461544,0.00016467203461544,0.00016467203461544,1776010.7150348,0.016887662961023
14860800,0.99908427058471,0.016723451328654,0.0059061977760272,0.0059062239820197,0.0049110295706068,-0.0014988368711812,0.0014986417628638,-6.9436459350022e-06,6.7242923806078e-06,-3.2461666039256e-07,1.8855989043647e-07,-0.0015697625345335,0.0015648642677357,-0.0015652399614775,0.0015693671982607,-0.0015696493907983,0.0015650093554097,-0.0015650544625779,0.0015695930756395,-0.0013493409589144,0.0013357801675989,-0.0013358501408659,0.001349263997469,4.7415306344527e-07,-3.5538572104252e-08,4.2599898651426e-07,9.6060923259057e-08,-0.0014985061142425,0.0014989836720684,-0.0015669675796387,0.0015677093439777,-0.0015670402691124,0.0015675935450013,-0.0015670783396169,0.0015675171706877,-0.0015672248466584,0.0015673859887521,-0.0013421767473995,0.0013428669497804,-0.0013425508943906,0.0013425726059771,-0.0014968220169709,0.0014976732623688,-0.0014973404667321,0.001497052199358,7.3249616968514e-06,-6.3742383669532e-06,-0.0010306130734633,0.001031555383665,3.1432456430144e-07,6.4572149584401e-07,-0.0010774052997238,0.0010827823790091,-0.0010772503796785,0.0010828942495037,-0.0010819611256301,0.0010782246806266,-0.0010818640346405,0.0010783148220239,-0.0011418431779706,0.0011294105474417,-0.0011283074025253,0.0011428504131924,0.0037576687200067,0.0037117872439979,0.68764402746714,1473840,32975,0.0062248948506753,0.0062249175309002,0.0042887854361557,30.826017221775,0.0001618081377742,0.0001618081377742,0.0001618081377742,1772164.566539,0.016879657280191
14947200,0.99911995393397,0.016723981801188,0.0059063880778022,0.0059064142834343,0.0049111794399518,-0.0014981304045252,0.0014979589473294,-6.9230266586984e-06,6.7264843763548e-06,-3.1437883081387e-07,2.0219580506546e-07,-0.0015690403639705,0.0015641707953916,-0.001564524159148,0.0015686682634913,-0.001568925478672,0.0015643177707037,-0.0015643383246734,0.0015688948262343,-0.0013486019308689,0.0013350849823802,-0.0013351318704056,0.0013485499392785,4.6724616134374e-07,-4.5964823397608e-08,4.1736906011588e-07,8.6701002105811e-08,-0.0014978194538409,0.0014982794101903,-0.0015662674911625,0.0015669925536679,-0.0015663397902244,0.0015668770555431,-0.001566379422607,0.0015667996563799,-0.0015665259964143,0.0015666682966924,-0.0013414687875628,0.0013421418098644,-0.0013418448534736,0.0013418462741999,-0.0014961720087539,0.0014970097927917,-0.0014966921101631,0.0014963836436403,7.3382251704506e-06,-6.3430043896918e-06,-0.0010297013488097,0.0010306889404141,3.3608313425536e-07,6.6874685160485e-07,-0.001076527331017,0.0010819447550436,-0.0010763734318025,0.0010820568275257,-0.0010810787343292,0.001077392850005,-0.0010809801392927,0.001077484071552,-0.0011409643120203,0.0011285961084887,-0.0011274467858193,0.0011420158042304,0.003751861466381,0.003709347608171,0.68804312758091,1473840,32975,0.0062220180531438,0.0062220373377756,0.0042850984967863,30.401664539885,0.00015841331631908,0.00015841331631908,0.00015841331631908,1768138.9811505,0.016870054171857
15033600,0.99915310680208,0.016724473284266,0.0059065644062022,0.005906590611353,0.0049113182667109,-0.0014970913060553,0.0014968917453966,-6.9224849670908e-06,6.7028989929875e-06,-3.3166897164111e-07,1.8980355691611e-07,-0.0015679843092166,0.0015630930762256,-0.0015634758513438,0.0015675796691262,-0.0015678712347188,0.0015632391149424,-0.001563285609187,0.0015678101870775,-0.0013475432051049,0.0013340196499192,-0.0013340896961889,0.001347467031761,4.9129269830062e-07,-2.6727424146274e-08,4.4119733360851e-07,1.1090731878622e-07,-0.0014967459434771,0.0014972512218111,-0.0015651783107116,0.0015659522606896,-0.0015652527636906,0.0015658358064314,-0.0015652916835641,0.0015657560296426,-0.0015654404180111,0.0015656242105517,-0.0013403838875665,0.0013411010240651,-0.0013407577241508,0.0013408056892305,-0.0014951249427802,0.0014960095934374,-0.0014956616482979,0.0014953851404283,7.2913258134342e-06,-6.3654540162411e-06,-0.0010285607875318,0.0010294776080141,3.0228776408595e-07,6.3305816854173e-07,-0.0010754281965966,0.0010807657204425,-0.0010752693649285,0.0010808754986896,-0.0010799648497847,0.0010762178874758,-0.0010798714874495,0.001076306745873,-0.0011398329426211,0.0011274097961985,-0.0011263393284797,0.0011408194925474,0.0037447030735043,0.0037069439470825,0.68606450701294,1473840,32975,0.0062176568586543,0.0062176856763589,0.004280220809568,29.802576670304,0.00015362061336243,0.00015362061336243,0.00015362061336243,1763548.9010561,0.016856234634601
15120000,0.99918392621504,0.016724927529394,0.0059067274156409,0.005906753620782,0.0049114464929715,-0.0014957834551609,0.0014956258069754,-6.8909791422163e-06,6.7119521139733e-06,-3.1294167902434e-07,2.1268869276117e-07,-0.0015667735166929,0.0015619297307981,-0.0015622731363243,0.0015664115233938,-0.0015666569838705,0.0015620784648335,-0.0015620829660456,0.0015666421450029,-0.0013461232171581,0.0013326690567236,-0.0013326990986781,0.0013460935224312,4.8108628577972e-07,-4.0903932530556e-08,4.2303907447763e-07,1.0278297283176e-07,-0.0014954720715678,0.0014959519923194,-0.001564007051863,0.0015647532521226,-0.0015640772818163,0.0015646396530112,-0.001564123197318,0.001564556855217,-0.0015642660454945,0.0015644273784499,-0.0013390207128232,0.0013397013494218,-0.0013393811296734,0.0013394129690681,-0.0014937635864034,0.001494630742652,-0.0014942976007802,0.0014940005885275,7.2763485524447e-06,-6.3581500058241e-06,-0.0010273271074454,0.001028237841097,3.0488746494546e-07,6.2595416159251e-07,-0.0010741350821077,0.0010794626771279,-0.0010739819725769,0.0010795699515647,-0.0010786666079074,0.0010749237512601,-0.0010785743417591,0.0010750092655134,-0.001138586864931,0.0011261776449114,-0.001125116867006,0.00113956140622,0.0037368377211581,0.0037045760900209,0.68207975083026,1473840,32975,0.0062123284444908,0.0062123586898002,0.0042750882823351,29.193059902055,0.00014874447921644,0.00014874447921644,0.00014874447921644,1762380.5574511,0.016840180308588
15206400,0.99921260760108,0.016725347552718,0.005906878183654,0.0059069043889077,0.0049115649801561,-0.0014943071827949,0.0014941542321319,-6.8766767765775e-06,6.7037220381553e-06,-3.161365508297e-07,2.2054658169885e-07,-0.0015655221603101,0.0015606875197511,-0.0015610287589521,0.001565159181669,-0.0015654037172962,0.0015608387402118,-0.0015608334506662,0.0015653946001191,-0.0013444196402605,0.0013309919197979,-0.0013310105913747,0.0013443949648926,4.9667888500801e-07,-3.6176053638393e-08,4.248834727742e-07,1.2356126860471e-07,-0.0014939873853514,0.0014944888750315,-0.00156274876112,0.0015635147112228,-0.0015628139581674,0.0015634077422366,-0.00156286741971,0.0015633130764159,-0.0015630063095224,0.0015631912701772,-0.001337327349531,0.0013380066877097,-0.001337672018079,0.001337740225292,-0.0014920909592931,0.0014929948438277,-0.0014926412834404,0.001492356776684,7.2583772164646e-06,-6.3534755624233e-06,-0.0010260670495376,0.0010269629138394,3.0627491708164e-07,6.0811197119612e-07,-0.0010727029414263,0.0010780141493296,-0.0010725537894596,0.0010781143139385,-0.0010772244085415,0.0010734812755852,-0.0010771407579187,0.0010735602606496,-0.0011373254968926,0.0011249152895167,-0.0011238752938892,0.0011382810460453,0.0037284420256258,0.0037022442177048,0.67774694351019,1473840,32975,0.0062062263148719,0.0062062566501391,0.0042698259922416,28.582583442157,0.00014386066753725,0.00014386066753725,0.00014386066753725,1764249.3474854,0.016822418987252
15292800,0.99923932863535,0.016725745732193,0.0059070208918075,0.0059070470971069,0.0049116777432787,-0.0014928067432483,0.0014926354837074,-6.8739472923607e-06,6.6796044719607e-06,-3.2517623318346e-07,2.1174281003966e-07,-0.0015642381400296,0.0015593938494264,-0.001559753904352,0.0015638594447396,-0.0015641172067155,0.001559546899811,-0.0015595611180465,0.0015640935069693,-0.0013427075184851,0.0013292906804409,-0.0013293317558312,0.0013426655660694,4.8596587442342e-07,-4.7445850802002e-08,4.0239475850455e-07,1.2280596720679e-07,-0.0014924867215228,0.0014929654661498,-0.0015614727388459,0.0015622077701581,-0.0015615301800184,0.0015621080714576,-0.0015615937599984,0.0015620083702814,-0.0015617220865522,0.0015618934069558,-0.0013356447174013,0.0013362805110542,-0.0013359656020805,0.0013360315167989,-0.0014903831594197,0.001491271969177,-0.0014909237595282,0.0014906304823991,7.2416750801941e-06,-6.3433916568274e-06,-0.0010248047085842,0.0010256948792768,3.1437761024427e-07,5.9537998873221e-07,-0.0010712879181692,0.0010765915919498,-0.0010711500456596,0.0010766855718176,-0.0010758037452554,0.0010720704077667,-0.0010757229067573,0.0010721422435029,-0.0011360348330133,0.0011236420532633,-0.0011226114298976,0.001136974481078,0.0037199909812951,0.003699951011672,0.68959759879814,1473840,32975,0.0061999764779966,0.0061999966984775,0.0042645727043332,27.972010096198,0.00013897608076958,0.00013897608076958,0.00013897608076958,1766839.3202882,0.016804356303547
15379200,0.99926424984109,0.016726120595576,0.0059071551213596,0.0059071813263469,0.0049117841478698,-0.0014928324908356,0.0014926577737977,-6.8655656517547e-06,6.6679402932066e-06,-3.3139091633263e-07,2.1618197855482e-07,-0.0015636463733053,0.001558804283646,-0.0015591712916134,0.0015632596163312,-0.0015635273978634,0.0015589591496844,-0.0015589720426573,0.0015635004957188,-0.0013431746120488,0.0013297677287531,-0.0013298074102103,0.0013431297642665,4.9246055907492e-07,-5.1754166522944e-08,4.1457327979649e-07,1.1087162366925e-07,-0.0014925115817095,0.0014929926261944,-0.0015608787321689,0.0015616245170331,-0.001560939326182,0.0015615184199308,-0.001560998811632,0.0015614233728645,-0.0015611386576446,0.0015612978939297,-0.0013361057785587,0.0013367656105361,-0.0013364571867144,0.0013364931130376,-0.0014910694117964,0.0014919706681568,-0.0014916311373481,0.0014913118451344,7.2562166321867e-06,-6.3066309520772e-06,-0.0010238531564296,0.0010247954581145,3.284953185975e-07,6.316414741718e-07,-0.0010707135634357,0.0010760533959044,-0.0010705635774793,0.001076154764,-0.0010752187835482,0.0010715408352163,-0.0010751360040442,0.0010716208752963,-0.0011352589437129,0.0011229442091189,-0.0011218555810831,0.0011362543379443,0.0037164445638511,0.0036976954451851,0.69611490803235,1473840,32975,0.0062000724755507,0.0062001009380866,0.0042607471269524,27.361427362519,0.00013409141890015,0.00013409141890015,0.00013409141890015,1744380.4055926,0.016800672900192
15465600,0.99928751634902,0.016726472469296,0.0059072810669439,0.0059073072718185,0.0049118841305334,-0.0014922399510875,0.0014920628465228,-6.8553559827769e-06,6.6578868734352e-06,-3.3645005671116e-07,2.1742600992519e-07,-0.001562675493689,0.0015578338383546,-0.0015582052664316,0.0015622831818616,-0.0015625527682289,0.0015579903560887,-0.0015580041923728,0.0015625251587731,-0.0013429263163603,0.0013295437599185,-0.0013295814843759,0.0013428833740242,4.9748984777219e-07,-5.3003090201536e-08,4.1977902556371e-07,1.1126279874258e-07,-0.0014919159534331,0.0014924009607926,-0.0015599026261239,0.0015606591109485,-0.0015599688476257,0.0015605506672635,-0.00156002639141,0.0015604532249052,-0.0015601681079074,0.0015603279495103,-0.0013358651420903,0.0013365304460919,-0.0013362184893884,0.0013362546340468,-0.0014907616530014,0.0014916684761916,-0.0014913315123609,0.0014910091779177,7.2306454633232e-06,-6.3135977274537e-06,-0.0010228253196396,0.0010237335325115,3.0889179751715e-07,6.1790195989268e-07,-0.0010700274304278,0.001075326147308,-0.0010698754321761,0.0010754286035383,-0.0010745264897676,0.0010708155382906,-0.0010744408428699,0.0010708973475752,-0.0011342077152597,0.0011218783299503,-0.0011208239084218,0.0011351781503135,0.0037110163086598,0.0036954769848982,0.69958330887977,1473840,32975,0.0061976116729009,0.0061976405005241,0.0042564186397955,26.750844236894,0.00012920675389515,0.00012920675389515,0.00012920675389515,1731816.7614845,0.016791269395002
15552000,0.99930925955352,0.01672680219968,0.0059073990533183,0.0059074252581532,0.0049119778882088,-0.0014913497267323,0.0014911525063354,-6.8546610484666e-06,6.6378850692754e-06,-3.4749451483895e-07,2.0809572213078e-07,-0.0015616257303078,0.0015567699723638,-0.0015571618794264,0.0015612116755073,-0.0015615019708465,0.0015569269617062,-0.0015569598824742,0.0015614542567967,-0.0013421811641323,0.0013288000703318,-0.0013288549693901,0.0013421192613541,4.9582738407112e-07,-5.6450351964643e-08,4.1992846281812e-07,1.0780981189935e-07,-0.001491017933921,0.0014914984643358,-0.0015588470971077,0.0015596014898528,-0.0015589155232477,0.0015594913270615,-0.0015589715363623,0.0015593938737472,-0.0015591145030405,0.0015592682026218,-0.0013351190764521,0.0013357819748776,-0.0013354747413198,0.0013355055018605,-0.0014899923074565,0.0014908918135045,-0.001490564889102,0.0014902337936469,7.217550361948e-06,-6.306111903558e-06,-0.0010216917452315,0.0010225940008369,3.0393305071181e-07,6.165548337209e-07,-0.001069042885182,0.0010743271350719,-0.0010688896464699,0.0010744314148369,-0.0010735348849294,0.001069824179042,-0.0010734479746174,0.0010699066194939,-0.0011330505820712,0.0011207352908038,-0.0011196859931333,0.001134017795364,0.0037046292567984,0.003693295212432,0.7013292446952,1473840,32975,0.0061938825537317,0.0061939114870557,0.0042517062928153,26.140261711746,0.00012432209369396,0.00012432209369396,0.00012432209369396,1724006.7979003,0.016778895433071
15638400,0.99933006250517,0.016727118492405,0.0059075121940563,0.0059075383988792,0.0049120678994698,-0.0014910640717722,0.0014908618739985,-6.8527637430781e-06,6.6304141721988e-06,-3.5033730588555e-07,2.0615373935895e-07,-0.0015612864044459,0.0015564285757409,-0.001556825793461,0.0015608675731543,-0.0015611621852243,0.0015565860409999,-0.0015566236994018,0.0015611101760345,-0.001341901374134,0.0013285247458908,-0.0013285854739782,0.0013418344142497,4.9754445856736e-07,-5.5639043621351e-08,4.2194386434561e-07,1.0787139193737e-07,-0.0014907285821534,0.0014912115496945,-0.001558505287531,0.0015592629389513,-0.0015585740548062,0.0015591520836091,-0.0015586299539941,0.0015590553042042,-0.0015587732483002,0.0015589286619875,-0.0013348400923907,0.0013355074423349,-0.0013351975708986,0.0013352279209714,-0.0014897687176424,0.0014906713603364,-0.0014903409829507,0.0014900115068499,7.2139759405294e-06,-6.3002802463587e-06,-0.0010211285635234,0.0010220332897219,3.0436590453354e-07,6.1893623512893e-07,-0.0010685452144926,0.0010738283007281,-0.0010683917361501,0.001073933129041,-0.0010730344595415,0.0010693285719745,-0.0010729467135944,0.0010694117918518,-0.0011325275424597,0.0011202251289522,-0.0011191721895864,0.001133496774379,0.0037007921758906,0.0036911522679772,0.70313729034801,1473840,32975,0.0061926885432295,0.0061927175200751,0.0042493774372596,25.914225553024,0.00012251380442419,0.00012251380442419,0.00012251380442419,1719890.9830615,0.016774099814495
15724800,0.9993500316814,0.016727425708497,0.0059076219869038,0.0059076481917152,0.0049121555298777,-0.0014908717755829,0.0014906698755305,-6.8485894981573e-06,6.6260698449814e-06,-3.5004917916448e-07,2.0633112350401e-07,-0.0015610507651931,0.0015561962004281,-0.0015565930736431,0.0015606324455044,-0.0015609264158637,0.0015563537267563,-0.0015563911101588,0.0015608748854475,-0.0013417071568779,0.0013283392245498,-0.0013283998035808,0.0013416401940545,4.9656502130937e-07,-5.6479099411664e-08,4.2239643380974e-07,1.0505059809178e-07,-0.0014905372800226,0.0014910183449538,-0.0015582717784426,0.0015590281269999,-0.0015583410469084,0.0015589163931119,-0.0015583963176948,0.0015588211613975,-0.0015585402156468,0.0015586929532272,-0.0013346499329929,0.0013353190274123,-0.0013350104372734,0.0013350350660395,-0.0014896376393828,0.0014905377517546,-0.0014902090421496,0.0014898770098535,7.2091108093874e-06,-6.2964886056299e-06,-0.0010206479467369,0.0010215518045781,3.0233633373848e-07,6.2031122484358e-07,-0.0010681392944258,0.0010734172904898,-0.0010679852218171,0.0010735236099373,-0.0010726261734527,0.0010689210402517,-0.0010725368793328,0.0010690057261914,-0.0011320843607117,0.0011197916552226,-0.0011187378481632,0.0011330531608581,0.0036973814936474,0.0036890486717658,0.71137692937646,1473840,32975,0.0061918919851098,0.0061919205224409,0.004247384377739,25.73779638193,0.00012110237105544,0.00012110237105544,0.00012110237105544,1715988.5799849,0.01677045345812
15811200,0.99936921039216,0.016727723369076,0.0059077283070644,0.0059077545118473,0.0049122405501639,-0.0014911111812293,0.0014909116534841,-6.8454362461289e-06,6.625669674747e-06,-3.5140460765436e-07,2.1041952324087e-07,-0.0015610093563497,0.0015561570471101,-0.0015565535040187,0.0015605912727634,-0.0015608846215698,0.0015563157179946,-0.0015563488630479,0.0015608363005363,-0.0013421361228652,0.0013287731922676,-0.0013288294987136,0.0013420734002586,5.0237894259942e-07,-5.5976013196867e-08,4.3102794911208e-07,1.0187476238881e-07,-0.0014907751539176,0.0014912620036454,-0.0015582260783218,0.0015589926423056,-0.0015582981613691,0.0015588777609354,-0.001558351372419,0.0015587846298455,-0.0015585001398867,0.0015586519844293,-0.0013350742874979,0.0013357583703408,-0.0013354486019093,0.001335463901308,-0.001490166700338,0.0014910765031367,-0.0014907462765992,0.0014904086322223,7.2005655282709e-06,-6.3009554865707e-06,-0.0010203170223692,0.0010212081589247,2.8990469575384e-07,6.1920800385841e-07,-0.0010680388290503,0.0010732991354447,-0.0010678798396636,0.0010734092873376,-0.0010725237649929,0.0010688043063044,-0.0010724320869099,0.0010688932688292,-0.0011318462329361,0.0011195476715588,-0.0011185035538692,0.001132805519459,0.0036954570467503,0.0036869836288074,0.71758699969689,1473840,32975,0.0061928860640897,0.0061929153222719,0.0042459933965324,25.564982744479,0.00011971986195583,0.00011971986195583,0.00011971986195583,1705430.8848172,0.016771063204091
15897600,0.9993876357207,0.01672801055704,0.0059078308686181,0.0059078570733614,0.0049123226150606,-0.0014910402800543,0.001490844223005,-6.8404594603019e-06,6.6247574320388e-06,-3.5063636149772e-07,2.1246360114496e-07,-0.0015607831807511,0.0015559354029179,-0.0015563286375096,0.0015603679610196,-0.0015606571294583,0.001556094832911,-0.0015561241847321,0.001560613066873,-0.0013421949983253,0.0013288439322215,-0.0013288949317095,0.0013421365713228,5.0611903134366e-07,-5.3597116171274e-08,4.3817093661366e-07,1.029696983902e-07,-0.0014907024378217,0.0014911962659338,-0.0015579970408098,0.001558774685286,-0.0015580729279909,0.0015586568395037,-0.0015581238579584,0.0015585647253068,-0.0015582743262963,0.0015584312716534,-0.0013351307561722,0.0013358272799727,-0.0013355089608819,0.0013355282397381,-0.0014901944081037,0.0014911069385303,-0.0014907745177708,0.0014904413136841,7.2066145543554e-06,-6.28973811316e-06,-0.0010197975004516,0.0010207051340409,2.9513930561639e-07,6.3085150887438e-07,-0.0010677785948956,0.0010730513137898,-0.0010676176637094,0.0010731633697882,-0.0010722615350397,0.0010685576445447,-0.0010721669422554,0.0010686476546635,-0.0011313009736696,0.0011190252922678,-0.0011179627037415,0.0011322814807328,0.0036924512171485,0.0036849562008342,0.720507647339,1473840,32975,0.0061925975041842,0.0061926265132927,0.0042438769904143,25.392512897579,0.00011834010318063,0.00011834010318063,0.00011834010318063,1698825.5165804,0.016768325441909
15984000,0.99940534244638,0.01672828735752,0.0059079297048148,0.0059079559095484,0.0049124017431565,-0.0014907535614895,0.0014905515249521,-6.8405618230772e-06,6.6177434371042e-06,-3.5334774676832e-07,2.0964813486281e-07,-0.0015604986569076,0.0015556471016422,-0.0015560462178491,0.0015600780035082,-0.001560372033009,0.0015558068298899,-0.0015558423414828,0.0015603226963893,-0.001341872783772,0.0013285231055065,-0.0013285818538118,0.0013418080992492,5.0113240974006e-07,-5.8537064868202e-08,4.3550009518738e-07,9.5158595314556e-08,-0.0014904175282272,0.0014909013969155,-0.0015577149282806,0.0015584840046297,-0.0015577919320741,0.001558364400595,-0.0015578416141179,0.0015582746489356,-0.0015579931810232,0.0015581388179355,-0.0013348125302596,0.0013355054370047,-0.0013351958637826,0.0013351991096709,-0.0014899044266104,0.001490805770546,-0.0014904820883463,0.0014901384263431,7.1999234565893e-06,-6.289337126421e-06,-0.0010192095492414,0.0010201115241855,2.9000829414615e-07,6.3087611891118e-07,-0.0010673063560046,0.001072569175959,-0.0010671444539586,0.0010726830764261,-0.0010717876996758,0.0010680785860911,-0.001071690455932,0.0010681706608429,-0.0011307047589141,0.0011184337567868,-0.0011173743334343,0.0011316791328488,0.0036887404708578,0.0036829657077812,0.72255834064171,1473840,32975,0.0061913965363621,0.0061914247952937,0.0042414280784134,25.220076832684,0.00011696061466147,0.00011696061466147,0.00011696061466147,1695666.9851298,0.016763392931038
16070400,0.99942236350198,0.016728553948685,0.0059080248833811,0.0059080510880882,0.004912477977216,-0.0014904532479279,0.0014902496218773,-6.8371760899435e-06,6.6127645831001e-06,-3.5449994716795e-07,2.0890065452611e-07,-0.0015602080998733,0.0015553575959729,-0.0015557584204014,0.001559785903808,-0.0015600811628616,0.0015555176030753,-0.0015555546065268,0.0015600306982717,-0.0013415349819624,0.0013281925199101,-0.0013282530015655,0.0013414693338993,4.9197088427375e-07,-6.8214711596738e-08,4.2796537787756e-07,8.3610466639916e-08,-0.0014901258518515,0.0014905908988392,-0.0015574336390449,0.0015581854917867,-0.0015575116351257,0.0015580642912864,-0.0015575607769769,0.0015579762540081,-0.0015577132877293,0.0015578389490284,-0.0013344863208302,0.0013351644728187,-0.0013348733554704,0.0013348534673302,-0.0014896027300599,0.001490484510593,-0.0014901811264668,0.0014898171735849,7.1913274168353e-06,-6.2893908509485e-06,-0.0010186464316479,0.0010195399727775,2.8394816263807e-07,6.2887359823601e-07,-0.0010668377779866,0.0010720875190079,-0.0010666746785953,0.0010722029770154,-0.0010713159992521,0.0010676000707133,-0.0010712171312835,0.0010676934340585,-0.001130136083703,0.0011178665281667,-0.0011168146206825,0.0011311031133795,0.0036850666925821,0.003681011506574,0.72392196976888,1473840,32975,0.0061901485931132,0.0061901769398786,0.004239076061843,25.047644125026,0.00011558115300021,0.00011558115300021,0.00011558115300021,1692959.2504416,0.016758464149472
16156800,0.99943873011048,0.016728810584231,0.0059081164986982,0.0059081427033839,0.0049125513821489,-0.0014901446083751,0.0014899377210545,-6.8330145498363e-06,6.6053290288086e-06,-3.5582885998831e-07,2.0687311429563e-07,-0.0015599172691062,0.0015550675926646,-0.0015554714166744,0.0015594920790715,-0.0015597903851955,0.0015552273160003,-0.0015552676761082,0.0015597364635394,-0.0013411806132553,0.0013278459196832,-0.0013279097067774,0.0013411110147681,4.8448337276129e-07,-7.5122326778512e-08,4.2223439382192e-07,7.4429458429915e-08,-0.0014898230513712,0.0014902734954174,-0.0015571500765223,0.0015578885179687,-0.0015572294066752,0.0015577660073018,-0.0015572771492327,0.0015576794257486,-0.0015574307537091,0.0015575410796802,-0.0013341417314683,0.0013348084750639,-0.0013345317475486,0.0013344939303287,-0.001489287876866,0.001490153413588,-0.0014898656703406,0.0014894870486438,7.1885992130307e-06,-6.2805413678736e-06,-0.0010180933613633,0.0010189928183483,2.8530423328945e-07,6.3364830920317e-07,-0.0010663588147893,0.0010716091889294,-0.0010661947842283,0.0010717260072507,-0.0010708330817315,0.0010671257304288,-0.0010707333266154,0.0010672203311424,-0.0011295829830046,0.0011173318583523,-0.0011162724237023,0.0011305570234508,0.0036814275126242,0.0036790929862975,0.7247396724477,1473840,32975,0.0061888629109655,0.006188891955279,0.0042367952217199,24.875211752944,0.00011420169402355,0.00011420169402355,0.00011420169402355,1690614.9544802,0.016753531527443
16243200,0.99945447188571,0.016729057555662,0.0059082046578128,0.0059082308624962,0.0049126220353528,-0.0014898295712822,0.0014896162767693,-6.8294004690016e-06,6.5950836700782e-06,-3.5959507845757e-07,2.0425351287542e-07,-0.0015596275880841,0.0015547756286375,-0.0015551863478807,0.0015591957570369,-0.001559500089597,0.0015549358833147,-0.0015549821713799,0.0015594405113806,-0.0013408097340399,0.0013274823971209,-0.001327552791151,0.0013407340306284,4.7548856615453e-07,-8.5393068706014e-08,4.1462468430377e-07,6.2521746736583e-08,-0.0014895146166875,0.0014899457533455,-0.0015568680670534,0.001557589464648,-0.0015569490654696,0.0015574651881211,-0.001556995698976,0.0015573797496986,-0.001557150600806,0.0015572399770999,-0.0013337833036739,0.0013344339596638,-0.0013341765376866,0.0013341149297999,-0.0014889647816966,0.0014898103407491,-0.0014895432805831,0.0014891432691933,7.1919604940419e-06,-6.2633146447007e-06,-0.0010175471261896,0.0010184672227549,2.935946242697e-07,6.4631390958883e-07,-0.001065869098368,0.0010711338632018,-0.0010657037330095,0.0010712523289595,-0.0010703388271491,0.0010666551883735,-0.0010702377503011,0.0010667512992925,-0.0011290430382218,0.0011168273339711,-0.0011157453419086,0.0011300385456708,0.003677821769992,0.0036772095564137,0.7251219612878,1473840,32975,0.0061875443894693,0.0061875740653735,0.0042345730721631,24.702779433822,0.00011282223547058,0.00011282223547058,0.00011282223547058,1688554.7236716,0.016748591669217
16329600,0.99946961692415,0.016729295178266,0.0059082894755324,0.0059083156802289,0.004912690022505,-0.0014895055101387,0.0014892910105402,-6.8237169350082e-06,6.5884022488425e-06,-3.5982299268892e-07,2.032364167442e-07,-0.0015593361123668,0.0015544873855759,-0.0015548990605073,0.0015589032560718,-0.0015592089800342,0.0015546473306949,-0.0015546950167804,0.0015591477426428,-0.0013404217607338,0.001327105162796,-0.0013271770261424,0.0013403447768708,4.7490688479784e-07,-8.5162766186568e-08,4.1576048621953e-07,6.1351092860917e-08,-0.0014891900345175,0.001489620894377,-0.0015565779957741,0.0015572996654652,-0.0015566599937209,0.0015571747068679,-0.0015567052133401,0.0015570899115375,-0.0015568611211982,0.0015569496273096,-0.0013333992362115,0.0013340519505121,-0.0013337948853192,0.001333731342336,-0.0014886245305438,0.001489467908984,-0.0014892024702967,0.0014888019827415,7.1849777407745e-06,-6.2580734911572e-06,-0.001017022668377,0.0010179409897264,2.9149163042325e-07,6.464731178888e-07,-0.0010653850521547,0.0010706436811882,-0.0010652187867084,0.0010707626323378,-0.0010698507150588,0.0010661686351308,-0.0010697490486456,0.0010662653674001,-0.0011285325813516,0.0011163273882532,-0.00111524685329,0.0011295274228831,0.0036742482700989,0.0036753606426453,0.7251565296502,1473840,32975,0.0061861994104766,0.0061862288517424,0.0042323946100073,24.530347126955,0.00011144277701564,0.00011144277701564,0.00011144277701564,1686731.2618042,0.016743641502109
16416000,0.99948424142,0.016729520300431,0.0059083699300651,0.0059083961347693,0.0049127542355968,-0.0014892917965594,0.0014890717463599,-6.8215162267369e-06,6.5812156344308e-06,-3.6227407258111e-07,2.0014849748961e-07,-0.0015591622130333,0.0015543113749175,-0.0015547283614898,0.0015587235150974,-0.001559035692013,0.0015544708426008,-0.0015545240881065,0.0015589680707446,-0.0013401326292714,0.0013268190042757,-0.0013268954617202,0.0013400497575997,4.7592221762124e-07,-8.3565531772042e-08,4.1676412153949e-07,6.3233029094866e-08,-0.0014889722129741,0.001489405605016,-0.0015564017758022,0.0015571253658261,-0.001556483744803,0.0015570011469816,-0.0015565285547935,0.0015569154511893,-0.0015566847618018,0.0015567757933901,-0.0013331093972237,0.0013337633329913,-0.0013335050236782,0.0013334452106685,-0.0014883910991136,0.0014892366539638,-0.0014889696911126,0.001488571549741,7.1775391554509e-06,-6.2562209449238e-06,-0.0010166026977594,0.0010175149879045,2.8861336096023e-07,6.4259043886489e-07,-0.0010649912941014,0.0010702416358496,-0.0010648248902009,0.0010703599714944,-0.001069453681802,0.0010657690181439,-0.0010693528293063,0.0010658653589306,-0.0011281420064154,0.0011159389339191,-0.0011148651926656,0.0011291319226738,0.0036711560127727,0.0036735447938697,0.71157452020031,1473840,32975,0.0061853024587711,0.0061853316255012,0.004230640889813,24.415110041457,0.00011052088033165,0.00011052088033165,0.00011052088033165,1685283.0188919,0.016740034167789
16502400,0.99949837092354,0.016729741168375,0.0059084487671158,0.0059084749718196,0.0049128174294401,-0.0014882098674768,0.0014879983381443,-6.8097402600456e-06,6.5776471845474e-06,-3.5969668505532e-07,2.0524893222213e-07,-0.0015586391765719,0.001553800204731,-0.0015542091427815,0.0015582086473093,-0.0015585092733403,0.0015539613832684,-0.0015540049906746,0.0015584520848902,-0.0013385368354933,0.0013252519328325,-0.0013253190502246,0.0013384630967564,4.7839388729077e-07,-8.3515083268651e-08,4.0284609289694e-07,8.0046717763057e-08,-0.0014878933364693,0.001488329280096,-0.0015558878340388,0.0015566060693558,-0.001555961196824,0.0015564907890142,-0.0015560167347033,0.0015563941859971,-0.0015561613887727,0.0015562655935185,-0.0013315427420379,0.0013321669633347,-0.0013319043611697,0.0013318785947652,-0.0014868218712053,0.0014876787490491,-0.0014873993052784,0.0014870152900195,7.1644853399946e-06,-6.2545075875279e-06,-0.0010159949073833,0.0010168954237124,2.9848798003233e-07,6.2209309712705e-07,-0.0010640038633789,0.0010692474472249,-0.0010638491489751,0.0010693556929021,-0.0010684621932007,0.0010647796888552,-0.0010683697946606,0.001064865506645,-0.0011274979069234,0.0011152889990474,-0.0011142361700845,0.001128466101193,0.0036653549217356,0.0036717635680202,0.72247542900232,1473840,32975,0.0061808426751025,0.0061808721266523,0.0042280842702645,24.305846140526,0.00010964676912421,0.00010964676912421,0.00010964676912421,1698160.3805004,0.016728363238867
16588800,0.99951202496643,0.016729957715186,0.0059085259760217,0.0059085521807556,0.004912879558409,-0.001488897780689,0.0014887032458813,-6.800777190831e-06,6.5865883001368e-06,-3.5244596607546e-07,2.1580215970956e-07,-0.0015588570397061,0.0015540350017115,-0.0015544284305649,0.0015584416758554,-0.0015587292598933,0.0015541961659255,-0.0015542223096736,0.0015586884406343,-0.0013395628125941,0.0013262913873615,-0.0013263391502447,0.0013395076653006,5.0802625121756e-07,-5.6828594429419e-08,4.4226965913403e-07,9.7467864592994e-08,-0.001488561356338,0.0014890538490986,-0.0015560820095497,0.0015568632264553,-0.0015561610561232,0.0015567421564019,-0.0015562105451393,0.0015566515537965,-0.0015563641221853,0.0015565148895941,-0.0013325352408699,0.0013332380885737,-0.0013329227886677,0.0013329294758242,-0.001487966444188,0.0014888795489669,-0.0014885514727426,0.0014882088512834,7.1689731625202e-06,-6.249407341176e-06,-0.001015895042621,0.0010168053789026,2.9175746877448e-07,6.3703474537334e-07,-0.001064250224705,0.001069496474001,-0.0010640861813835,0.0010696117309203,-0.0010687072098666,0.0010650287820759,-0.0010686094199424,0.001065122013633,-0.0011275569691344,0.0011153636265059,-0.0011142951983948,0.0011285433956544,0.0036654072975291,0.003670016323645,0.73311493370402,1473840,32975,0.006183723576207,0.0061837525448964,0.0042277028842515,24.197033200651,0.00010877626560521,0.00010877626560521,0.00010877626560521,1683106.827221,0.016733835803772
16675200,0.99952522189204,0.016730168708137,0.0059086011760567,0.0059086273807824,0.0049129401512984,-0.0014893581378719,0.0014891674370304,-6.7967134398033e-06,6.586331139188e-06,-3.5460526101348e-07,2.2191927259782e-07,-0.0015589526164889,0.0015541331366273,-0.0015545255202853,0.0015585383084562,-0.0015588221911571,0.0015542970053675,-0.0015543166238591,0.0015587879140475,-0.0013403071468227,0.0013270462574738,-0.0013270875054187,0.0013402585839199,5.109906662171e-07,-6.2144817511983e-08,4.4907414321133e-07,8.8388387782043e-08,-0.0014890247890974,0.0014895149811024,-0.0015561760592,0.0015569629565775,-0.0015562602722869,0.0015568366012757,-0.0015563072546477,0.0015567485561006,-0.001556466123366,0.0015566065212128,-0.0013332796345349,0.0013339931834374,-0.0013336827414847,0.0013336687353911,-0.001488763215006,0.0014896770947349,-0.0014893565466301,0.0014889978488352,7.168238055647e-06,-6.2458519554098e-06,-0.0010157228449287,0.0010166360365743,2.8530959998751e-07,6.4645710883836e-07,-0.0010644019009413,0.0010696442872606,-0.0010642325721163,0.0010697648336025,-0.0010688574856229,0.0010651780175971,-0.0010687544221794,0.0010652765083477,-0.0011274626709682,0.0011152814523081,-0.0011142048660468,0.0011284571746889,0.0036647284968699,0.0036683021462143,0.73881632249618,1473840,32975,0.0061856351476508,0.0061856641505621,0.0042270043758042,24.088265362752,0.00010790612290201,0.00010790612290201,0.00010790612290201,1671280.0105669,0.016737015100605
16761600,0.99953797922481,0.01673037367575,0.0059086742147504,0.0059087004194681,0.004912999041532,-0.0014893268951376,0.0014891364601254,-6.7927495459756e-06,6.5826333533138e-06,-3.5445136531803e-07,2.2202180482885e-07,-0.0015588333340428,0.00155401670145,-0.0015544088068861,0.0015584193390785,-0.0015587029256312,0.0015541805757743,-0.0015541999435528,0.0015586689060611,-0.0013403297049672,0.0013270766200918,-0.0013271177089014,0.0013402813269529,5.1100337209267e-07,-6.2083388440275e-08,4.5063428091857e-07,8.6901930687713e-08,-0.0014889936332904,0.001489483905258,-0.0015560576824839,0.0015568456584747,-0.00155614288707,0.0015567182927092,-0.0015561888550291,0.0015566312621604,-0.0015563487284926,0.0015564882287802,-0.001333304625465,0.0013340212319104,-0.0013337107008487,0.0013336937853299,-0.0014888018853073,0.0014897146275694,-0.0014893950656431,0.0014890355678174,7.1645777189741e-06,-6.2418694968683e-06,-0.0010152907556685,0.0010162042651359,2.8395215268929e-07,6.4815519374021e-07,-0.0010641623061806,0.0010694014586153,-0.0010639919408112,0.0010695230040217,-0.0010686153308564,0.0010649376705235,-0.0010685112667175,0.0010650371990997,-0.0011270237001723,0.0011148513814752,-0.0011137734217586,0.0011280194966862,0.0036623097111144,0.0036666202934796,0.74227973113778,1473840,32975,0.0061855044263724,0.0061855334048392,0.0042252165617303,23.979502598783,0.00010703602079027,0.00010703602079027,0.00010703602079027,1666205.7049892,0.016734932490981
16848000,0.99955031373897,0.016730572579802,0.0059087450801987,0.0059087712849087,0.0049130562146946,-0.0014891657719679,0.0014889734478641,-6.790551526899e-06,6.5785688159188e-06,-3.5414157682074e-07,2.1977604703674e-07,-0.0015586627592002,0.0015538471777654,-0.0015542403030985,0.0015582477057978,-0.0015585331698771,0.0015540102074339,-0.0015540322745829,0.0015584964139481,-0.0013401568429652,0.0013269071796426,-0.0013269509104764,0.0013401056884924,5.102710198657e-07,-6.0262108787971e-08,4.4974832083819e-07,8.8881346214707e-08,-0.0014888310218766,0.0014893223840787,-0.0015558879691154,0.001556675266402,-0.0015559722776393,0.0015565488412763,-0.0015560183298384,0.0015564616878479,-0.0015561772385119,0.0015563196570249,-0.0013331338513796,0.0013338494656432,-0.0013335370508577,0.0013335250443109,-0.0014886420060957,0.0014895541198564,-0.0014892326446988,0.0014888777911411,7.1612019960191e-06,-6.238981802015e-06,-0.001014812013779,0.0010157250021852,2.8509828388071e-07,6.4644680558283e-07,-0.0010638180622145,0.0010690555162965,-0.00106364863234,0.001069176151599,-0.0010682689771238,0.0010645938654257,-0.0010681658809241,0.0010646924315276,-0.0011265283448624,0.0011143606828936,-0.0011132841627908,0.0011275227097354,0.003659480923218,0.0036649701402924,0.74495601505215,1473840,32975,0.0061848318434799,0.0061848608283213,0.004223231686203,23.87074041019,0.00010616592328152,0.00010616592328152,0.00010616592328152,1663172.5216504,0.016731547200115
16934400,0.99956224149699,0.016730765452393,0.0059088137867967,0.0059088399914997,0.0049131116740964,-0.0014889910133212,0.0014888023340357,-6.7855090250464e-06,6.5762898297964e-06,-3.5219792049955e-07,2.2166390641993e-07,-0.0015584917962251,0.0015536823226194,-0.0015540716016799,0.0015580808862474,-0.0015583617269016,0.0015538456191266,-0.001553864017048,0.0015583291205069,-0.001339949569625,0.0013267117991718,-0.0013267525397435,0.0013399017482714,5.0657265762956e-07,-6.3882201514682e-08,4.4326927628476e-07,8.7484181397619e-08,-0.001488661755737,0.0014891457265113,-0.0015557248844281,0.0015565027467564,-0.0015558069572824,0.0015563781695123,-0.0015558552358886,0.0015562896143051,-0.0015560116967653,0.0015561489107202,-0.0013329390972703,0.0013336433224353,-0.0013333377614309,0.0013333221580903,-0.0014884717067713,0.001489378460532,-0.0014890608782508,0.0014887012217627,7.1514089464713e-06,-6.2413125565472e-06,-0.0010143594926048,0.0010152607821758,2.8185485929781e-07,6.3811860591202e-07,-0.0010634693693915,0.0010686946908107,-0.0010633025485171,0.0010688134370423,-0.0010679186567878,0.0010642358598522,-0.0010678166334758,0.001064333084287,-0.0011260759169805,0.0011139040627505,-0.0011128402277418,0.0011270556124095,0.0036566799075442,0.0036633510923542,0.74697641787511,1473840,32975,0.0061841145152569,0.0061841433936623,0.004221332167841,23.76197841933,0.00010529582735464,0.00010529582735464,0.00010529582735464,1660517.9600317,0.016728157467992
17020800,0.99957377788371,0.016730951450722,0.0059088800578048,0.0059089062624982,0.0049131651304191,-0.0014888136964436,0.0014886202110793,-6.7854684151513e-06,6.5719880476268e-06,-3.5385155616785e-07,2.1837782241684e-07,-0.0015583239739541,0.0015535116684646,-0.0015539052936786,0.0015579085332319,-0.0015581947272858,0.0015536742063592,-0.0015536979512947,0.0015581564792669,-0.0013397423044876,0.0013265027596591,-0.0013265486991327,0.0013396891684177,5.0664781753407e-07,-6.222734914258e-08,4.4279501112997e-07,8.9988052386034e-08,-0.0014884811959411,0.0014889668991191,-0.0015555553356688,0.0015563337052415,-0.0015556368558536,0.0015562100191077,-0.0015556851170724,0.0015561207401902,-0.0015558412351249,0.0015559813432286,-0.001332731077359,0.001333434020531,-0.0013331265998945,0.0013331167601844,-0.001488285437122,0.0014891930925907,-0.0014888739041849,0.0014885180793479,7.1527095940707e-06,-6.2357826600844e-06,-0.0010139084956862,0.0010148162559135,2.8656994572151e-07,6.3985546174409e-07,-0.0010631137540625,0.0010683449451944,-0.001062947305881,0.0010684627833645,-0.0010675610539983,0.0010638871018297,-0.0010674605005011,0.0010639831461294,-0.001125626215392,0.0011134628364077,-0.0011123939276493,0.0011266120985442,0.0036539042881354,0.0036617623288477,0.7448006401368,1473840,32975,0.0061833692566309,0.0061833982448952,0.0042194763883602,23.653218124607,0.00010442574499685,0.00010442574499685,0.00010442574499685,1658199.2939562,0.01672475553528
17107200,0.99958493763486,0.016731131112907,0.0059089440751574,0.0059089702798453,0.004913216757904,-0.001488436950715,0.0014882508642431,-6.7785982652925e-06,6.5720276692814e-06,-3.4921888526889e-07,2.2061214438307e-07,-0.0015580718829612,0.0015532698756597,-0.0015536549159613,0.0015576650461018,-0.0015579423741488,0.001553431890317,-0.0015534487796296,0.0015579117260135,-0.0013392353435294,0.0013260107579625,-0.0013260498976372,0.0013391888471893,5.0696547653465e-07,-5.9385583926704e-08,4.4186473472587e-07,9.4626118842964e-08,-0.0014881065421409,0.0014885957562666,-0.0015553081652964,0.0015560876862204,-0.0015553880406613,0.0015559653022659,-0.0015554374410685,0.0015558755473678,-0.0015555913369806,0.001555738168266,-0.0013322323443479,0.0013329345915177,-0.0013326212002109,0.0013326223260728,-0.001487802552576,0.0014887116843792,-0.0014883882159771,0.0014880406117467,7.1466910056698e-06,-6.2351626691618e-06,-0.0010134303529699,0.001014332555124,2.8672674739751e-07,6.3464392370083e-07,-0.0010626287762219,0.0010678537777511,-0.0010624649167583,0.0010679699173283,-0.0010670744043085,0.0010633984559413,-0.0010669747837524,0.0010634924728716,-0.0011251410829978,0.0011129778121696,-0.0011119155787786,0.0011261195355988,0.003650552970841,0.0036602034069773,0.74370784278512,1473840,32975,0.0061818243493444,0.0061818539510228,0.0042174801230753,23.544457091233,0.00010355565672986,0.00010355565672986,0.00010355565672986,1659155.5654624,0.016719584406759
17193600,0.99959554164355,0.016731301190704,0.0059090046901328,0.0059090308948329,0.0049132656057379,-0.0014875825080589,0.0014873693479974,-6.7870361548171e-06,6.5521160823076e-06,-3.6351178959259e-07,2.0774280002047e-07,-0.0015572966752856,0.0015524713600164,-0.0015528833348453,0.0015568634540122,-0.0015571656889646,0.0015526336838557,-0.0015526771122856,0.0015571097272047,-0.0013382870084671,0.0013250479730893,-0.0013251149321851,0.0013382140198643,5.0215179047186e-07,-6.5755091208423e-08,4.2938748435239e-07,9.5038058922036e-08,-0.0014872442926565,0.00148772202643,-0.0015545295007732,0.0015552931733896,-0.0015546037333487,0.0015551747843493,-0.0015546597570948,0.0015550811041574,-0.0015548079133931,0.0015549480438007,-0.0013312906710295,0.0013319681848595,-0.0013316652169595,0.0013316675120133,-0.0014868778712953,0.0014877810440528,-0.0014874639806507,0.0014871089066344,7.1310681539918e-06,-6.2390485447253e-06,-0.0010125240084592,0.0010134070111488,2.8389660168199e-07,6.1904682762193e-07,-0.0010617117907775,0.00106691769421,-0.0010615529939993,0.0010670300455514,-0.0010661540335953,0.0010624668017333,-0.0010660583152719,0.0010625567621858,-0.0011242351961878,0.0011120607690386,-0.0011110215434932,0.0011251888818501,0.0036452462398249,0.0036586726861816,0.74096813015499,1473840,32975,0.0061782301009646,0.006178259660759,0.0042136793393719,23.134033021839,0.00010027226417471,0.00010027226417471,0.00010027226417471,1657810.0466917,0.016708411095284
17280000,0.99960560844085,0.016731461821503,0.005909061951473,0.0059090881561896,0.0049133117138402,-0.0014866081745576,0.0014863645706905,-6.7956238597874e-06,6.529468521707e-06,-3.8071895886314e-07,1.9424312691739e-07,-0.00155643173084,0.0015515792635473,-0.001552023047723,0.0015559676760592,-0.0015562983659996,0.0015517433982272,-0.0015518156410415,0.0015562145592247,-0.0013371987075034,0.0013239451614751,-0.0013240407001607,0.0013370952416009,4.8635195286871e-07,-8.5548184798265e-08,4.0467314438119e-07,8.3420535501211e-08,-0.0014862724967516,0.0014867144933773,-0.0015536705514589,0.0015543955233761,-0.0015537395080637,0.001554280549624,-0.0015538029190235,0.0015541825779579,-0.0015539452600424,0.0015540537500046,-0.0013302203820888,0.0013308476283543,-0.0013305797859046,0.0013305591317719,-0.0014858051061597,0.0014866806096869,-0.0014863949213144,0.0014860058424776,7.1278129361806e-06,-6.228360171707e-06,-0.0010115614656518,0.0010124517917962,2.9429324827116e-07,6.1669207310072e-07,-0.0010607001046151,0.0010659121488902,-0.0010605465525751,0.0010660210604321,-0.0010651378468597,0.0010614663758477,-0.001065045808386,0.001061552183515,-0.0011232653678836,0.0011111092494186,-0.0011100653675434,0.0011242229148496,0.0036395606263042,0.0036571696407287,0.73718358482991,1473840,32975,0.006174132782554,0.0061741618919811,0.0042096991284825,22.699131276775,9.6793050214197e-05,9.6793050214197e-05,9.6793050214197e-05,1657636.3111381,0.016696031765596
17366400,0.99961516964866,0.016731613515185,0.005909116040365,0.005909142245095,0.0049133552297248,-0.001485569891071,0.0014853185493871,-6.7908733769667e-06,6.5173206660645e-06,-3.8655460343444e-07,1.9258746479519e-07,-0.0015555373987818,0.0015506809485052,-0.0015511346086634,0.0015550640039872,-0.0015554023324159,0.0015508468622412,-0.001550925683922,0.0015553119446033,-0.0013360106910644,0.0013227681562847,-0.001322870507576,0.0013359012564686,4.8395282473113e-07,-9.2143145976419e-08,3.9078249889567e-07,8.8087856411467e-08,-0.0014852349613901,0.0014856678526417,-0.0015527813128642,0.0015534932555796,-0.0015528448485911,0.0015533838284825,-0.0015529150962814,0.0015532781437071,-0.001553051424398,0.0015531555760369,-0.0013290525929128,0.001329650578873,-0.0013293935661842,0.0013293804363282,-0.0014846422744455,0.0014855182541403,-0.001485234460798,0.0014848397789847,7.1047696741169e-06,-6.2346152265018e-06,-0.0010106180227891,0.0010114793312546,2.8931580294317e-07,5.9285712439239e-07,-0.0010596645682745,0.0010648487083009,-0.0010595174058166,0.0010649509597206,-0.0010640966867456,0.0010604082338149,-0.0010640109975547,0.0010604874316933,-0.0011223214699435,0.0011101461912281,-0.0011091384000426,0.0011232435858407,0.0036337543459386,0.0036556938702627,0.73302923123186,1473840,32975,0.0061698179678422,0.0061698473455072,0.0042057220311188,22.262252983571,9.3298023868568e-05,9.3298023868568e-05,9.3298023868568e-05,1658313.7909641,0.016683214025089
17452800,0.99962425570824,0.016731756812473,0.0059091671483506,0.0059091933531023,0.0049133963110198,-0.001484519522253,0.0014842526594528,-6.7912099372574e-06,6.5022908463558e-06,-3.9363108049704e-07,1.8366567647541e-07,-0.0015546415516441,0.0015497750917096,-0.0015502432942202,0.0015541532573363,-0.0015545073889414,0.0015499408949314,-0.0015500355527977,0.0015544006310416,-0.0013348003965964,0.0013215564163087,-0.0013216735010622,0.0013346738058034,4.8071247250574e-07,-9.364565976836e-08,3.8165260560229e-07,9.3400624507313e-08,-0.0014841788981047,0.0014846075166455,-0.0015518854600046,0.0015525878426709,-0.0015519446079941,0.0015524830595713,-0.0015520188403383,0.0015523734556267,-0.0015521503742849,0.0015522561268771,-0.0013278490698173,0.0013284284099477,-0.001328175694922,0.0013281743674445,-0.0014834567312998,0.001484330058703,-0.00148404712621,0.0014836547719806,7.0987043056299e-06,-6.2259836017801e-06,-0.0010096665111116,0.0010105298132219,2.9715816239223e-07,5.8647780709118e-07,-0.0010586034914546,0.001063789228698,-0.0010584607640492,0.0010638867314719,-0.0010630305545117,0.0010593537465222,-0.001062949257867,0.0010594278903796,-0.001121375543073,0.0011092124898419,-0.0011082065707423,0.0011222960743575,0.0036279416481568,0.0036542449918425,0.72872690304413,1473840,32975,0.0061654371228029,0.0061654662120689,0.0042017755416366,21.825185608732,8.9801484869851e-05,8.9801484869851e-05,8.9801484869851e-05,1659362.6449704,0.016670292677696
17539200,0.99963289499104,0.016731892274418,0.0059092154732193,0.0059092416779947,0.0049134351232035,-0.0014834394059872,0.0014831976029763,-6.7660260333912e-06,6.5018662203979e-06,-3.8002545422881e-07,1.9509530540603e-07,-0.0015537216490365,0.0015488895990644,-0.0015493314673556,0.0015532588826101,-0.0015535876657968,0.0015490543839298,-0.0015491243635607,0.0015535052887474,-0.0013335458406204,0.0013203503988454,-0.001320443753203,0.001333442974488,4.8336517886186e-07,-8.8621559770887e-08,3.8014001796521e-07,1.0237565894744e-07,-0.0014831080629769,0.0014835436294295,-0.0015509817296918,0.0015516865718721,-0.0015510379102085,0.0015515846728087,-0.0015511140156725,0.0015514725369581,-0.0015512426459232,0.0015513586579276,-0.0013266198099833,0.001327196888369,-0.0013269360798411,0.0013269539630685,-0.0014822527158463,0.0014831339026535,-0.0014828405550579,0.001482461736408,7.1420251237283e-06,-6.1567549814276e-06,-0.001008668492405,0.0010096438088059,3.5791914468834e-07,6.3747451724034e-07,-0.0010574864462827,0.0010627782034218,-0.0010573469272394,0.0010628724685269,-0.0010619044979423,0.0010583516938469,-0.0010618263232673,0.0010584226180221,-0.0011203827578218,0.0011083537852284,-0.0011072382620333,0.0011214113499171,0.0036221433680312,0.003652822635653,0.72456879513935,1473840,32975,0.0061610171913079,0.006161047215162,0.0041978642006297,21.388099188059,8.6304793504469e-05,8.6304793504469e-05,8.6304793504469e-05,1660622.1867366,0.016657328978758
17625600,0.99964111387763,0.016732020559955,0.0059092612447116,0.0059092874495227,0.0049134718657206,-0.0014823666457252,0.0014821480869903,-6.7417605290565e-06,6.5010609951053e-06,-3.6818063092028e-07,2.0637121469602e-07,-0.0015528068179825,0.001548006540537,-0.0015484247680564,0.001552367121931,-0.0015526729542751,0.0015481710098799,-0.0015482178934963,0.0015526134532594,-0.0013322985076086,0.0013191505682949,-0.001319220719231,0.0013322186056655,4.8167752818189e-07,-8.9677497492626e-08,3.7432966037756e-07,1.052258963928e-07,-0.0014820483949528,0.0014824810705383,-0.0015500853929604,0.0015507846248162,-0.0015501391412637,0.001550685507172,-0.0015502176879052,0.0015505706333403,-0.0015503436874949,0.0015504595336609,-0.0013254021386486,0.0013259676134902,-0.0013257094168123,0.0013257331093191,-0.0014810636912445,0.0014819440804922,-0.0014816506137158,0.0014812727934475,7.1585700996883e-06,-6.1149469642242e-06,-0.0010077074770744,0.0010087407092315,3.9100353607601e-07,6.6229684306577e-07,-0.0010564031481905,0.0010617466537402,-0.0010562662283817,0.0010618383325788,-0.0010608125006231,0.0010573284972363,-0.0010607372299519,0.001057396843034,-0.0011194315150544,0.0011074823251198,-0.001106311637271,0.0011205154569033,0.0036164062977036,0.0036514264656502,0.72133967162609,1473840,32975,0.0061566239599582,0.0061566540874724,0.0041939942478182,20.951010603647,8.2808084829173e-05,8.2808084829173e-05,8.2808084829173e-05,1661823.3855306,0.016644461008731
17712000,0.99964893722148,0.016732142112277,0.0059093046202188,0.0059093308250647,0.0049135066669932,-0.0014813789847325,0.0014811359442134,-6.7444519176557e-06,6.4794968485294e-06,-3.8086286973859e-07,1.9512251646693e-07,-0.0015519435692485,0.0015471245934158,-0.0015475682157401,0.0015514788299332,-0.0015518098798126,0.0015472895864424,-0.0015473610775753,0.0015517260412146,-0.001331166091103,0.0013180128808294,-0.0013181072429667,0.0013310626689132,4.8393432492479e-07,-8.9092652761966e-08,3.7460151857768e-07,1.0794753605303e-07,-0.0014810465148417,0.0014814822761824,-0.0015492108299713,0.0015499129918783,-0.0015492636599423,0.0015498149630274,-0.0015493436101899,0.0015496984227054,-0.0015494686870424,0.0015495878682606,-0.0013242675484851,0.0013248326739624,-0.0013245722902647,0.0013245999519277,-0.0014799661524925,0.0014808523555231,-0.0014805538737678,0.001480178131022,7.1188333611728e-06,-6.1361052242523e-06,-0.0010068252197161,0.001007798000967,3.6239306494621e-07,6.3068837233765e-07,-0.0010554206333336,0.0010606988936994,-0.001055284420877,0.0010607896352489,-0.0010598241323927,0.001056286590429,-0.0010597499182139,0.001056354145236,-0.001118569057359,0.0011065764862913,-0.001105467951183,0.0011195914887794,0.003610900477662,0.003650056095437,0.71809245425039,1473840,32975,0.0061524840927249,0.0061525124170348,0.0041902063009183,20.51457328042,7.9316586243357e-05,7.9316586243357e-05,7.9316586243357e-05,1662080.8747138,0.016632190003762
17798400,0.99965639514357,0.016732257453502,0.0059093457854868,0.0059093719903413,0.0049135396776736,-0.0014803744802458,0.0014801905847627,-6.7016582341401e-06,6.4962331660085e-06,-3.5133825633741e-07,2.2488783422878e-07,-0.0015510629047178,0.0015463114987023,-0.0015466956617523,0.0015506566035412,-0.0015509290993803,0.0015464761581083,-0.0015464890425298,0.0015509036266739,-0.0013300143908182,0.0013169465447484,-0.0013169824589838,0.0013299712506858,4.9967232586229e-07,-7.3287440018764e-08,3.8178799528211e-07,1.3123258903805e-07,-0.0014800558963543,0.0014805228384883,-0.0015483494916232,0.0015490780239266,-0.0015483978812073,0.0015489859394649,-0.0015484822479623,0.0015488631178703,-0.0015486026112375,0.001548758388814,-0.001323151974569,0.0013237318944636,-0.0013234426451812,0.0013235149932301,-0.0014788747853132,0.0014797991800181,-0.0014794621679338,0.0014791233650242,7.1190422027347e-06,-6.1095213527773e-06,-0.001005928824376,0.0010069283506589,3.8330601632108e-07,6.3579489175004e-07,-0.0010544249159374,0.0010597266455118,-0.00105429374064,0.0010598116756365,-0.0010588190790262,0.0010553230150141,-0.0010587506068593,0.0010553853488789,-0.0011176890451604,0.0011057434478626,-0.0011046143942888,0.0011187321703528,0.0036055338232329,0.0036487111741135,0.71483185084313,1473840,32975,0.0061484476069806,0.0061484755318779,0.0041865405267657,20.094087006382,7.5952696051053e-05,7.5952696051053e-05,7.5952696051053e-05,1662491.734132,0.016620254979386
17884800,0.99966350488322,0.016732366896329,0.0059093848512457,0.0059094110560952,0.004913570988988,-0.0014793619662742,0.0014792117062258,-6.6744152939088e-06,6.5032347653031e-06,-3.3529311370525e-07,2.4204787101757e-07,-0.0015501744741577,0.0015454633335184,-0.0015458147982908,0.0015498014439449,-0.0015500406646321,0.0015456281145296,-0.0015456071362032,0.0015500493667341,-0.0013288592536973,0.0013158447558829,-0.0013158463405797,0.0013288511107612,4.9262625597196e-07,-8.1304146842329e-08,3.6929294352866e-07,1.2811138511915e-07,-0.0014790674915572,0.001479519619686,-0.0015474893599757,0.0015482007986279,-0.0015475345160985,0.0015481121022661,-0.0015476228635691,0.001547986520344,-0.0015477403694281,0.0015478842249043,-0.0013220362157861,0.0013225915668085,-0.0013223176171015,0.001322381914088,-0.0014777849663855,0.0014786993526751,-0.0014783742413237,0.0014780224584957,7.1216954391379e-06,-6.0866127384749e-06,-0.0010050231327549,0.0010060479382042,4.005848290458e-07,6.4375068591726e-07,-0.0010534121785469,0.0010587355469356,-0.0010532845366652,0.0010588174804273,-0.001057799230836,0.0010543379493032,-0.0010577343449613,0.001054397812806,-0.0011168017889044,0.0011048975607162,-0.0011037473902363,0.0011178679006302,0.0036001213851783,0.0036473912894885,0.71156146133321,1473840,32975,0.0061443251551613,0.0061443526028172,0.0041828330114975,19.66625403011,7.253003224088e-05,7.253003224088e-05,7.253003224088e-05,1662982.3654918,0.016608102771842
17971200,0.99967028920613,0.016732471311216,0.0059094221169087,0.0059094483217476,0.0049136008725597,-0.0014783892070407,0.0014782099978085,-6.6867271860321e-06,6.4858210393908e-06,-3.5246388637809e-07,2.3096470633216e-07,-0.0015493366287133,0.001544595884624,-0.001544978234766,0.0015489326491159,-0.0015492010358125,0.0015447631152517,-0.0015447688255732,0.0015491830124436,-0.0013277440091507,0.0013147067807636,-0.0013147380679248,0.0013277093205143,5.0119995569619e-07,-7.8773432385507e-08,3.7043584703374e-07,1.3892457509421e-07,-0.0014780741671404,0.0014785379318099,-0.0015466308084316,0.0015473531107494,-0.0015466732502279,0.001547267575797,-0.0015467663193142,0.0015471356715375,-0.0015468805954576,0.001547037812583,-0.0013209101259767,0.0013214651260292,-0.0013211816215929,0.0013212663387154,-0.0014766843417104,0.0014776180664311,-0.0014772781912279,0.0014769360450986,7.0913010807743e-06,-6.1120278666644e-06,-0.0010041725975133,0.0010051421427649,3.7797082999e-07,6.1102970109715e-07,-0.0010524504984796,0.0010577209486562,-0.0010523253849776,0.0010577992464565,-0.00105683650944,0.0010533251054752,-0.0010567753522553,0.0010533813682624,-0.0011159775293908,0.0011040177929261,-0.0011029262391365,0.001116981612026,0.0035947805418512,0.0036460961953301,0.71145768551335,1473840,32975,0.0061402377448159,0.0061402640640453,0.0041791872122995,19.246283341063,6.9170266728503e-05,6.9170266728503e-05,6.9170266728503e-05,1663637.3842862,0.016596084058276
18057600,0.99967676613311,0.016732571324234,0.0059094577983053,0.0059094840031176,0.0049136295228109,-0.0014776428358573,0.0014774650590718,-6.6805235473499e-06,6.4806952083575e-06,-3.5126202251453e-07,2.3157218672898e-07,-0.0015485816275038,0.001543846958886,-0.0015442275471823,0.0015481799068593,-0.0015484468178665,0.0015440135181314,-0.0015440187119785,0.0015484299146327,-0.0013269702007366,0.0013139442126879,-0.0013139761319279,0.0013269377329706,5.0364308593829e-07,-7.5807131195854e-08,3.7207781949508e-07,1.427396774832e-07,-0.0014773254145912,0.0014777945047495,-0.0015458766088682,0.0015466022088367,-0.0015459170334237,0.0015465177816102,-0.001546011891224,0.0015463856020207,-0.0015461247144302,0.001546288026638,-0.0013201412917373,0.0013207007302381,-0.0013204106568619,0.0013205032593398,-0.0014759643356216,0.001476904794129,-0.0014765584193192,0.0014762214355496,7.0671485064382e-06,-6.124488696793e-06,-0.0010033576494195,0.0010042917456879,3.6153698280402e-07,5.9220613092447e-07,-0.0010516330843803,0.0010568651463766,-0.0010515090026454,0.0010569427005051,-0.0010560151070384,0.0010524737617582,-0.0010559550100675,0.0010525296364194,-0.0011152025792084,0.0011032175929638,-0.0011021630497092,0.0011161688928385,0.0035902224176459,0.003644825582315,0.71381108546147,1473840,32975,0.0061371498406843,0.0061371743577589,0.0041757332037682,18.826804093588,6.5814432748704e-05,6.5814432748704e-05,6.5814432748704e-05,1660366.283676,0.016586292661357
18144000,0.99968295232218,0.016732667059741,0.0059094919443631,0.0059095181491289,0.0049136569662486,-0.0014770590844009,0.0014769180864907,-6.6558812051402e-06,6.4933545142486e-06,-3.3344829019334e-07,2.5032838004428e-07,-0.0015478765325434,0.0015431825882293,-0.0015435265605227,0.0015475108538962,-0.0015477420673832,0.0015433490719793,-0.0015433169186825,0.0015477613177208,-0.0013264618138739,0.0013134840368765,-0.0013134772958656,0.0013264661143593,5.037041878446e-07,-7.6542706853714e-08,3.7395441989255e-07,1.3992380867519e-07,-0.0014767605659946,0.0014772287688962,-0.0015451911803419,0.0015459168732464,-0.001545232625343,0.0015458318674004,-0.0015453264718714,0.0015457006727196,-0.0015454413455596,0.0015456012675105,-0.0013196545959424,0.001320218318342,-0.0013199306346787,0.0013200166266023,-0.0014755270141301,0.0014764672930413,-0.0014761236109539,0.0014757819098466,7.0614235888421e-06,-6.1178117600835e-06,-0.001002560871414,0.0010034958735963,3.5940764372278e-07,5.9464422425545e-07,-0.0010509283083843,0.0010561558086862,-0.0010508024433993,0.001056234865278,-0.0010553058133688,0.0010517684036896,-0.001055244735233,0.0010518260672543,-0.0011144472132612,0.0011024771973694,-0.0011014206776383,0.0011154171220963,0.0035862593644306,0.0036435790139547,0.7153498248525,1473840,32975,0.0061348078303694,0.0061348326357863,0.0041724322389138,18.4073577376,6.24588619008e-05,6.24588619008e-05,6.24588619008e-05,1654108.5266627,0.016578176142721
18230400,0.99968886334915,0.01673275857772,0.0059095245817585,0.0059095507864774,0.0049136832094842,-0.0014764250069015,0.0014762669154158,-6.6576949924277e-06,6.4800155202758e-06,-3.430446879182e-07,2.4261317773235e-07,-0.0015471464474766,0.0015424380753328,-0.0015428006455971,0.0015467617204284,-0.0015470125559465,0.0015426052468863,-0.0015425891174865,0.0015470139966648,-0.0013259049648792,0.0013129215201487,-0.0013129275500587,0.0013258922752713,5.1058000646599e-07,-7.1530729838672e-08,3.8073062330292e-07,1.4661392354151e-07,-0.0014761129364879,0.0014765932656198,-0.0015444492886393,0.0015451878924758,-0.0015444923833181,0.0015451036297096,-0.0015445838084807,0.001544970292398,-0.0015447011243832,0.0015448706871057,-0.0013190856078111,0.0013196617448315,-0.0013193645271852,0.0013194615714287,-0.0014749576548199,0.0014759117142611,-0.0014755586507962,0.0014752250186869,7.0473050079506e-06,-6.1209214552626e-06,-0.0010017607684849,0.0010026777147399,3.4997327427741e-07,5.8497654879586e-07,-0.0010502217608646,0.0010554281527256,-0.0010500945680441,0.0010555064853813,-0.0010545953278319,0.0010510433596692,-0.0010545341942504,0.0010511000199682,-0.0011136544836629,0.0011016764971668,-0.0011006386170015,0.0011146105017144,0.0035820844925443,0.0036423560436931,0.71559311888241,1473840,32975,0.0061321459859916,0.0061321751776823,0.0041690770541119,17.987913587517,5.9103308700138e-05,5.9103308700138e-05,5.9103308700138e-05,1649014.3645789,0.016569358288584
18316800,0.99969452475135,0.016732846273424,0.0059095558514071,0.0059095820561244,0.0049137083658923,-0.0014757705813703,0.0014755544591528,-6.6810143554931e-06,6.4446868981803e-06,-3.7154595536848e-07,2.1326908438944e-07,-0.0015464682823252,0.0015417060418615,-0.0015421262578764,0.0015460262379534,-0.001546333969752,0.0015418730836988,-0.0015419153392973,0.0015462777632986,-0.0013252507250183,0.0013122214619057,-0.0013122867074191,0.0013251801124051,5.0737488640342e-07,-7.4205830100224e-08,3.7425990030642e-07,1.4655542440297e-07,-0.0014754324326109,0.001475906739821,-0.0015437483754228,0.0015444786800866,-0.0015437891151948,0.0015443961779923,-0.0015438829323885,0.0015442614129867,-0.0015439973787885,0.0015441640904729,-0.0013184154929031,0.0013189790774928,-0.0013186871779184,0.0013187847472149,-0.0014743061550823,0.001475255560411,-0.0014749056620327,0.0014745697918022,7.0336661352019e-06,-6.1223921820806e-06,-0.0010009858882635,0.0010018878900181,3.4590293887998e-07,5.7447130711802e-07,-0.0010494695668079,0.001054659060306,-0.0010493450640767,0.0010547354164067,-0.0010538393864828,0.0010502786368599,-0.0010537803646997,0.0010503333503013,-0.0011128979478307,0.0011009149944846,-0.0010998942071346,0.0011138359516493,0.0035778487568143,0.0036411563324812,0.71588539941974,1473840,32975,0.0061293155157614,0.0061293444019077,0.0041658318212521,17.599344396072,5.5994755168576e-05,5.5994755168576e-05,5.5994755168576e-05,1645726.6479806,0.016560304373847
18403200,0.99970004352262,0.016732931800001,0.0059095863426869,0.0059096125474009,0.0049137329099136,-0.0014756373778756,0.0014754174341365,-6.6799354861626e-06,6.4400456703962e-06,-3.7216555435585e-07,2.1023739360288e-07,-0.0015463133581115,0.0015415501700109,-0.0015419735255961,0.0015458679829071,-0.0015461804878615,0.0015417161927647,-0.0015417629915262,0.0015461192047631,-0.0013251035146439,0.001312074018834,-0.0013121431634714,0.0013250278256203,5.1098584130355e-07,-6.8161751378136e-08,3.7960009245289e-07,1.5142146905112e-07,-0.0014752924367398,0.0014757764947443,-0.0015435886566062,0.001544327661685,-0.0015436295458084,0.0015442454296956,-0.0015437218805893,0.0015441112066886,-0.0015438370234566,0.001544013591168,-0.001318261267425,0.0013188361905431,-0.0013185345481124,0.0013186420954898,-0.0014742057969117,0.0014751629206836,-0.0014748039498549,0.0014744787098944,7.02021884611e-06,-6.1301535798634e-06,-0.0010006634337137,0.001001544252851,3.3494243254489e-07,5.6383695787715e-07,-0.0010491786175419,0.0010543450222218,-0.0010490535935216,0.0010544215213732,-0.0010535464635884,0.0010499666339663,-0.0010534873329588,0.0010500212471793,-0.0011126231195151,0.001100624197054,-0.0010996241467687,0.0011135406591936,0.0035757997257239,0.0036399799686006,0.71621768161535,1473840,32975,0.0061287555654272,0.0061287844270444,0.0041644517563342,17.485303478772,5.5082427830173e-05,5.5082427830173e-05,5.5082427830173e-05,1643323.8591544,0.01655776309368
18489600,0.99970542768426,0.016733015286805,0.0059096161034802,0.0059096423081905,0.0049137568751343,-0.0014755243862438,0.0014753033403971,-6.6775946679532e-06,6.4367443756996e-06,-3.7153314295517e-07,2.0847432756291e-07,-0.001546183956176,0.0015414223530329,-0.0015418460325293,0.0015457381518721,-0.0015460519894922,0.0015415875180481,-0.0015416362243051,0.0015459887039917,-0.0013249691175767,0.0013119430422757,-0.0013120136423279,0.0013248914699594,5.1069715638742e-07,-6.6049761972095e-08,3.8084927224519e-07,1.5219876672997e-07,-0.0014751779442779,0.0014756638734888,-0.0015434594552136,0.0015441995912227,-0.0015435004797659,0.0015441172572889,-0.0015435918630286,0.0015439839591501,-0.0015437071955376,0.0015438862069716,-0.0013181264936219,0.0013187046762981,-0.0013184004645875,0.0013185105129485,-0.0014741289402315,0.0014750854277128,-0.0014747250562692,0.001474403535788,7.01598076293e-06,-6.1287361944264e-06,-0.0010003500352293,0.0010012279924211,3.3319517397765e-07,5.6256856536561e-07,-0.0010489001856114,0.0010540616453946,-0.0010487749135478,0.0010541383837973,-0.0010532661053118,0.0010496852305556,-0.0010532068316015,0.0010497399466991,-0.0011123572128938,0.0011003610374157,-0.0010993636317177,0.0011132724732152,0.0035738614867962,0.003638826541013,0.71658676708214,1473840,32975,0.0061282849280353,0.0061283137316375,0.0041631473400983,17.382332555291,5.4258660442326e-05,5.4258660442326e-05,5.4258660442326e-05,1640984.9252136,0.016555480311845
18576000,0.99971068134263,0.016733096200666,0.005909644957925,0.0059096711626312,0.0049137800801102,-0.0014754113845982,0.0014751900081931,-6.675293354251e-06,6.4335648177385e-06,-3.7130957996672e-07,2.0795308205116e-07,-0.0015460542838736,0.0015412946705988,-0.0015417182358452,0.0015456087089367,-0.0015459223932946,0.0015414596122285,-0.0015415089463408,0.0015458588548255,-0.0013248416707253,0.0013118203803878,-0.0013118922367655,0.0013247633859419,5.0571445157082e-07,-7.0347257349223e-08,3.7774207383197e-07,1.450303845771e-07,-0.001475069244676,0.0014755457270489,-0.0015433344119983,0.0015440665210075,-0.0015433764509956,0.0015439824428336,-0.0015434670746482,0.0015438512657834,-0.001543582917473,0.0015437520309368,-0.001318005311122,0.0013185772843093,-0.0013182820932495,0.0013183785595025,-0.001474056782951,0.001475002009721,-0.001474651473423,0.0014743206459231,7.0237651711146e-06,-6.1153065923724e-06,-0.0010000273918255,0.0010009267582618,3.4189390832834e-07,5.7555847115781e-07,-0.0010486127440696,0.0010537916623054,-0.0010484862871641,0.001053870353093,-0.001052976678665,0.0010494178302896,-0.0010529163186889,0.0010494744173133,-0.0011120748030279,0.0011001073151841,-0.0010990862980128,0.0011130115254955,0.0035719514256022,0.0036376954641521,0.71177078222413,1473840,32975,0.006127815823717,0.006127843565907,0.0041618548723252,17.280053500078,5.3440428000623e-05,5.3440428000623e-05,5.3440428000623e-05,1638618.1919604,0.016553211785411
18662400,0.99971580824829,0.016733175789227,0.005909673322486,0.0059096995271777,0.004913802939563,-0.0014749226016202,0.0014747046553559,-6.6682158624098e-06,6.4305174777132e-06,-3.6639819943531e-07,2.0633897754087e-07,-0.0015457816591928,0.0015410308104286,-0.0015414489344875,0.0015453413640573,-0.0015456521214775,0.0015411935221745,-0.0015412415438455,0.0015455894913992,-0.0013241114595243,0.0013111013964784,-0.0013111710720597,0.0013240344364475,5.0820118877536e-07,-6.1287755392525e-08,3.7959252964263e-07,1.5569199703476e-07,-0.0014745766050335,0.0014750647615006,-0.0015430633715302,0.0015438017785904,-0.0015431028932262,0.0015437210320276,-0.0015431934591847,0.001543588572797,-0.0015433072489271,0.0015434924167203,-0.0013172766222479,0.0013178548028638,-0.0013175460042585,0.0013176654834121,-0.0014734022339477,0.0014743554111454,-0.0014739913020929,0.0014736807402841,7.0105952848088e-06,-6.1184862823777e-06,-0.00099964028840271,0.0010005230190372,3.3788499922968e-07,5.6255385824152e-07,-0.0010480703368943,0.0010532328768718,-0.0010479466418349,0.0010533080950866,-0.001052431005169,0.0010488617126872,-0.0010523733448019,0.0010489148811031,-0.0011117274653587,0.001099749909981,-0.0010987492644526,0.0011126461801588,0.0035688743236329,0.0036365866359583,0.71734309473758,1473840,32975,0.0061257997880265,0.0061258286308776,0.0041602113656271,17.177820678323,5.2622565426584e-05,5.2622565426584e-05,5.2622565426584e-05,1642438.5195232,0.016547442389407
18748800,0.99972081201543,0.016733254055371,0.0059097011986628,0.0059097274033509,0.0049138254533576,-0.0014751951236921,0.0014749927320886,-6.6600173930061e-06,6.4379139400302e-06,-3.5893178357455e-07,2.1437993744246e-07,-0.001545795700512,0.0015410605185462,-0.0015414633470271,0.0015453707977489,-0.0015456660262808,0.0015412234000898,-0.0015412557029212,0.0015456191463227,-0.0013245862797723,0.0013115926108102,-0.0013116465743496,0.001324525034894,5.0864191980729e-07,-6.1325988607305e-08,3.8694911110412e-07,1.4876943964209e-07,-0.00147485670304,0.0014753452790031,-0.001543082639212,0.0015438263511708,-0.0015431267532472,0.0015437408558305,-0.0015432129256033,0.0015436129853949,-0.0015433313863519,0.0015435120292112,-0.0013177525626576,0.0013183450970209,-0.0013180359296407,0.0013181416277689,-0.0014739317229971,0.0014748811506909,-0.0014745214392744,0.0014742058645076,7.0085340370997e-06,-6.1197854346607e-06,-0.00099942481547099,0.0010003042508607,3.2919922647393e-07,5.6807077121817e-07,-0.0010480842148587,0.0010532384893255,-0.0010479557765228,0.0010533184336294,-0.0010524445950488,0.001048867519816,-0.0010523822242076,0.0010489254171594,-0.0011115731936552,0.0010995976942678,-0.0010985956547298,0.0011124933343848,0.0035682715448351,0.0036354996281064,0.72279301007854,1473840,32975,0.0061269586930799,0.0061269875705566,0.0041593172461503,17.075591011191,5.1804728089527e-05,5.1804728089527e-05,5.1804728089527e-05,1633803.6797225,0.016548891025937
18835200,0.9997256961403,0.016733330636228,0.0059097284695449,0.0059097546742298,0.0049138474924537,-0.0014754336051823,0.0014752353949984,-6.6586156980927e-06,6.4406997885085e-06,-3.5742613117698e-07,2.1714293363839e-07,-0.0015458011549719,0.0015410693115437,-0.0015414684130101,0.0015453799495506,-0.0015456712046993,0.0015412325576805,-0.0015412602995563,0.0015456288641875,-0.0013250017252084,0.0013120109644919,-0.0013120604481145,0.0013249450549741,5.093876078466e-07,-6.1821985435678e-08,3.9272054308833e-07,1.4319301930107e-07,-0.0014750971313605,0.0014755859182609,-0.0015430874632704,0.0015438354621613,-0.0015431351830672,0.0015437462749291,-0.0015432180879354,0.0015436218181818,-0.0015433404132584,0.0015435169367863,-0.0013181641204126,0.0013187677901377,-0.0013184589202244,0.0013185529133155,-0.0014744008419874,0.0014753486421102,-0.0014749922175486,0.0014746713841554,7.0113792478542e-06,-6.118346497251e-06,-0.00099921033465135,0.0010000941321124,3.257383645975e-07,5.759371249487e-07,-0.0010480729191459,0.0010532283447669,-0.0010479406879114,0.0010533120207743,-0.0010524338059658,0.0010488568011898,-0.0010523676339717,0.0010489184885843,-0.0011114246648486,0.0010994558261335,-0.0010984456387799,0.0011123529184346,0.0035675853683889,0.0036344339262196,0.72442392344718,1473840,32975,0.0061279532531988,0.0061279819709838,0.0041584427570034,16.973361596004,5.0986892768034e-05,5.0986892768034e-05,5.0986892768034e-05,1625882.9034695,0.016550025255509
18921600,0.99973046400625,0.016733405585804,0.0059097551542816,0.0059097813589612,0.0049138690725609,-0.0014753771732808,0.0014751789701482,-6.6564648912013e-06,6.43836980822e-06,-3.5748043771122e-07,2.1722161221175e-07,-0.0015456908329663,0.0015409605422666,-0.0015413596689652,0.0015452697543911,-0.0015455607730868,0.0015411238216146,-0.0015411514755505,0.0015455185910315,-0.001324963489097,0.0013119770963895,-0.0013120269634047,0.0013249068873086,5.0921629432813e-07,-6.2131428592402e-08,3.9340636386798e-07,1.4163117840034e-07,-0.0014750410317311,0.0014755292385919,-0.001542977806291,0.0015437260955693,-0.0015430262034493,0.0015436361057478,-0.0015431084995823,0.0015435123813546,-0.0015432314216595,0.0015434067313643,-0.001318127981568,0.001318732744839,-0.0013184245117973,0.0013185153516227,-0.0014744127398429,0.0014753592474575,-0.0014750038136726,0.0014746820311747,7.0140751292105e-06,-6.1112047869199e-06,-0.00099890414442208,0.00099979778108888,3.2961199358309e-07,5.8211704168602e-07,-0.0010478364013244,0.0010529992728749,-0.0010477034380941,0.0010530837795592,-0.001052195773881,0.0010486292987002,-0.0010521289715427,0.0010486917880903,-0.0011111578832988,0.0010992038742032,-0.0010981830572197,0.0011120962241934,0.0035659445148794,0.0036333891318115,0.72615956072837,1473840,32975,0.0061277188290322,0.0061277477071742,0.0041571953773085,16.871132183724,5.0169057469786e-05,5.0169057469786e-05,5.0169057469786e-05,1622593.1182521,0.016548281205175
19008000,0.99973511888773,0.016733479231663,0.0059097813623647,0.0059098075670396,0.0049138903022582,-0.0014753176407562,0.0014751214031937,-6.6532261134565e-06,6.4370226317e-06,-3.5677069652729e-07,2.1848557583276e-07,-0.0015455784284928,0.0015408515349638,-0.0015412489294501,0.0015451592105135,-0.0015454481457221,0.0015410149097576,-0.001541040476167,0.0015454082222678,-0.0013249201257776,0.001311940215563,-0.0013119883819317,0.0013248661170352,5.0934837351692e-07,-6.2515835221882e-08,3.9539220636021e-07,1.3889723485671e-07,-0.0014749825848044,0.0014754704107125,-0.0015428662981691,0.0015436158898667,-0.0015429160353057,0.0015435242792961,-0.0015429972232828,0.0015434021539873,-0.001543121456781,0.0015432947949451,-0.0013180864898632,0.0013186949770529,-0.0013183872965941,0.0013184725862422,-0.0014744212150619,0.0014753664647746,-0.0014750126411599,0.0014746886721696,7.0112212737708e-06,-6.1093364929583e-06,-0.00099860301936946,0.0009994960316204,3.2705266962109e-07,5.8421809104711e-07,-0.0010476048335387,0.0010527637891683,-0.0010474704015291,0.0010528501487012,-0.0010519624328811,0.0010483956013848,-0.0010518943081654,0.0010484598219902,-0.0011108962351389,0.0010989473978871,-0.0010979260166887,0.0011118348897979,0.0035643187521156,0.0036323649257474,0.7307683663555,1473840,32975,0.0061274756096441,0.0061275041245119,0.0041559473118195,16.76890260158,4.935122081264e-05,4.935122081264e-05,4.935122081264e-05,1619291.5797583,0.016546518057811
19094400,0.99973967509269,0.016733551427904,0.0059098070516713,0.0059098332563381,0.0049139111198946,-0.0014755041823811,0.0014753120349276,-6.6501752995511e-06,6.4379939342992e-06,-3.5496777231385e-07,2.2116626828408e-07,-0.0015456124253936,0.0015408901668585,-0.0015412839548756,0.0015451969208826,-0.001545482492411,0.0015410537852831,-0.0015410748084573,0.0015454464197759,-0.0013252045367226,0.0013122299002368,-0.0013122736625035,0.0013251542261444,5.0979532095648e-07,-6.2888322749614e-08,3.9893142086328e-07,1.3544849206985e-07,-0.0014751714607693,0.0014756591768856,-0.0015429019935824,0.001543653234364,-0.0015429535454397,0.0015435598670315,-0.0015430327081661,0.0015434394427343,-0.0015431594800919,0.0015433296382517,-0.0013183702964414,0.0013189853724088,-0.0013186791715461,0.0013187568112306,-0.001474770744516,0.0014757153191307,-0.0014753634428094,0.0014750355429731,7.0022318637537e-06,-6.1162078873981e-06,-0.00099842420249586,0.00099930166147962,3.1569154095006e-07,5.7965520706926e-07,-0.001047569254149,0.0010527100062361,-0.0010474322164337,0.0010527984910318,-0.0010519260714783,0.0010483425745244,-0.0010518559694787,0.0010484091378213,-0.001110778378385,0.0010988183407233,-0.0010978098860672,0.0011117035169641,0.0035635807790711,0.0036313608845266,0.7318596996724,1473840,32975,0.0061282552227223,0.0061282847075472,0.0041551782207498,16.705417313311,4.8843338506485e-05,4.8843338506485e-05,4.8843338506485e-05,1613457.1536765,0.016547323296546
19180800,0.9997442138176,0.016733624204155,0.0059098329257165,0.0059098591303796,0.0049139321480585,-0.0014759913039453,0.0014757887086972,-6.6582749896463e-06,6.4357217495282e-06,-3.5598686485164e-07,2.1168191183962e-07,-0.0015460896316094,0.0015413576458798,-0.0015417587586161,0.0015456661434073,-0.0015459623774272,0.001541518471256,-0.0015415524924756,0.0015459128169165,-0.0013256696147351,0.0013126763575808,-0.0013127318726737,0.0013256048631577,5.0720923248324e-07,-5.7115312477939e-08,4.0035592122551e-07,1.3793572216928e-07,-0.0014756517024437,0.0014761428219071,-0.001543374296728,0.0015441262706848,-0.0015434263333695,0.0015440332444621,-0.0015435021660969,0.0015439147716868,-0.0015436290770405,0.0015438056431817,-0.001318821440213,0.0013194421058669,-0.0013191299136478,0.001319215419411,-0.0014752761106853,0.0014762157733178,-0.0014758609098139,0.0014755445885497,7.0079996918022e-06,-6.1164808182904e-06,-0.00099858989410053,0.00099947190411511,3.1825143798585e-07,5.8130711931494e-07,-0.0010478107703982,0.0010529583291638,-0.0010476741149483,0.0010530463551766,-0.001052170011972,0.0010485887842322,-0.0010520996271318,0.0010486547614993,-0.0011109897661396,0.0010990289113563,-0.0010980151411188,0.0011119205968332,0.0035641601366101,0.0036303772349626,0.74043863346641,1473840,32975,0.0061302499207125,0.0061302795966246,0.0041558778093401,16.919376380769,5.055501104615e-05,5.055501104615e-05,5.055501104615e-05,1612366.1104162,0.016552090300294
19267200,0.99974873714104,0.016733696861083,0.005909858757865,0.0059098849625306,0.0049139531406877,-0.0014769513069076,0.0014767562604192,-6.6577746244359e-06,6.443000103175e-06,-3.5132773272891e-07,2.1417210932104e-07,-0.0015467772186992,0.0015420511452556,-0.001542444110197,0.0015463622398719,-0.0015466502366802,0.0015422113228665,-0.0015422388883993,0.0015466080850475,-0.0013268242678545,0.0013138320014542,-0.0013138811274151,0.0013267675223989,5.0697818263681e-07,-5.5141142699558e-08,4.0768875611758e-07,1.3258376590749e-07,-0.0014766143274792,0.0014771074274934,-0.0015440617148679,0.0015448195427142,-0.001544117835514,0.0015447217503691,-0.0015441893685662,0.0015446088134953,-0.0015443200224489,0.0015444954431262,-0.0013199695297312,0.0013206056057494,-0.0013202890823047,0.0013203657249073,-0.0014765095130158,0.0014774437466904,-0.0014770918822375,0.0014767756921157,7.0134336412762e-06,-6.1179108168914e-06,-0.00099894792619369,0.00099983412200008,3.1427215476419e-07,5.9000004693729e-07,-0.0010484275971872,0.0010535772936657,-0.0010482868631652,0.0010536695618106,-0.0010527889817084,0.0010492053062596,-0.0010527143943315,0.001049275436966,-0.0011114455139705,0.0010994858490564,-0.001098464542295,0.001112384756767,0.0035664158387972,0.0036294134153927,0.74173690429364,1473840,32975,0.0061342387798987,0.0061342677843593,0.0041573809483213,17.14452687565,5.2356215005201e-05,5.2356215005201e-05,5.2356215005201e-05,1604394.5206783,0.016561729364714
19353600,0.99975324405517,0.016733769277739,0.0059098845068536,0.0059099107115168,0.0049139740593687,-0.0014773599956647,0.0014771630693276,-6.6592508753715e-06,6.4425866677212e-06,-3.5173422488168e-07,2.1266233151526e-07,-0.0015472368064413,0.0015425088859374,-0.0015429033463475,0.0015468203605381,-0.0015471101572678,0.0015426687115374,-0.0015426985485252,0.0015470658287735,-0.0013271523341523,0.0013141568344996,-0.0013142083196266,0.0013270933729795,5.0743087189051e-07,-5.3581168127446e-08,4.0971473381377e-07,1.3253297832541e-07,-0.0014770210558926,0.00147751615221,-0.0015445192330176,0.0015452793652941,-0.0015445760093589,0.0015451808422973,-0.0015446465454565,0.0015450690364441,-0.0015447778407859,0.0015449549773981,-0.001320293816952,0.0013209342001502,-0.0013206153305768,0.0013206922777704,-0.0014768827369524,0.001477817131458,-0.0014774639360055,0.0014771502751986,7.0145765812015e-06,-6.1178526271794e-06,-0.00099903938725754,0.00099992678247512,3.1384549703079e-07,5.9165348233621e-07,-0.0010485986326191,0.0010537491886469,-0.0010484572260036,0.001053842156331,-0.001052960376863,0.0010493768308817,-0.0010528850878371,0.0010494476598309,-0.0011115518871353,0.0010995930836859,-0.0010985698809682,0.0011124929629033,0.003566720401492,0.0036284690093603,0.74186859882849,1473840,32975,0.0061359262007772,0.0061359551130501,0.0041577648877049,17.370376634677,5.4163013077416e-05,5.4163013077416e-05,5.4163013077416e-05,1604270.1365144,0.016565550426154
19440000,0.99975773336015,0.016733841330608,0.0059099101292075,0.0059099363338679,0.0049139948675327,-0.00147774490116,0.0014775567122588,-6.6555946791981e-06,6.447567364479e-06,-3.463348961057e-07,2.1653932022867e-07,-0.0015476827180411,0.0015429632349743,-0.0015433479729197,0.0015472742550009,-0.0015475569722704,0.0015431225564848,-0.0015431426547151,0.0015475187145224,-0.0013274591465734,0.0013144699754252,-0.0013145113137655,0.0013274057668993,5.0875000853584e-07,-5.0465628716213e-08,4.1427019963238e-07,1.3279913919325e-07,-0.0014774081516574,0.001477907762275,-0.0015449656614367,0.0015457315323703,-0.0015450260242923,0.0015456322499994,-0.0015450909731528,0.001545521041056,-0.0015452257874074,0.001545405901527,-0.0013205962790215,0.0013212459717127,-0.0013209239291557,0.0013210011212115,-0.0014772280314484,0.0014781634248925,-0.001477807040921,0.0014774983758445,7.0164096562382e-06,-6.1173746043352e-06,-0.00099916304950071,0.001000052048834,3.1220983086068e-07,5.9396623439872e-07,-0.0010487775186656,0.0010539288491345,-0.0010486343943275,0.0010540228643621,-0.0010531400138743,0.0010495561333065,-0.0010530633284367,0.0010496283219031,-0.0011116914824544,0.0010997351260752,-0.00109870776376,0.0011126357462543,0.0035670326504542,0.0036275436054572,0.74105942787337,1473840,32975,0.0061375374037005,0.0061375666421175,0.0041582827568277,17.596273150091,5.5970185200724e-05,5.5970185200724e-05,5.5970185200724e-05,1604635.2067567,0.016569352935831
19526400,0.9997622038437,0.016733912931133,0.0059099355943403,0.005909961798997,0.0049140155377956,-0.0014781207666245,0.0014779399556293,-6.6535248526609e-06,6.4530389114751e-06,-3.4220398079671e-07,2.1956400419042e-07,-0.001548135717659,0.0015434227268482,-0.0015437998357797,0.0015477350847432,-0.0015480102267317,0.0015435817081734,-0.0015435949350194,0.0015479792401904,-0.0013277325852251,0.0013147473241532,-0.0013147815488584,0.0013276863732507,5.0870171903338e-07,-4.9549964759015e-08,4.1730417417454e-07,1.3076363643023e-07,-0.0014777878722444,0.0014782882880866,-0.0015454215786057,0.0015461897499582,-0.0015454838147537,0.0015460884964985,-0.0015455467459445,0.0015459795368618,-0.0015456833104414,0.0015458626563011,-0.0013208690442106,0.001321524502939,-0.0013212012962179,0.0013212749958307,-0.0014775616571941,0.0014784947451459,-0.0014781400805898,0.0014778314778197,7.0195633472399e-06,-6.117651726915e-06,-0.00099930166433435,0.0010001934921957,3.1116895353718e-07,5.9790189548019e-07,-0.0010489375659452,0.0010540911230493,-0.0010487928275228,0.0010541868584545,-0.0010533011695161,0.0010497171731277,-0.0010532226048341,0.0010497909959947,-0.0011118641129448,0.0010999091917451,-0.0010988774783786,0.0011128134314594,0.0035673548420713,0.0036266368096643,0.73953856708625,1473840,32975,0.0061391086474825,0.0061391402420564,0.0041588648898052,17.822172974006,5.7777383792046e-05,5.7777383792046e-05,5.7777383792046e-05,1605531.7725073,0.016573141468318
19612800,0.9997666542938,0.016733984012316,0.0059099608791987,0.0059099870838676,0.0049140360492496,-0.0014784971283786,0.0014783093407654,-6.6585503623207e-06,6.4510927057533e-06,-3.4550772514693e-07,2.1558837128832e-07,-0.0015486134128494,0.001543893088213,-0.0015442773048004,0.0015482070264558,-0.0015484878034068,0.0015440517453665,-0.0015440734684218,0.0015484514123833,-0.0013279565629129,0.0013149614794524,-0.0013150043322357,0.0013279054298065,5.0859341462818e-07,-4.9036720907013e-08,4.1928837402207e-07,1.286057362248e-07,-0.001478159795277,0.0014786604816897,-0.0015458950779211,0.0015466640584162,-0.0015459562847906,0.0015465611627627,-0.001546021285183,0.0015464548911727,-0.0015461571828318,0.0015463363385442,-0.0013210873648571,0.0013217473822179,-0.0013214225230149,0.0013214927027979,-0.0014778885953589,0.0014788209930247,-0.001478466801756,0.0014781574619968,7.0214111118424e-06,-6.118916268704e-06,-0.00099945104113223,0.0010003439905954,3.0980369842479e-07,6.0113647874015e-07,-0.0010490620264932,0.0010542161662299,-0.0010489162367611,0.0010543138148337,-0.0010534264457361,0.0010498412373328,-0.0010533464941791,0.0010499167622564,-0.0011120843285933,0.0011001282196098,-0.0010990947126695,0.001113035944908,0.0035676855163188,0.003625748240859,0.73751701657695,1473840,32975,0.0061406525388552,0.0061406807574809,0.0041594880172758,18.048073050644,5.9584584405151e-05,5.9584584405151e-05,5.9584584405151e-05,1606905.2458341,0.016576910137744
19699200,0.99977108350064,0.016734054523273,0.0059099859662701,0.005910012170933,0.0049140563860701,-0.0014788608321823,0.0014786590896238,-6.6675495288946e-06,6.4461649730786e-06,-3.5298619437428e-07,2.0931244216228e-07,-0.0015490722556636,0.0015443358694464,-0.0015447342840653,0.0015486510877525,-0.0015489465541239,0.0015444952623965,-0.0015445298589804,0.0015488956367253,-0.0013282015725089,0.0013151889802029,-0.0013152444173677,0.0013281356801823,5.1004965076019e-07,-4.8931478337689e-08,4.2120578538456e-07,1.2858951625074e-07,-0.0014785160994249,0.0014790184465812,-0.001546344608989,0.0015471168581251,-0.0015464076909272,0.0015470133409495,-0.0015464707659459,0.0015469064633938,-0.0015466082082855,0.0015467875437727,-0.0013213212372005,0.0013219842532998,-0.0013216588142719,0.0013217283521843,-0.0014781857348356,0.0014791199471938,-0.0014787650164723,0.0014784558500124,7.0243084412054e-06,-6.1201822552142e-06,-0.00099961964450745,0.0010005138908999,3.0942196978963e-07,6.0252959017391e-07,-0.0010492176293678,0.001054373815003,-0.0010490710974638,0.0010544718615377,-0.0010535835459406,0.0010499975238133,-0.0010535028492045,0.0010500734516476,-0.0011123004207499,0.0011003424130635,-0.0010993067324817,0.0011132541891895,0.003568015418067,0.0036248775291136,0.73515212347981,1473840,32975,0.00614212959542,0.0061421595044885,0.0041601908878793,18.273973194966,6.1391785559726e-05,6.1391785559726e-05,6.1391785559726e-05,1608414.9554813,0.016580629071352
19785600,0.99977549025777,0.01673412442338,0.0059100108412422,0.0059100370459094,0.0049140765362288,-0.0014792169382097,0.0014790037688826,-6.6754641961296e-06,6.4426158383984e-06,-3.5913678330872e-07,2.040703913873e-07,-0.0015495351170421,0.00154478549412,-0.0015451956128937,0.0015491021733938,-0.0015494091145865,0.0015449452692409,-0.0015449908852662,0.001549347060227,-0.0013284197535044,0.0013153918069532,-0.0013154582980154,0.0013283427032275,5.1013401237612e-07,-4.9828999308687e-08,4.2196407558458e-07,1.2719761036689e-07,-0.0014788668699875,0.0014793684682066,-0.0015468007028776,0.00154757332829,-0.0015468647152788,0.0015474690473429,-0.0015469270479438,0.0015473624838818,-0.0015470653990826,0.0015472428307485,-0.001321530887261,0.0013221950366726,-0.0013218707293704,0.0013219372057555,-0.0014784754446837,0.0014794089874459,-0.001479055786383,0.0014787441213145,7.0272040697883e-06,-6.1217295047449e-06,-0.00099979318483943,0.0010006887225859,3.0898629095826e-07,6.0421026165993e-07,-0.0010493579754722,0.0010545162444812,-0.001049210783182,0.0010546149957606,-0.0010537254675507,0.0010501384987193,-0.0010536439550687,0.001050215129087,-0.0011125341729891,0.0011005738350398,-0.0010995361144496,0.0011134899525511,0.0035683500034471,0.0036240243138791,0.73254354577714,1473840,32975,0.006143580569507,0.0061436104928465,0.0041609141165464,18.499873392604,6.3198987140827e-05,6.3198987140827e-05,6.3198987140827e-05,1610188.6418044,0.016584313921738
19872000,0.99977986423543,0.01673419341209,0.0059100354002057,0.0059100616048773,0.0049140964070071,-0.0014794913636736,0.0014792796610951,-6.6761842834052e-06,6.4449065337045e-06,-3.5794372096979e-07,2.0433844595553e-07,-0.001549919616541,0.0015451705872384,-0.0015455788444155,0.0015494882120259,-0.001549793874747,0.0015453301956377,-0.0015453745417619,0.0015497326953494,-0.0013285555551012,0.0013155260243761,-0.0013155913600501,0.0013284794668158,5.1090565313826e-07,-4.8117142803375e-08,4.2341870240096e-07,1.2837901303295e-07,-0.0014791409794211,0.00147964516684,-0.0015471845497165,0.0015479597819878,-0.0015472490740905,0.0015478552899654,-0.0015473104653491,0.0015477490454247,-0.0015474491094483,0.0015476294029787,-0.001321664042944,0.001322331530809,-0.0013220042606116,0.0013220734563957,-0.0014786833095002,0.0014796182570084,-0.001479262626229,0.0014789543566866,7.0288073858637e-06,-6.1231260931627e-06,-0.00099991896452196,0.0010008145115051,3.0887629926261e-07,6.0428694100181e-07,-0.0010494433553151,0.0010546025784322,-0.0010492962019867,0.0010547013019181,-0.0010538118989188,0.0010502237615008,-0.0010537301896512,0.0010503004234,-0.0011127171240252,0.0011007539870778,-0.0010997161786716,0.0011136728963021,0.0035684229424783,0.0036231881621827,0.72847024293769,1473840,32975,0.0061447200880019,0.0061447510271345,0.0041614362561357,18.692233727724,6.4737869821792e-05,6.4737869821792e-05,6.4737869821792e-05,1612027.3902614,0.016587162092549
19958400,0.99978415112184,0.01673426162839,0.0059100596691356,0.0059100858738187,0.004914116085436,-0.0014792803661593,0.0014790766862515,-6.6711034436104e-06,6.4477402869964e-06,-3.5136936954365e-07,2.0535309136249e-07,-0.0015498901058729,0.0015451522531097,-0.001545550851928,0.001549469511303,-0.001549765858109,0.0015453096265794,-0.0015453485969327,0.0015497121978789,-0.0013281151608245,0.0013150941485821,-0.0013151550397734,0.0013280470291866,5.0400768339454e-07,-4.9331100505653e-08,4.1557867073199e-07,1.2737577012252e-07,-0.0014789377228648,0.0014794335594617,-0.0015471667460394,0.0015479287671824,-0.0015472273091737,0.001547826525681,-0.0015472915200822,0.0015477209294195,-0.0015474264559791,0.0015476032361637,-0.0013212368656183,0.0013218910958019,-0.0013215691075639,0.0013216385035579,-0.0014783720915354,0.0014792955711082,-0.0014789455347556,0.0014786370730144,7.0264227061757e-06,-6.1231010034659e-06,-0.00099970176528138,0.0010005957334935,3.1166629110445e-07,6.0045925858656e-07,-0.0010490940334854,0.0010542531853923,-0.0010489490360832,0.0010543497778356,-0.00105346146725,0.0010498751122436,-0.001053382444501,0.0010499496856826,-0.0011125752637673,0.0011006102195379,-0.0010995770134763,0.0011135264003219,0.0035666744724922,0.0036223687183328,0.73489963146444,1473840,32975,0.0061438636723067,0.0061438927634284,0.0041605303756658,18.685118867487,6.468095093989e-05,6.468095093989e-05,6.468095093989e-05,1614803.5027653,0.016584497242395
20044800,0.99978835057948,0.016734328652363,0.0059100835081666,0.0059101097128489,0.0049141354313474,-0.0014797347767673,0.0014795330852504,-6.6682129351034e-06,6.4467589140421e-06,-3.5156464783823e-07,2.0791832270617e-07,-0.0015500868830425,0.001545351459401,-0.001545749223308,0.0015496672954947,-0.0015499620521068,0.0015455095861929,-0.0015455459151358,0.0015499112181453,-0.0013287571686858,0.0013157421299517,-0.0013157998646058,0.0013286917601163,5.0400808399463e-07,-5.2109997406996e-08,4.219856322401e-07,1.1803186616695e-07,-0.0014793944737686,0.0014798874628236,-0.0015473629185748,0.0015481280345512,-0.0015474283842102,0.0015480207706791,-0.0015474885576165,0.0015479194398037,-0.0015476286819923,0.0015477963920804,-0.0013218764715997,0.0013225424927314,-0.0013222241857666,0.0013222739443066,-0.0014790779631693,0.0014799973219213,-0.0014796543771687,0.0014793344787776,7.0232531327939e-06,-6.1223875464415e-06,-0.00099966097476255,0.0010005526266539,3.0270919771333e-07,6.0720975886029e-07,-0.0010492847472107,0.0010544350642576,-0.0010491344213658,0.0010545369224803,-0.0010536509088466,0.0010500583855505,-0.0010535668761058,0.001050138111096,-0.0011126117683072,0.0011006532189083,-0.0010996168863524,0.001113566228906,0.0035670993835653,0.0036215655420657,0.73711171630738,1473840,32975,0.0061457476771717,0.0061457764455721,0.0041603637845328,18.669950850309,6.4559606802471e-05,6.4559606802471e-05,6.4559606802471e-05,1606616.1698432,0.016588159620747
20131200,0.99979246433827,0.016734394535291,0.0059101069361187,0.0059101331407963,0.0049141544583756,-0.0014798701091127,0.0014796708126258,-6.6655796430658e-06,6.4465028831885e-06,-3.5060074507512e-07,2.0923081984016e-07,-0.001550153576117,0.0015454213666115,-0.0015458167685756,0.0015497363024027,-0.0015500284906776,0.0015455796804115,-0.0015456133809206,0.0015499802128629,-0.0013289247901502,0.001315915277762,-0.001315970696049,0.0013288618834183,5.0469295500362e-07,-5.1758271071979e-08,4.2444175745289e-07,1.1665647202652e-07,-0.0014795304970239,0.0014800245521432,-0.0015474300650293,0.0015481977298651,-0.0015474968839971,0.001548089079281,-0.0015475558306477,0.0015479889335277,-0.0015476972023717,0.0015478646305092,-0.0013220444347908,0.0013227151092642,-0.0013223958015629,0.0013224428742625,-0.0014792917431659,0.0014802107630896,-0.0014798683688564,0.0014795481456177,7.0228938916736e-06,-6.1199019588064e-06,-0.00099951711457495,0.0010004108596525,3.0185985921106e-07,6.1019839831232e-07,-0.0010492331556121,0.0010543833411279,-0.0010490816114524,0.0010544864622867,-0.0010535983822288,0.0010500075506307,-0.0010535129711261,0.0010500885841065,-0.0011125101117606,0.0011005577914622,-0.001099518070617,0.0011134676724674,0.0035664837085409,0.0036207783273453,0.73952435907169,1473840,32975,0.0061463121586685,0.0061463410370858,0.0041597745109586,18.654279459766,6.4434235678129e-05,6.4434235678129e-05,6.4434235678129e-05,1603299.4846616,0.016588708906536
20217600,0.99979649421539,0.016734459321987,0.0059101299684564,0.0059101561731306,0.0049141731803997,-0.0014799972523956,0.0014797966603177,-6.6649101955187e-06,6.4441445682767e-06,-3.5131162460359e-07,2.0900051747389e-07,-0.0015502206978687,0.0015454883324872,-0.0015458850355531,0.001549801923055,-0.0015500957433095,0.0015456466189074,-0.0015456811934148,0.0015500458913895,-0.0013290748886346,0.0013160663954757,-0.0013161228249754,0.0013290100151387,5.0577478107818e-07,-5.1114246963165e-08,4.2690425410796e-07,1.1542736933813e-07,-0.0014796563851399,0.0014801519669678,-0.0015474957776769,0.0015482660321297,-0.0015475636908531,0.0015481565046166,-0.0015476214467972,0.0015480571899938,-0.0015477639643164,0.0015479314531223,-0.0013221929779456,0.0013228683413449,-0.001322548259521,0.0013225923097882,-0.0014794918455726,0.001480412083881,-0.0014800685033101,0.0014797483387763,7.0239560223811e-06,-6.1156570857356e-06,-0.00099936334186718,0.0010002625117972,3.0265358154786e-07,6.1463451665033e-07,-0.0010491635958908,0.0010543168724392,-0.00104901079052,0.0010544212868682,-0.0010535277325089,0.0010499425689774,-0.0010534414069146,0.0010500249957374,-0.0011123991164607,0.0011004569258516,-0.0010994097922115,0.0011133626931858,0.0035658451197787,0.0036200067712702,0.74229524859191,1473840,32975,0.0061468350716814,0.0061468645952133,0.0041591509931426,18.638574313262,6.4308594506096e-05,6.4308594506096e-05,6.4308594506096e-05,1600035.4359351,0.016589139415818
20304000,0.99980044199602,0.01673452306736,0.0059101526244344,0.005910178829107,0.0049141916138182,-0.0014801210646164,0.0014799225843363,-6.6620442528761e-06,6.4433026073048e-06,-3.5137581656832e-07,2.1132145190691e-07,-0.0015502804800203,0.0015455507556675,-0.0015459462326837,0.0015498630878088,-0.0015501549397657,0.0015457098166941,-0.001545741542433,0.0015501079770314,-0.0013292238251009,0.0013162215888176,-0.0013162753551345,0.0013291619948341,5.0651689886044e-07,-5.2789208395758e-08,4.2831378147175e-07,1.1321670727581e-07,-0.0014797817359804,0.0014802764513251,-0.0015475564551987,0.0015483277371723,-0.0015476253618259,0.0015482169815729,-0.0015476828191461,0.0015481181402001,-0.0015478265290469,0.0015479910934343,-0.0013223443936685,0.0013230217735526,-0.001322703249199,0.001322741923426,-0.0014796884190579,0.0014806091490799,-0.0014802674783977,0.0014799426828082,7.0189353316264e-06,-6.1168621562744e-06,-0.00099920545497299,0.0010000985630396,2.978880533948e-07,6.1348076997973e-07,-0.0010491053325945,0.0010542500884633,-0.0010489512285736,0.001054355668583,-0.0010534681850451,0.001049877103713,-0.0010533806774655,0.0010499606109324,-0.0011122786643848,0.0011003352300622,-0.0010992930596668,0.0011132371788399,0.0035652051618146,0.0036192505798876,0.74549157394513,1473840,32975,0.0061473511480429,0.0061473808762304,0.0041584866556499,18.622866857371,6.4182934858969e-05,6.4182934858969e-05,6.4182934858969e-05,1596724.5803471,0.016589514125395
20390400,0.99980430942637,0.016734585546461,0.0059101748301081,0.0059102010347795,0.0049142096815731,-0.0014802482946604,0.0014800466796227,-6.662922644297e-06,6.4409546602562e-06,-3.5379470770293e-07,2.1080891901382e-07,-0.001550340739132,0.0015456077690389,-0.0015460070533096,0.0015499195701655,-0.0015502147145174,0.0015457674171084,-0.0015458016584377,0.0015501651206954,-0.0013293823388892,0.0013163787263255,-0.0013164350208793,0.0013293175752169,5.0727279437693e-07,-5.3975434406294e-08,4.305714316127e-07,1.1038433814323e-07,-0.0014799075954562,0.0014804019003388,-0.0015476140999803,0.0015483873401832,-0.0015476845208098,0.0015482748429247,-0.0015477409885211,0.0015481770117795,-0.0015478863357525,0.0015480482542934,-0.0013225004524319,0.0013231815871708,-0.0013228641818565,0.0013228967982914,-0.0014798856178931,0.0014808065263823,-0.0014804664224203,0.0014801376064291,7.0207384257119e-06,-6.1135420083288e-06,-0.00099903353407642,0.00099993174166111,2.9793096794267e-07,6.1866837963432e-07,-0.0010490440468149,0.0010541915576357,-0.0010488881675863,0.001054298946567,-0.001053406387122,0.0010498191069855,-0.0010533172143638,0.0010499043487116,-0.0011121394706035,0.0011002044800368,-0.001099155191556,0.0011131047573391,0.0035645724968034,0.0036185093901163,0.74582825512183,1473840,32975,0.0061478704113431,0.0061479001041686,0.0041577873588066,18.607159293205,6.4057274345638e-05,6.4057274345638e-05,6.4057274345638e-05,1593294.5584753,0.016589859583636
20476800,0.99980809821407,0.016734646215496,0.0059101964042534,0.0059102226089223,0.0049142272023199,-0.0014802053081393,0.001480008481999,-6.6577328311838e-06,6.441143861744e-06,-3.5117025600516e-07,2.1221376153887e-07,-0.0015503237933863,0.0015455972716848,-0.0015459913495484,0.0015499078320343,-0.0015501974661116,0.0015457567959637,-0.0015457868177722,0.0015501528754115,-0.0013292914079878,0.0013162985782994,-0.0013163504451139,0.0013292321861665,5.0613810426462e-07,-5.3856585133116e-08,4.2898764913685e-07,1.1155604389665e-07,-0.0014798672416985,0.0014803607108099,-0.0015476012886999,0.0015483728245749,-0.0015476713473476,0.0015482608873577,-0.0015477282294891,0.0015481627884591,-0.001547872805063,0.0015480353007118,-0.0013224154952386,0.0013230939299248,-0.0013227761823169,0.0013228121918308,-0.0014798256960426,0.0014807440869257,-0.0014804057881587,0.0014800782854259,7.018695359858e-06,-6.1109363665493e-06,-0.00099880505986871,0.00099970352398912,2.9945300900086e-07,6.174305217275e-07,-0.001048865888348,0.0010540131577421,-0.0010487111646016,0.0010541195019222,-0.0010532267218441,0.0010496416920352,-0.0010531380887363,0.001049725948578,-0.001111922004121,0.0010999904613644,-0.0010989428479229,0.0011128873821367,0.0035633920243283,0.003617782756465,0.73927056579765,1473840,32975,0.0061477017119554,0.006147730663773,0.0041568410250907,18.59145179326,6.3931614346081e-05,6.3931614346081e-05,6.3931614346081e-05,1592455.2338657,0.016588553802811
20563200,0.99981181002899,0.016734704886193,0.0059102172836717,0.0059102434883385,0.0049142441141831,-0.0014798233000086,0.0014796240537352,-6.6557133227796e-06,6.4367904301134e-06,-3.4938510097246e-07,2.078874826029e-07,-0.0015501932915761,0.0015454684823202,-0.0015458629288393,0.0015497769138202,-0.0015500689509115,0.0015456259915742,-0.0015456604351501,0.0015500198914888,-0.0013286477325046,0.0013156569234465,-0.0013157130035204,0.001328584108093,5.0392650624523e-07,-4.9955462993881e-08,4.2308109416287e-07,1.1912708735447e-07,-0.0014794831916109,0.0014799783110197,-0.0015474740471818,0.0015482407139055,-0.0015475397050696,0.0015481332766775,-0.0015475990247567,0.0015480327169209,-0.001547739110767,0.0015479097764891,-0.0013217773223192,0.0013224461578396,-0.0013221249052133,0.0013221779851227,-0.0014792470667901,0.0014801654104626,-0.0014798211274588,0.0014795059894868,7.0141614160587e-06,-6.1090579367266e-06,-0.00099850867906028,0.00099940444783543,3.0475077222195e-07,6.0928140115716e-07,-0.0010484037825876,0.0010535506714202,-0.0010482535188139,0.0010536525675402,-0.0010527624441957,0.0010491814043952,-0.0010526782942096,0.0010492612008129,-0.0011116471615711,0.0010997148858485,-0.0010986745183353,0.0011126055826182,0.0035611357736162,0.0036170703334079,0.72982041151505,1473840,32975,0.0061461157744919,0.0061461446989913,0.0041556018880049,18.575744252198,6.3805954017583e-05,6.3805954017583e-05,6.3805954017583e-05,1597339.6599258,0.01658406816774
20649600,0.99981543285098,0.016734761329861,0.0059102373871229,0.0059102635917877,0.0049142603509505,-0.0014791807222574,0.001478944947748,-6.6723136156827e-06,6.4167235265839e-06,-3.5841516241556e-07,1.8038432058028e-07,-0.0015499061077403,0.0015451520086804,-0.0015455767198632,0.0015494593615619,-0.0015497877212589,0.0015453033785762,-0.0015453803689341,0.0015496961259884,-0.0013276487396608,0.0013146187828293,-0.001314717624901,0.0013275423667007,4.9794190275586e-07,-3.7601087973529e-08,4.1570404471814e-07,1.3267369004953e-07,-0.0014788192117526,0.0014793205537222,-0.0015471755093441,0.0015479353320792,-0.0015472343882345,0.0015478348478204,-0.0015472943804867,0.0015477334778092,-0.0015474275837318,0.0015476175700741,-0.0013207629253509,0.0013214233825811,-0.0013210898765086,0.0013211758686343,-0.0014783070200866,0.0014792205248565,-0.0014788629066501,0.0014785793414953,7.0121333921019e-06,-6.1075036533604e-06,-0.00099811354719322,0.00099900881037261,3.1487024139973e-07,5.9854198720656e-07,-0.0010477289251652,0.0010528810591503,-0.0010475856357396,0.0010529760378427,-0.0010520864763916,0.0010485130873684,-0.0010520092513767,0.0010485859366905,-0.0011112854117158,0.0010993493614292,-0.0010983163277312,0.0011122362626185,0.0035579652373912,0.0036163717568258,0.71951855317119,1473840,32975,0.0061433811245089,0.0061434099385466,0.0041539551574222,18.499603683492,6.3196829467933e-05,6.3196829467933e-05,6.3196829467933e-05,1604908.4767701,0.016576832002764
20736000,0.99981890246126,0.016734815922992,0.0059102568172193,0.0059102830218816,0.0049142760838909,-0.0014778168225478,0.0014776041372947,-6.6536052462997e-06,6.4212487054954e-06,-3.4040911911199e-07,1.8517024397286e-07,-0.0015489486048284,0.0015442265496743,-0.0015446236179985,0.0015485290956591,-0.0015488340680493,0.0015443735312247,-0.0015444315783234,0.0015487611050929,-0.0013258981836545,0.0013129016545156,-0.0013129816151021,0.0013258102854591,4.9084801249457e-07,-3.1343737939836e-08,4.0814034616296e-07,1.3910449056446e-07,-0.0014774674690092,0.0014779678067769,-0.0015462389505792,0.0015469891359706,-0.0015462936048636,0.0015468931057663,-0.0015463535192128,0.0015467912831183,-0.0015464822765097,0.0015466802751173,-0.0013190341016948,0.001319683906093,-0.0013193471338076,0.0013194503593328,-0.0014766202008898,0.0014775233564403,-0.0014771621999015,0.0014768964725372,7.0035436959562e-06,-6.1019471518748e-06,-0.00099723945221693,0.00099813142504622,3.2023543873625e-07,5.8988144102389e-07,-0.0010465111382062,0.0010516598880958,-0.0010463726770477,0.0010517500861398,-0.0010508639269142,0.0010472964463474,-0.0010507913903261,0.0010473647882525,-0.0011104119712704,0.0010984823710381,-0.0010974572843437,0.0011113548037357,0.0035521971608697,0.0036156867784623,0.72668639867742,1473840,32975,0.006137783521839,0.0061378127939869,0.004150313312103,18.118312802306,6.0146502418444e-05,6.0146502418444e-05,6.0146502418444e-05,1613050.1524492,0.016561747334993
20822400,0.99982222405492,0.016734868725916,0.0059102755945667,0.00591030179923,0.0049142913321192,-0.00147761059228,0.0014774027885106,-6.6443282095158e-06,6.4166743556412e-06,-3.414300208382e-07,1.9126901185764e-07,-0.0015484123378742,0.0015436977623186,-0.0015440926784406,0.001547995945552,-0.0015482962931379,0.0015438470714557,-0.0015438983348653,0.0015482308167158,-0.0013259592645014,0.0013129823727125,-0.001313056367342,0.0013258797358383,4.94033900613e-07,-3.5306227887782e-08,4.1572744887504e-07,1.3084352002067e-07,-0.0014772639805265,0.0014777636294684,-0.0015457031446867,0.0015464596949938,-0.0015457622984527,0.0015463587524747,-0.0015458201131008,0.0015462601494806,-0.0015459538218579,0.0015461434285624,-0.0013191003768353,0.0013197633413619,-0.0013194294971737,0.0013195132278764,-0.0014767088320973,0.0014776147724042,-0.0014772587108814,0.0014769789006142,6.9928728294046e-06,-6.0986555278788e-06,-0.00099658671298074,0.00099747213441044,3.091063162716e-07,5.9449040312273e-07,-0.0010461343101156,0.0010512671011653,-0.0010459902544319,0.001051362401602,-0.0010504823689203,0.0010469082051981,-0.001050404682594,0.0010469814898006,-0.0011098009144242,0.0010978823162314,-0.0010968593750641,0.001110741850392,0.0035500596061485,0.0036150151395287,0.73424404839279,1473840,32975,0.0061369375951543,0.0061369666860299,0.0041475986316902,17.724693822913,5.6997550583298e-05,5.6997550583298e-05,5.6997550583298e-05,1601954.9974684,0.016557269352172
20908800,0.99982540502496,0.016734919051992,0.0059102934955917,0.0059103197002531,0.0049143058561468,-0.0014773854452707,0.0014771775368238,-6.6381775533223e-06,6.4089921227374e-06,-3.4418156185526e-07,1.9465520875165e-07,-0.0015478907309113,0.0015431797381157,-0.001543576669599,0.0015474732534174,-0.0015477735267965,0.0015433308245934,-0.0015433803224636,0.0015477104915511,-0.0013259632187855,0.0013129994467669,-0.0013130729835785,0.0013258855796912,4.863677052464e-07,-4.9064415647663e-08,4.1228157657213e-07,1.1082537377465e-07,-0.0014770498120341,0.0014775274039017,-0.0015451914102517,0.0015459316713026,-0.0015452535498372,0.0015458254881457,-0.0015453110187714,0.0015457321539453,-0.0015454481424916,0.001545608916542,-0.001319118273857,0.001319772979327,-0.0013194626347848,0.0013195041249051,-0.0014767854172657,0.0014776722305872,-0.0014773395323645,0.0014770277207696,7.008537909298e-06,-6.06800354228e-06,-0.00099592807429147,0.00099686054797686,3.2445670484441e-07,6.2644452461852e-07,-0.0010456866765924,0.0010508552466335,-0.0010455370622902,0.0010509570393629,-0.0010500294795569,0.0010465026552229,-0.0010499470225419,0.0010465818257777,-0.0011092006140118,0.0010973488327542,-0.0010962729101316,0.0011101920343902,0.0035479066761373,0.0036143563946114,0.73062461134521,1473840,32975,0.0061360032591493,0.0061360323567164,0.0041449705704696,17.330305063633,5.3842440509061e-05,5.3842440509061e-05,5.3842440509061e-05,1591347.7579518,0.016552699948214
20995200,0.99982845246657,0.016734967099439,0.0059103105887113,0.005910336793367,0.0049143197173602,-0.0014764213728733,0.0014762041455142,-6.6382296479951e-06,6.3990716391016e-06,-3.4288318856645e-07,1.8450807985706e-07,-0.0015470265323308,0.0015423108475883,-0.0015427137379488,0.0015466026994658,-0.0015469097493116,0.0015424595205682,-0.0015425218463161,0.0015468343806472,-0.0013249294919623,0.0013119658410056,-0.00131205205875,0.0013248347677289,4.6959474012888e-07,-5.4469388208094e-08,3.9470926534156e-07,1.0389987017852e-07,-0.0014760925499989,0.001476546765396,-0.0015443390642214,0.0015450511222062,-0.0015444005440231,0.0015449472110902,-0.001544456124448,0.0015448539554234,-0.001544589617834,0.0015447356637179,-0.0013180980934764,0.0013187216896733,-0.0013184288831657,0.0013184621842779,-0.0014757063729298,0.0014765615924799,-0.0014762438346033,0.0014759285122833,7.0290780437703e-06,-6.0389296768216e-06,-0.00099505998107324,0.00099604007390682,3.536817930902e-07,6.4597373964152e-07,-0.001044780275725,0.0010499962118063,-0.0010446367874779,0.001050095479253,-0.0010491214127641,0.0010456454489851,-0.0010490410161108,0.0010457227006275,-0.0011082832201595,0.0010964881841969,-0.0010953643518547,0.0011093199398679,0.003543333331391,0.0036137103355562,0.72798879736018,1473840,32975,0.0061319921015375,0.0061320202985634,0.0041414643590276,16.935864491608,5.0686915932863e-05,5.0686915932863e-05,5.0686915932863e-05,1592334.8226663,0.016540978971747
21081600,0.99983137305874,0.016735013155958,0.0059103269712654,0.0059103531759203,0.0049143330087724,-0.0014755162410073,0.0014753027362164,-6.6309163039443e-06,6.397694514187e-06,-3.371408945362e-07,1.8119022137308e-07,-0.0015462233123491,0.0015415183789088,-0.0015419138762693,0.0015458054306987,-0.0015461115217938,0.0015416628895063,-0.0015417242676237,0.001546035278877,-0.0013239196341625,0.0013109644987408,-0.0013110476842073,0.0013238281277382,4.9052211042521e-07,-2.4423283776842e-08,4.177112437452e-07,1.3603915132962e-07,-0.0014751631362891,0.0014756699962927,-0.0015435178732119,0.0015442762069492,-0.0015435765865044,0.0015441761355455,-0.001543630102575,0.0015440810867047,-0.0015437631633789,0.001543965685815,-0.0013170658864828,0.0013177371399372,-0.0013173915940192,0.0013174909088389,-0.0014747025934955,0.0014756019322726,-0.00147523796615,0.0014749812159355,6.9951600190023e-06,-6.0639845744731e-06,-0.0009942713593651,0.00099519281917655,3.285470392283e-07,6.1099997347822e-07,-0.0010439026962958,0.0010490611343068,-0.0010437598183513,0.0010491556532071,-0.0010482400273838,0.0010447131117373,-0.0010481631638852,0.0010447856758702,-0.0011074992454811,0.0010956487650844,-0.001094589545156,0.0011084759895174,0.0035389984039006,0.0036130767822532,0.72816118668488,1473840,32975,0.0061282520879501,0.006128281029479,0.0041380685569129,16.541420216925,4.7531361735399e-05,4.7531361735399e-05,4.7531361735399e-05,1592378.6328414,0.01652992348838
21168000,0.99983417308406,0.016735057323852,0.0059103426798872,0.005910368884541,0.0049143457594238,-0.0014747954800211,0.0014745796817024,-6.6273150226442e-06,6.3915469571326e-06,-3.3583928272732e-07,1.7769608148004e-07,-0.0015454857258588,0.0015407832695385,-0.0015411795110944,0.00154506731119,-0.0015453753311072,0.0015409262674874,-0.0015409915621736,0.0015452953677178,-0.0013231991383292,0.0013102497089133,-0.0013103373195663,0.0013231036101067,4.8589612938895e-07,-2.4276611819835e-08,4.1384058331802e-07,1.3494486356827e-07,-0.0014744435893313,0.0014749457822246,-0.0015427850861422,0.0015435363495788,-0.0015428429274134,0.0015434371273105,-0.0015428958572928,0.0015433428652505,-0.0015430278528289,0.0015432283790567,-0.0013163516987376,0.001317017214724,-0.0013166745270582,0.0013167730707783,-0.0014740029987359,0.0014748943122505,-0.0014745329720358,0.0014742778124644,6.9914956012984e-06,-6.057872268535e-06,-0.00099349927663437,0.00099442322602562,3.3125915766282e-07,6.1092749261234e-07,-0.0010431450356431,0.0010483037194154,-0.0010430032863727,0.0010483972708366,-0.0010474791803765,0.0010439588416505,-0.0010474032712835,0.0010440305108562,-0.0011067368503001,0.0010948975540061,-0.0010938366834014,0.00110771472318,0.0035352649615154,0.0036124555106591,0.72838409900094,1473840,32975,0.0061252624114966,0.006125291465957,0.0041348705849145,16.146975681121,4.4375805448967e-05,4.4375805448967e-05,4.4375805448967e-05,1589546.7784591,0.016520594687211
21254400,0.99983686249388,0.016735099764046,0.005910357772052,0.0059103839767052,0.0049143580152892,-0.0014741225183942,0.0014739037950386,-6.6233276512984e-06,6.3847402137332e-06,-3.3567451900424e-07,1.7446443431616e-07,-0.0015447949927599,0.0015400944438792,-0.0015404924574706,0.0015443748370918,-0.0015446858382248,0.0015402362614423,-0.0015403056155592,0.0015446018448397,-0.0013225269464306,0.0013095840793395,-0.0013096757667299,0.0013224279163445,4.8715741342747e-07,-1.9598447851415e-08,4.1571221685987e-07,1.3924839416191e-07,-0.0014737661494291,0.0014742743536857,-0.0015420933242885,0.0015428485651696,-0.0015421503158084,0.0015427501623691,-0.0015422029243472,0.0015426562490965,-0.0015423341179023,0.0015425425339376,-0.001315680609116,0.0013163510399108,-0.0013160008828472,0.0013161091814947,-0.0014733459369874,0.0014742406555412,-0.0014738730261302,0.0014736277076575,6.9832659470247e-06,-6.0552972268646e-06,-0.00099276978467061,0.00099368821291756,3.2977872201612e-07,6.0694920657942e-07,-0.0010424321936441,0.0010475826153165,-0.0010422911926077,0.0010476753161514,-0.0010467627021597,0.0010432413603932,-0.0010466876544062,0.0010433121040752,-0.001106016170977,0.0010941806096719,-0.0010931266098897,0.0011069876661109,0.0035317312143048,0.0036118463211007,0.72865276328328,1473840,32975,0.0061224693330993,0.0061224983463724,0.0041318327826475,15.776146381742,4.1409171053937e-05,4.1409171053937e-05,4.1409171053937e-05,1586778.2637445,0.016511828326713
21340800,0.99983945982332,0.016735140769849,0.0059103723521951,0.0059103985568477,0.0049143698608061,-0.0014736089759227,0.0014733909354674,-6.6176748934797e-06,6.3799295356571e-06,-3.3476287350353e-07,1.7419772498522e-07,-0.001544264388674,0.0015395684329888,-0.0015399654407775,0.0015438452134062,-0.0015441557773932,0.0015397098008175,-0.0015397788838025,0.0015440719904232,-0.0013220094233421,0.0013090769112431,-0.0013091679175965,0.0013219108168181,4.8786636480452e-07,-1.7703960820561e-08,4.1554407457638e-07,1.4233222277363e-07,-0.0014732515628318,0.0014737624972679,-0.0015415644119008,0.0015423207960219,-0.0015416202184463,0.0015422235821012,-0.0015416735466841,0.0015421288897626,-0.0015418037210738,0.0015420162553441,-0.0013151677465106,0.00131583817366,-0.0013154850946457,0.001315599965999,-0.0014728533302019,0.0014737506016194,-0.0014733799042529,0.0014731388809684,6.9717224656241e-06,-6.0563714109096e-06,-0.00099217562580493,0.00099308147633003,3.2504662805452e-07,5.9895156530132e-07,-0.0010418577228014,0.0010469931762548,-0.001041717701793,0.0010470848486566,-0.0010461847104658,0.0010426555071207,-0.0010461107386697,0.0010427251410846,-0.001105437889213,0.0010935987691585,-0.0010925585046144,0.0011063961144524,0.0035288454902876,0.0036112490627047,0.72896323695289,1473840,32975,0.0061203438399604,0.0061203727694936,0.0041293421491462,15.485962500018,3.9087700000139e-05,3.9087700000139e-05,3.9087700000139e-05,1584263.075779,0.016504975414632
21427200,0.99984196940015,0.01673518041069,0.0059103864453278,0.0059104126499791,0.0049143813153827,-0.001473101834799,0.0014728847144647,-6.6120336293433e-06,6.3752705324204e-06,-3.3411117231147e-07,1.7444474939043e-07,-0.0015437413696799,0.0015390499098639,-0.0015394459259938,0.0015433232428925,-0.0015436329487208,0.0015391911216546,-0.0015392594580178,0.0015435499445575,-0.0013214972312449,0.0013085755453629,-0.0013086656219681,0.0013213995433299,4.8798623685984e-07,-1.7174406873835e-08,4.1401976852947e-07,1.4463449835177e-07,-0.0014727445250064,0.0014732561663599,-0.0015410440438599,0.0015417996404849,-0.0015410984711615,0.0015417037426662,-0.0015411530484236,0.0015416079135372,-0.0015412818822572,0.0015414965397981,-0.0013146621426175,0.0013153297325123,-0.0013149758941281,0.0013150955223686,-0.0014723672949252,0.0014732661017845,-0.0014728937266314,0.0014726547901258,6.9608164151653e-06,-6.0569507522527e-06,-0.00099158613573234,0.0009924805738218,3.21228392114e-07,5.9127963975629e-07,-0.0010412896289797,0.0010464115484754,-0.0010411508962664,0.0010465020015394,-0.0010456131704254,0.0010420773992514,-0.0010455404873367,0.0010421457613931,-0.0011048634214791,0.0010930216535508,-0.0010919941541164,0.0011058091281819,0.0035259981067851,0.0036106635149952,0.72931331026794,1473840,32975,0.0061182453296484,0.0061182742463778,0.0041268733196015,15.19904328481,3.6792346278478e-05,3.6792346278478e-05,3.6792346278478e-05,1581759.2183962,0.016498199657439
21513600,0.99984439483139,0.016735219099425,0.0059104001898627,0.0059104263945127,0.00491439251505,-0.0014725943984401,0.0014723796658724,-6.6048888379325e-06,6.3701656686651e-06,-3.328318060771e-07,1.7561014874894e-07,-0.0015432176110228,0.0015385326525829,-0.0015389262427632,0.0015428022240077,-0.0015431089315279,0.0015386739149659,-0.0015387399734475,0.0015430286066035,-0.0013209833285291,0.0013080761976792,-0.0013081647603643,0.001320888045293,4.8552234326304e-07,-1.954593528902e-08,4.0977162763958e-07,1.4348238699579e-07,-0.0014722408024379,0.001472747407974,-0.0015405266066904,0.0015412762645878,-0.0015405799848649,0.001541181187354,-0.0015406358533269,0.0015410846482431,-0.0015407632945764,0.00154097422448,-0.0013141607105386,0.001314820104128,-0.0013144704849562,0.0013145876233162,-0.0014718848519956,0.0014727797717263,-0.0014724100150695,0.0014721682266588,6.9586675781569e-06,-6.0468002309783e-06,-0.00099098734173854,0.00099188988367748,3.2704307267368e-07,5.9400959722302e-07,-0.0010407129492569,0.0010458398153438,-0.0010405755393379,0.0010459292479352,-0.0010450324266113,0.0010415097114404,-0.001044960823589,0.0010415771486397,-0.0011042785042666,0.0010924558216258,-0.0010914212786549,0.0011052304694172,0.0035231647552933,0.0036100895516505,0.7364078025993,1473840,32975,0.0061161486245479,0.0061161775497609,0.004124406373936,14.912327456041,3.4498619648324e-05,3.4498619648324e-05,3.4498619648324e-05,1579250.2678444,0.016491429558384
21600000,0.99984673951933,0.016735256219254,0.0059104133826387,0.0059104395872877,0.0049144032493275,-0.0014725066690499,0.0014722944454871,-6.5984426788732e-06,6.3650627348492e-06,-3.3467548435845e-07,1.8061478393589e-07,-0.0015428794295328,0.0015381998840132,-0.0015385932079804,0.0015424653349796,-0.0015427696496193,0.0015383429653562,-0.0015384043032889,0.0015426944661212,-0.0013210778869409,0.0013081837108209,-0.0013082689815919,0.0013209876359293,4.8676857559029e-07,-2.5040591378828e-08,4.1255274724679e-07,1.3582168653224e-07,-0.0014721566065267,0.0014726586856436,-0.0015401914732231,0.0015409402698988,-0.0015402458975517,0.0015408421790869,-0.0015403029914422,0.001540747825468,-0.0015404323547307,0.00154063336548,-0.0013142621089621,0.0013149249426691,-0.001314582670035,0.0013146816863416,-0.0014720546532117,0.0014729500669006,-0.0014725860967044,0.0014723294850311,6.9512703803516e-06,-6.0415111433063e-06,-0.00099052329222691,0.00099142474764621,3.2127063022983e-07,5.9841831796874e-07,-0.0010404247768648,0.0010455424508762,-0.0010402831485127,0.0010456358187044,-0.0010447393083943,0.0010412179913641,-0.0010446653238525,0.0010412887766963,-0.0011038803090289,0.0010920710696126,-0.0010910338032136,0.0011048324464215,0.0035217359412232,0.0036095267794342,0.73089909016254,1473840,32975,0.0061157889559011,0.0061158179438755,0.0041224852327229,14.625626803829,3.2205014430632e-05,3.2205014430632e-05,3.2205014430632e-05,1570244.6298958,0.016488747221464
21686400,0.99984900670071,0.016735292059408,0.0059104261211374,0.0059104523257822,0.0049144136124888,-0.0014716273514753,0.0014714088496224,-6.5945035069242e-06,6.3563095827696e-06,-3.3297568373507e-07,1.7193216781444e-07,-0.0015421869740306,0.0015375075266333,-0.0015379036265579,0.0015417686342665,-0.0015420797161655,0.0015376475192426,-0.0015377183821438,0.0015419941009888,-0.0013200363103127,0.0013071476721768,-0.0013072403498414,0.0013199357139214,4.8690963081924e-07,-1.4604813602617e-08,4.1334204237089e-07,1.4669277707763e-07,-0.0014712686373499,0.0014717817109469,-0.0015394959363574,0.00154025090807,-0.00153954956352,0.0015401558892859,-0.0015396037388197,0.0015400603623895,-0.0015397317453447,0.0015399499345778,-0.001313217811572,0.0013138851821745,-0.0013135287516743,0.0013136537296115,-0.0014709827543254,0.0014718802572985,-0.0014715053962222,0.0014712726459384,6.9491113412989e-06,-6.0320810515996e-06,-0.00098980645758458,0.00099071389298452,3.2906108655786e-07,5.9643872627126e-07,-0.0010396044057021,0.001044727900499,-0.0010394665636982,0.0010448174929669,-0.0010439157412351,0.0010404059626793,-0.0010438439768369,0.0010404734351222,-0.001103118553332,0.0010913247779692,-0.001090284920287,0.0011040762901706,0.0035176755203767,0.0036089750482772,0.72971734160284,1473840,32975,0.0061121353361538,0.0061121642656733,0.0041195188882465,14.338926486036,2.9911411888286e-05,2.9911411888286e-05,2.9911411888286e-05,1573497.1124492,0.016478303034775
21772800,0.99985119945809,0.016735326659295,0.0059104384189536,0.0059104646235973,0.0049144236167441,-0.0014710191289469,0.0014708001309167,-6.5901647463381e-06,6.3514538279832e-06,-3.3168677223533e-07,1.7013093735347e-07,-0.0015416241902191,0.0015369483242576,-0.0015373438485686,0.0015412063858036,-0.0015415178977474,0.0015370872865109,-0.0015371596392627,0.0015414307605681,-0.0013193694278404,0.0013064882811936,-0.0013065825653169,0.0013192672405425,4.856392805607e-07,-1.2790833241001e-08,4.1160315104868e-07,1.488553448953e-07,-0.0014706599325217,0.0014711734801051,-0.0015389357909205,0.001539689012283,-0.0015389882378418,0.0015395952570307,-0.0015390425872303,0.0015394994310917,-0.0015391693773365,0.0015393903294837,-0.0013125559927944,0.0013132209860155,-0.0013128630443936,0.0013129932213812,-0.001470341930628,0.0014712382705799,-0.0014708614062998,0.001470633657932,6.9462597778202e-06,-6.0257082916369e-06,-0.00098918183649802,0.00099009276384268,3.3273371001088e-07,5.962542545556e-07,-0.0010389536844602,0.0010440788807873,-0.0010388171097573,0.0010441671469961,-0.0010432619314847,0.0010397599418542,-0.0010431914446387,0.0010398261254735,-0.0011025021808056,0.001090719616344,-0.0010896775353336,0.0011034620342895,0.0035145429188303,0.0036084341455485,0.72844756437389,1473840,32975,0.0061096156170946,0.0061096445585636,0.0041169338184607,14.052226220246,2.7617809761969e-05,2.7617809761969e-05,2.7617809761969e-05,1572587.9211931,0.016470552687921
21859200,0.99985333751549,0.016735360332912,0.0059104503878178,0.0059104765924606,0.004914433352634,-0.0014706517332906,0.0014704327112682,-6.5859611512792e-06,6.3472953704754e-06,-3.3144112702167e-07,1.6983532115255e-07,-0.0015413059831058,0.0015366330508155,-0.0015370283917039,0.0015408882493983,-0.001541199893347,0.0015367718161362,-0.0015368443525804,0.0015411124945444,-0.0013189318043967,0.0013060586479537,-0.0013061529474968,0.0013188294280551,4.8572257581074e-07,-1.2172827026152e-08,4.107248479613e-07,1.505447235235e-07,-0.0014702921538153,0.0014708064488016,-0.0015386191276392,0.0015393720697764,-0.0015386707512445,0.0015392791870009,-0.0015387257530299,0.0015391827071064,-0.0015388517827804,0.0015390744228854,-0.0013121229178841,0.0013127863743503,-0.0013124276551723,0.0013125613282,-0.0014699441427285,0.0014708414914774,-0.0014704633258101,0.0014702374425258,6.9485139252395e-06,-6.0149992342398e-06,-0.00098875441268988,0.00098967824330146,3.4033772682903e-07,6.0142233862503e-07,-0.001038499157669,0.0010436352058791,-0.0010383633748273,0.0010437226735774,-0.0010428045433717,0.0010393191272866,-0.0010427348420193,0.0010393845370473,-0.0011020970992419,0.0010903350134812,-0.001089280840319,0.0011030692496305,0.0035123774305181,0.0036079039541143,0.72710386897275,1473840,32975,0.0061080941484928,0.0061081231015932,0.0041151868902618,13.887499363717,2.6299994909736e-05,2.6299994909736e-05,2.6299994909736e-05,1572136.6918669,0.01646568369615
21945600,0.99985546367281,0.016735393752396,0.0059104622667933,0.0059104884714352,0.004914443014168,-0.0014708856675217,0.001470667395598,-6.5857688202626e-06,6.3478577292292e-06,-3.3237136986439e-07,1.7149958102987e-07,-0.0015415973577829,0.0015369242161045,-0.0015373198673395,0.0015411797024493,-0.0015414904244155,0.0015370638526858,-0.0015371349205324,0.0015414047914473,-0.0013190723682215,0.0013062005216783,-0.0013062932182046,0.0013189719740572,4.8642130879347e-07,-1.405848940424e-08,4.1122645135716e-07,1.4889820872056e-07,-0.0014705270262894,0.0014710401654749,-0.0015389103909608,0.001539663549711,-0.0015389624611948,0.0015395699928083,-0.001539017930181,0.0015394734804408,-0.0015391443668615,0.001539364428283,-0.0013122639467664,0.0013129276508506,-0.0013125708081267,0.0013127004467442,-0.0014701556928114,0.0014710537981911,-0.001470677568908,0.0014704470449653,6.9356651999998e-06,-6.0282672396507e-06,-0.00098884255996738,0.00098974047209866,3.2643398832461e-07,5.8948554719811e-07,-0.0010385650590256,0.0010436747765248,-0.0010384287116372,0.0010437629834497,-0.0010428706025383,0.0010393586210525,-0.0010428002732814,0.0010394246837079,-0.0011022434388203,0.0010904555039235,-0.001089426847659,0.0011031904574557,0.0035125995286787,0.0036073844803167,0.7256943887743,1473840,32975,0.0061090643682527,0.0061090932606846,0.0041154997206397,14.025209343837,2.7401674750695e-05,2.7401674750695e-05,2.7401674750695e-05,1572734.3509084,0.016467973751283
22032000,0.99985757937714,0.016735426939281,0.0059104740642594,0.0059105002688999,0.0049144526061219,-0.0014711420349596,0.0014709243097388,-6.5860760672671e-06,6.3487111302634e-06,-3.3329223043879e-07,1.7297228532131e-07,-0.0015419182799758,0.0015372444988621,-0.0015376404495036,0.0015415004283168,-0.0015418105591273,0.0015373849501929,-0.0015374547125876,0.0015417262998118,-0.0013192300093254,0.0013063584102023,-0.0013064498574636,0.0013191310769238,4.8712413462303e-07,-1.574720042366e-08,4.1131095892551e-07,1.478382330282e-07,-0.0014707841512922,0.0014712963152979,-0.0015392309628207,0.0015399842763515,-0.0015392833385166,0.0015398903432793,-0.0015393392943861,0.0015397934164948,-0.0015394660222931,0.0015396839882269,-0.0013124220695608,0.001313085141764,-0.0013127300414116,0.0013128567850887,-0.0014703849754531,0.0014712840608272,-0.0014709091706354,0.0014706749640725,6.9310673803377e-06,-6.0340540873738e-06,-0.00098894410397363,0.0009898317224389,3.2076881424214e-07,5.8489309199747e-07,-0.0010386471026784,0.0010437466280904,-0.0010385104207915,0.0010438351878656,-0.0010429530534101,0.0010394300713476,-0.0010428823749101,0.0010394964882027,-0.0011024020585464,0.001090602968752,-0.0010895843433299,0.0011033390781113,0.003512925238009,0.0036068755187128,0.72422727528627,1473840,32975,0.006110127069764,0.006110155948136,0.0041159005792575,14.175192183665,2.860153746932e-05,2.860153746932e-05,2.860153746932e-05,1573457.2501746,0.016470541372823
22118400,0.99985968445892,0.016735459889273,0.0059104857787335,0.0059105119833727,0.0049144621271664,-0.0014713990815299,0.0014711799456167,-6.5874901900042e-06,6.3486945004396e-06,-3.3480384112872e-07,1.7309275355419e-07,-0.0015422417448782,0.0015375655482723,-0.0015379634725905,0.001541821954247,-0.0015421334684199,0.001537706551269,-0.001537777183512,0.0015420483720433,-0.0013193873017724,0.0013065134631417,-0.0013066057487324,0.0013192874881832,4.8778254519806e-07,-1.6717786024083e-08,4.1135029917537e-07,1.4748461574689e-07,-0.0014710406277246,0.0014715524749099,-0.0015395530790435,0.0015403066791527,-0.0015396054980137,0.0015402126327444,-0.0015396619377026,0.0015401153196316,-0.0015397887392839,0.0015400057564527,-0.0013125784673616,0.0013132410314242,-0.0013128867734899,0.0013130122659199,-0.0014706123970386,0.0014715126533681,-0.0014711382187518,0.001470901936416,6.9299436830952e-06,-6.03660039258e-06,-0.00098904488522389,0.00098992883742241,3.1875786195577e-07,5.8326551147293e-07,-0.0010387264080275,0.0010438225996098,-0.001038589629532,0.0010439113311463,-0.0010430328569278,0.001039505598892,-0.0010429620323102,0.0010395721752684,-0.0011025601861939,0.0010907561821071,-0.0010897410569087,0.001103493662733,0.0035132638067912,0.0036063768590176,0.72270922489938,1473840,32975,0.0061111885498538,0.0061112173320706,0.0041163119878281,14.325942934505,2.9807543476041e-05,2.9807543476041e-05,2.9807543476041e-05,1574238.6752857,0.016473117149504
22204800,0.99986177865044,0.016735492624296,0.0059104974174128,0.0059105236220505,0.004914471584833,-0.0014716516536457,0.0014714349417302,-6.5860266226558e-06,6.3496923564351e-06,-3.3392488198176e-07,1.7462337352019e-07,-0.0015425615314954,0.0015378876708831,-0.00153828334199,0.0015421439095968,-0.0015424530915746,0.0015380288918139,-0.0015380968824476,0.0015423705502558,-0.0013195368501778,0.0013066661566109,-0.0013067559103954,0.0013194397610726,4.882398610546e-07,-1.6916881923237e-08,4.1134218589393e-07,1.4779428686324e-07,-0.0014712943030118,0.0014718064407152,-0.0015398737794788,0.0015406279035104,-0.0015399262259556,0.001540533945427,-0.0015399828526565,0.0015404362060093,-0.0015401096225916,0.0015403267781475,-0.001312729778931,0.0013133921716664,-0.0013130378490242,0.0013131637310818,-0.0014708363457165,0.0014717375939801,-0.0014713627379825,0.0014711262986578,6.9293421415436e-06,-6.0367381965331e-06,-0.00098914686671287,0.0009900301490871,3.1857262228936e-07,5.827536270665e-07,-0.001038804710507,0.001043900271504,-0.0010386679839808,0.0010439887839833,-0.0010431109984278,0.0010395833615474,-0.0010430403011309,0.0010396497750924,-0.0011027204985272,0.001090916139554,-0.0010899019198461,0.0011036531059966,0.0035136089890914,0.0036058883018329,0.72174631083539,1473840,32975,0.0061122394606627,0.0061122683935547,0.0041167345637618,14.47674518876,3.101396151008e-05,3.101396151008e-05,3.101396151008e-05,1575061.2198492,0.016475683038107
22291200,0.99986386167957,0.01673552542029,0.0059105090719325,0.0059105352765691,0.0049144810717879,-0.0014719416695078,0.0014717264244523,-6.5867403254476e-06,6.3518721285941e-06,-3.3530715249989e-07,1.7749210871765e-07,-0.0015428973459827,0.0015382225655902,-0.00153861820653,0.0015424797858445,-0.0015427874851933,0.0015383652049635,-0.0015384303405967,0.0015427078386348,-0.0013197462142568,0.0013068755918842,-0.0013069624782592,0.0013196520549643,4.8929961007199e-07,-2.0108217953656e-08,4.1050406031374e-07,1.465111632089e-07,-0.0014715861023692,0.0014720961281443,-0.0015402094249277,0.001540962987396,-0.0015402619908419,0.0015408688827336,-0.0015403199087658,0.0015407698902241,-0.0015404467976808,0.0015406603038189,-0.0013129407364501,0.0013136000503335,-0.0013132492194354,0.0013133711274684,-0.0014711163567771,0.0014720195033952,-0.0014716468891996,0.0014714039902782,6.9300156357276e-06,-6.0389679964309e-06,-0.00098925876947766,0.00099014051323954,3.176010010139e-07,5.8221370663788e-07,-0.0010389107423892,0.0010440055879437,-0.0010387738956056,0.0010440942544694,-0.0010432179942135,0.0010396877162553,-0.0010431471571297,0.0010397542843357,-0.001102892933049,0.0010910843343304,-0.0010900715435583,0.0011038241465371,0.003514083826999,0.0036054097190002,0.72692662410841,1473840,32975,0.0061134433185274,0.0061134722268117,0.0041171969813568,14.627551057386,3.2220408459082e-05,3.2220408459082e-05,3.2220408459082e-05,1575307.5680386,0.016478600313556
22377600,0.99986593327603,0.016735558115632,0.0059105206886433,0.0059105468932786,0.00491449053371,-0.0014726326705138,0.0014724183956136,-6.5888835336798e-06,6.3547520040726e-06,-3.3988053423238e-07,1.8333966428547e-07,-0.0015433914042521,0.0015387131512629,-0.0015391113154182,0.0015429714681996,-0.0015432791719283,0.0015388590502197,-0.001538919514373,0.0015432038535083,-0.0013205713100165,0.0013076979548558,-0.0013077804784948,0.0013204815627711,4.9121925559471e-07,-2.8619493879945e-08,4.1385496563479e-07,1.3749859610217e-07,-0.001472280626984,0.0014727845723089,-0.0015407011791775,0.0015414554928936,-0.0015407570260136,0.001541357940506,-0.0015408144239375,0.0015412593184773,-0.0015409457791767,0.0015411453028508,-0.0013137623539502,0.0013144249837817,-0.0013140848479152,0.0013141845381014,-0.0014720161469717,0.0014729200456532,-0.0014725591844779,0.0014722934552323,6.9253951711585e-06,-6.0484159700447e-06,-0.00098947887766076,0.00099034695123216,3.0437147776046e-07,5.8119574440263e-07,-0.0010393175365805,0.0010443964459873,-0.0010391758154519,0.0010444890503313,-0.0010436260545341,0.0010400772393747,-0.0010435513919994,0.0010401475748625,-0.0011031966381193,0.0010913726569694,-0.0010903693566861,0.001104118064631,0.0035158666947935,0.003604940870534,0.7286818104128,1473840,32975,0.0061163052593422,0.0061163341594362,0.0041180886023193,14.778357140986,3.3426857127889e-05,3.3426857127889e-05,3.3426857127889e-05,1569210.451174,0.016485326126253
22464000,0.99986799317204,0.016735590691054,0.0059105322614155,0.0059105584660474,0.0049144999635908,-0.0014730745018908,0.0014728674190178,-6.5866893455808e-06,6.3599591709963e-06,-3.3886002981368e-07,1.8938356088433e-07,-0.0015437753961415,0.0015391011840441,-0.001539493860322,0.0015433608169444,-0.0015436608333516,0.0015392488268328,-0.0015393006466571,0.0015435943790139,-0.0013210348979616,0.0013081688308244,-0.0013082423547191,0.0013209541590845,4.9153348416845e-07,-3.3371169063971e-08,4.1333880378762e-07,1.3302571826155e-07,-0.0014727283689769,0.0014732276442367,-0.0015410878274749,0.0015418410720093,-0.00154114548498,0.0015417417264335,-0.0015412031676633,0.0015416429055674,-0.0015413356111549,0.0015415276832489,-0.0013142313924188,0.0013148910308162,-0.0013145563976928,0.001314646111053,-0.0014725330527757,0.0014734355237063,-0.0014730799150651,0.0014728042868608,6.9330333880082e-06,-6.0440762662078e-06,-0.00098962092017642,0.00099050069730707,3.084682386897e-07,5.8933282956274e-07,-0.0010395491515865,0.0010446394042768,-0.0010394067522691,0.0010447335290209,-0.0010438590944627,0.0010403189074787,-0.0010437829330746,0.0010403908078976,-0.0011033902282247,0.0010915765482429,-0.001090560391563,0.0011043249416548,0.0035168599780368,0.003604481558125,0.73003239837455,1473840,32975,0.0061181489758254,0.0061181777916984,0.0041187056202213,14.929163246519,3.4633305972152e-05,3.4633305972152e-05,3.4633305972152e-05,1566888.1330869,0.01648970193929
22550400,0.9998700411024,0.016735623119978,0.0059105437811451,0.0059105699857746,0.004914509353058,-0.00147348690583,0.0014732795988993,-6.5876262580423e-06,6.3606708574133e-06,-3.4086788539563e-07,1.9115672282285e-07,-0.0015441533885368,0.0015394769740749,-0.0015398711298038,0.0015437373285612,-0.0015440372963984,0.0015396259796222,-0.0015396768122326,0.0015439719202823,-0.0013214411376483,0.0013085750066758,-0.0013086475177263,0.0013213613259948,4.9218015840346e-07,-3.6491740083419e-08,4.1263546518725e-07,1.3103828973011e-07,-0.001473141985652,0.0014736386583876,-0.0015414652625373,0.0015422177055269,-0.0015415235403588,0.0015421177702125,-0.0015415819817832,0.0015420181865559,-0.0015417147286414,0.0015419026526416,-0.0013146391142384,0.0013152960259616,-0.0013149648620617,0.0013150496757761,-0.001473000591932,0.0014739035063836,-0.0014735503304183,0.0014732687599249,6.9365693909208e-06,-6.0422001311501e-06,-0.00098975434132977,0.00099063942631916,3.105423915381e-07,5.927263565764e-07,-0.0010397493627412,0.0010448449200798,-0.0010396066478869,0.0010449394946154,-0.0010440598916655,0.0010405238230644,-0.0010439832349522,0.0010405962239917,-0.0011035796079416,0.0010917703676532,-0.0010907483777217,0.0011045200310044,0.0035177511149009,0.0036040315848168,0.73095541747471,1473840,32975,0.0061198555929684,0.0061198845062901,0.0041192732236475,15.079969338065,3.583975470452e-05,3.583975470452e-05,3.583975470452e-05,1565094.8034768,0.016493748901842
22636800,0.99987207280013,0.016735655337201,0.0059105552246451,0.0059105814292732,0.0049145186832825,-0.0014738059687875,0.0014735975324793,-6.5887651239614e-06,6.3606423096372e-06,-3.4278555491187e-07,1.9198208239541e-07,-0.0015444574464679,0.0015397786021649,-0.0015401747972182,0.0015440393545441,-0.0015443404114376,0.0015399285481964,-0.001539979596442,0.0015442748285456,-0.001321738495565,0.0013088710957771,-0.0013089438944046,0.0013216583836763,4.9227604005289e-07,-3.915216368773e-08,4.1169374804071e-07,1.2938900180131e-07,-0.0014734617705089,0.0014739558745987,-0.0015417688444274,0.001542519877977,-0.0015418273714352,0.0015424196891355,-0.001541886465465,0.0015423194309727,-0.001542019430416,0.0015422036788199,-0.0013149372427936,0.0013155913542893,-0.001315263657215,0.0013153443073042,-0.0014733566659199,0.001474259418996,-0.0014739089352252,0.0014736219646749,6.9371392607706e-06,-6.0427635049739e-06,-0.00098982863223587,0.00099071371833629,3.101980372398e-07,5.9308414404221e-07,-0.0010398748916707,0.0010449706031923,-0.0010397319754204,0.0010450654127085,-0.0010441858265464,0.0010406491248395,-0.0010441089267819,0.0010407217752134,-0.0011037041063809,0.001091894078311,-0.0010908717696915,0.0011046446859857,0.0035183001856413,0.0036035907429489,0.73195071491271,1473840,32975,0.0061211739066069,0.0061212028292751,0.0041195839464897,15.199968978173,3.679975182538e-05,3.679975182538e-05,3.679975182538e-05,1563693.8746507,0.016496745147117
22723200,0.99987407926398,0.016735687202454,0.005910566542022,0.0059105927466489,0.0049145279137831,-0.0014739862266673,0.0014737785210676,-6.5882564990597e-06,6.3608404021595e-06,-3.4330853881097e-07,1.932689898838e-07,-0.00154462068877,0.0015399420971055,-0.0015403381429959,0.001544202710739,-0.0015445030812587,0.0015400926340872,-0.0015401423388383,0.001544438813445,-0.0013219032253471,0.001309037365649,-0.0013091088536008,0.0013218243518503,4.9311672897794e-07,-4.0117089566039e-08,4.1256397324228e-07,1.2840971176496e-07,-0.0014736424419622,0.0014741364417887,-0.0015419316344622,0.0015426837871084,-0.0015419907802092,0.0015425829930702,-0.0015420498233405,0.0015424827459498,-0.0015421834511026,0.0015423663584838,-0.0013151022083748,0.0013157574172507,-0.0013154304690642,0.0013155085274106,-0.0014735721952302,0.0014744760225998,-0.0014741262601734,0.0014738367244668,6.9393530592992e-06,-6.0402411643819e-06,-0.00098978679281529,0.00099067657251171,3.1161662354623e-07,5.9636488190428e-07,-0.0010398844320172,0.0010449840892495,-0.0010397408901085,0.001045079514769,-0.001044195265347,0.001040662714529,-0.001044117741602,0.001040735979854,-0.0011037033065102,0.0010918989148163,-0.001090871203671,0.0011046491744818,0.0035183136660709,0.003603158803538,0.73302828821209,1473840,32975,0.0061219212813697,0.0061219501877689,0.0041194223137985,15.250921058095,3.7207368464757e-05,3.7207368464757e-05,3.7207368464757e-05,1562049.1850307,0.016498100513127
22809600,0.99987606034628,0.016735718716096,0.0059105777332311,0.0059106039378567,0.0049145370450082,-0.0014741608329961,0.0014739542401099,-6.5875765627324e-06,6.3612526685144e-06,-3.4358536664317e-07,1.9468616055457e-07,-0.0015447763597122,0.0015400984352493,-0.0015404939193179,0.0015443589390639,-0.001544658239391,0.001540249524365,-0.0015402975580297,0.0015445956289439,-0.0013220644820369,0.0013092004670688,-0.0013092703039723,0.0013219872374105,4.9531501336034e-07,-3.9596202741304e-08,4.1498837641761e-07,1.2874912687909e-07,-0.0014738162281855,0.001474312975909,-0.0015420856502126,0.0015428417855015,-0.001542145467669,0.0015427403132869,-0.0015422043635567,0.0015426401860504,-0.0015423387034268,0.0015425230889222,-0.0013152622557517,0.0013159217030813,-0.0013155925776763,0.0013156707379325,-0.001473781521294,0.0014746890890025,-0.0014743372869442,0.0014740480623801,6.9398032938902e-06,-6.0395372652136e-06,-0.00098974104221404,0.00099063196981466,3.1115377270636e-07,5.9799159071173e-07,-0.0010398908879395,0.0010449909036583,-0.0010397466305207,0.0010450870156457,-0.0010442016386368,0.0010406696156295,-0.001044123415855,0.0010407435706165,-0.001103697732338,0.0010918954160976,-0.0010908658133416,0.001104645404757,0.0035183127873792,0.0036027355877383,0.73419954305608,1473840,32975,0.0061226460281302,0.0061226749241121,0.0041192371009173,15.299068610778,3.7592548886224e-05,3.7592548886224e-05,3.7592548886224e-05,1560368.340593,0.016499385915851
22896000,0.99987801624769,0.016735749099409,0.0059105885386508,0.0059106147432751,0.0049145458174831,-0.0014743354227044,0.0014741292007391,-6.5873105208313e-06,6.3612545363116e-06,-3.4430246333292e-07,1.9586860897728e-07,-0.0015449315124409,0.0015402535058092,-0.0015406491548541,0.0015445137703787,-0.0015448129104289,0.0015404051674368,-0.0015404521137607,0.0015447512008013,-0.0013222279188295,0.0013093648521174,-0.0013094337391748,0.0013221515826205,4.9789134771261e-07,-3.8887891111929e-08,4.1782605425553e-07,1.2923903168806e-07,-0.0014739893694248,0.0014744894583053,-0.0015422384097123,0.0015429992425756,-0.0015422989810364,0.0015428970627337,-0.0015423575774365,0.0015427970123966,-0.0015424927807459,0.0015426790588198,-0.0013154236344213,0.0013160881059033,-0.001315756388967,0.0013158347699996,-0.0014739899816383,0.0014749020134296,-0.001474547732697,0.0014742590068957,6.9407447891319e-06,-6.0383216496587e-06,-0.00098969313287381,0.00099058623436324,3.1104874083201e-07,6.0024333842021e-07,-0.0010398967791708,0.0010449980779538,-0.0010397516631259,0.0010450949763863,-0.0010442074757773,0.0010406769642258,-0.0010441284921585,0.0010407517063322,-0.0011036876682997,0.0010918884984547,-0.0010908558439056,0.0011046380716589,0.0035183175523701,0.0036023207115735,0.71710082256273,1473840,32975,0.0061233691474047,0.0061233981950386,0.0041190450752851,15.347040477108,3.7976323816858e-05,3.7976323816858e-05,3.7976323816858e-05,1558657.5740624,0.016500661261089
22982400,0.99987994718975,0.016735779300947,0.0059105992741806,0.0059106254788037,0.0049145545479626,-0.0014734618356587,0.0014732479704782,-6.5932651790924e-06,6.3597934815921e-06,-3.3728579978266e-07,1.8084581950243e-07,-0.0015447003012697,0.0015400202839898,-0.0015404162524896,0.0015442822890811,-0.0015445886569162,0.0015401647220435,-0.0015402266690083,0.0015445121127515,-0.0013207361897615,0.0013078547031917,-0.0013079382379571,0.0013206450435064,4.9074173266324e-07,-2.3991797253827e-08,4.0871054244227e-07,1.4584272931396e-07,-0.0014731081718244,0.0014736157606072,-0.0015420102059137,0.0015427627941354,-0.0015420625259223,0.0015426690625598,-0.0015421224464608,0.0015425678910063,-0.0015422490509174,0.0015424587229175,-0.0013139278162766,0.0013145817080934,-0.0013142352182013,0.0013143540469411,-0.0014725934672732,0.0014734996564049,-0.0014731291207384,0.0014728791239204,6.9421947765089e-06,-6.0413486459307e-06,-0.00098941836053295,0.00099030976066846,3.2293530889693e-07,5.8647621731631e-07,-0.0010390910066287,0.0010442006620291,-0.0010389545332856,0.0010442889883844,-0.0010434031197029,0.0010398779428035,-0.0010433326436365,0.0010399441744171,-0.0011034458421864,0.0010916325611801,-0.001090610368402,0.0011043865252305,0.0035149692149423,0.0036019142565673,0.72195927408659,1473840,32975,0.0061197393383173,0.0061197682243693,0.004117889084642,15.395000721041,3.8360005768328e-05,3.8360005768328e-05,3.8360005768328e-05,1574226.9885619,0.016492102971638
23068800,0.99988185339479,0.016735809106124,0.0059106098679847,0.0059106360726066,0.0049145631655328,-0.0014739363876854,0.0014737263283842,-6.5902060180508e-06,6.3604919192417e-06,-3.3970238281853e-07,1.8718471349426e-07,-0.00154497258892,0.0015402942803579,-0.0015406894370077,0.0015445555190056,-0.0015448581290603,0.0015404416265977,-0.0015404969163332,0.0015447883001544,-0.0013213600750789,0.0013084873849208,-0.0013085644475528,0.001321275781472,4.9341667327544e-07,-3.0081168230724e-08,4.1148317838174e-07,1.3975989762167e-07,-0.0014735862991597,0.0014740905519948,-0.0015422822190796,0.0015430372548243,-0.0015423373092373,0.0015429405872764,-0.0015423972873538,0.001542839428932,-0.0015425267372182,0.001542727257847,-0.0013145551034755,0.0013152115768044,-0.0013148711246009,0.0013149749460915,-0.001473265425255,0.0014741740635569,-0.0014738097641038,0.0014735445638508,6.9368095023717e-06,-6.0443985767443e-06,-0.00098946241769879,0.00099034553522078,3.1447092047571e-07,5.8679452279888e-07,-0.0010393307812576,0.0010444285033793,-0.0010391913860299,0.0010445197573919,-0.0010436421356141,0.0010401065671887,-0.0010435687431438,0.0010401757105491,-0.0011035480310746,0.0010917313885231,-0.0010907146461279,0.0011044831186389,0.003515978000052,0.0036015159966677,0.72195149143641,1473840,32975,0.0061217108212692,0.0061217397254503,0.0041180607968291,15.442960162812,3.874368130249e-05,3.874368130249e-05,3.874368130249e-05,1567857.4089491,0.016496286744214
23155200,0.99988373508466,0.016735838540762,0.0059106203296723,0.005910646534293,0.0049145716767968,-0.0014740788052379,0.0014738693618076,-6.5890343959442e-06,6.3599435074748e-06,-3.4045493249176e-07,1.8855607076604e-07,-0.0015451191219444,0.0015404413016986,-0.0015408365452959,0.0015447019679333,-0.0015450039536972,0.0015405893584348,-0.0015406433445206,0.0015449354474513,-0.0013214652102523,0.0013085955404058,-0.0013086712470226,0.0013213822063504,4.9443594843615e-07,-3.1182150661099e-08,4.1215922788895e-07,1.3902911123389e-07,-0.0014737290542062,0.0014742332431844,-0.0015424284407139,0.0015431845940389,-0.0015424840261938,0.0015430874535248,-0.0015425442098149,0.0015429860682085,-0.0015426741486053,0.0015428734337488,-0.0013146613653402,0.0013153184287703,-0.001314978779281,0.0013150804884806,-0.0014734266915632,0.0014743368234054,-0.001473973106863,0.0014737052837003,6.9372329678174e-06,-6.0422607893991e-06,-0.00098942332361583,0.00099030897573399,3.1501896657669e-07,5.8876260681709e-07,-0.0010393139841027,0.0010444131760396,-0.0010391741141733,0.0010445049020212,-0.0010436247504892,0.0010400918059701,-0.0010435508737282,0.0010401614256818,-0.0011035556385608,0.0010917437275627,-0.0010907239354859,0.0011044937949036,0.0035159250309167,0.0036011257744843,0.72217436660523,1473840,32975,0.0061223015126081,0.0061223304071633,0.0041179055114969,15.490919551628,3.9127356413022e-05,3.9127356413022e-05,3.9127356413022e-05,1566837.998824,0.016497329834309
23241600,0.99988559248053,0.016735867733596,0.0059106307018656,0.0059106569064852,0.0049145801252456,-0.0014742352229862,0.0014740229253309,-6.58905808764e-06,6.3569649102239e-06,-3.4328380090429e-07,1.8858240536483e-07,-0.0015452698568218,0.0015405894586768,-0.0015409882917681,0.0015448487283083,-0.0015451540634032,0.0015407383901744,-0.0015407939555786,0.0015450834194259,-0.0013215997832657,0.0013087304545931,-0.0013088082853057,0.0013215149720709,4.9582312266388e-07,-3.2653107373145e-08,4.1302508615572e-07,1.3827594703379e-07,-0.0014738841853309,0.0014743884644557,-0.0015425773071497,0.0015433349675639,-0.0015426333455795,0.001543237437221,-0.0015426936927561,0.0015431354657522,-0.0015428243087331,0.0015430220681307,-0.0013147960488442,0.0013154540026397,-0.0013151150727781,0.0013152139192975,-0.0014736055276701,0.0014745182349685,-0.0014741555186554,0.0014738837734772,6.9374045665757e-06,-6.039093625952e-06,-0.00098938771838232,0.00099027683090938,3.1596194734339e-07,5.9133590516604e-07,-0.0010393094005245,0.0010444104072812,-0.0010391688455777,0.0010445026944289,-0.0010436192176734,0.0010400902590742,-0.0010435447701879,0.0010401603935091,-0.0011035594860503,0.0010917540005951,-0.0010907303440519,0.0011045010145205,0.0035159214275369,0.0036007434620051,0.72556653299043,1473840,32975,0.006122942922205,0.0061229725851935,0.0041177667483583,15.538878959872,3.9511031678976e-05,3.9511031678976e-05,3.9511031678976e-05,1565579.6791516,0.016498493671908
23328000,0.99988742580292,0.016735896651692,0.0059106409737746,0.0059106671783946,0.0049145884995226,-0.0014745884731433,0.0014743777758454,-6.5875221314591e-06,6.3569183468652e-06,-3.4581958647094e-07,1.9307338523451e-07,-0.0015455053156385,0.0015408252862515,-0.0015412249671105,0.0015450834596939,-0.0015453882697778,0.0015409763505739,-0.0015410278660761,0.0015453212957552,-0.0013220168166615,0.0013091510286866,-0.0013092253068391,0.0013219362008372,5.0014143721569e-07,-3.5218159288702e-08,4.1719224766915e-07,1.3633016532497e-07,-0.0014742374207418,0.0014747437917357,-0.0015428103093083,0.0015435736828023,-0.0015428673953128,0.0015434744246442,-0.00154292832349,0.0015433723514697,-0.0015430611799983,0.0015432563160531,-0.0013152123526173,0.0013158771555541,-0.0013155384472366,0.0013156302834366,-0.0014740928473609,0.0014750134106223,-0.0014746511133917,0.0014743708479647,6.9351199373582e-06,-6.0396036027388e-06,-0.00098940612832847,0.00099029277376314,3.1173704268498e-07,5.9307138268677e-07,-0.0010394400572174,0.0010445362363882,-0.0010392970101482,0.0010446302727968,-0.001043749274679,0.0010402168916062,-0.0010436732841604,0.0010402887156087,-0.0011036445589048,0.0010918391666697,-0.0010908163304843,0.0011045847438241,0.0035165717762873,0.0036003688919105,0.72813795952881,1473840,32975,0.0061244080102848,0.0061244386285223,0.00411784261963,15.586838378008,3.9894707024063e-05,3.9894707024063e-05,3.9894707024063e-05,1561218.8275979,0.016501551140104
23414400,0.99988924185169,0.016735925099378,0.0059106510829127,0.0059106772875338,0.0049145967289319,-0.0014749867632547,0.0014747740713753,-6.588257125217e-06,6.3558129768758e-06,-3.4996236990037e-07,1.9528640209594e-07,-0.0015458193875043,0.0015411355663305,-0.0015415392293243,0.0015453930040703,-0.0015457008480941,0.0015412885566362,-0.0015413397688145,0.0015456334827311,-0.0013224590972691,0.0013095928824712,-0.0013096668426991,0.0013223787720887,5.0290259602759e-07,-3.8814132750549e-08,4.1911814513465e-07,1.3430066199861e-07,-0.0014746351354009,0.0014751411062486,-0.0015431210373903,0.0015438873806132,-0.0015431796802677,0.001543787031596,-0.0015432407264139,0.0015436839310142,-0.0015433753334298,0.0015435664484595,-0.0013156532966113,0.0013163198596613,-0.001315984014852,0.001316069529695,-0.0014745855687552,0.0014755104274708,-0.0014751510194192,0.001474861572018,6.9327444120754e-06,-6.0415637523125e-06,-0.00098950216631546,0.00099038443828389,3.0751696735821e-07,5.92692301437e-07,-0.0010396341795146,0.0010447246225445,-0.0010394893485972,0.001044819728389,-0.0010439431247307,0.0010404054192003,-0.0010438660093643,0.0010404782707072,-0.0011037933717509,0.0010919845460476,-0.0010909650492555,0.0011047303628874,0.0035174530382833,0.003600001863775,0.7230957089237,1473840,32975,0.006126052285861,0.006126083822391,0.0041182358609746,15.691788823225,4.0734310585794e-05,4.0734310585794e-05,4.0734310585794e-05,1558041.1823557,0.016505295272997
23500800,0.99989105389241,0.016735953265544,0.0059106610966207,0.0059106873012444,0.0049146048676789,-0.0014751570214116,0.0014749375235448,-6.592207810242e-06,6.3531631561674e-06,-3.5277675720572e-07,1.9050285457381e-07,-0.0015461594676855,0.0015414677667653,-0.0015418771771496,0.0015457266174908,-0.0015460397018082,0.0015416208717777,-0.001541679132256,0.0015459651150811,-0.0013224674232481,0.0013095963129397,-0.0013096760835194,0.0013223779147747,5.027387777471e-07,-3.7282350669146e-08,4.1841177683698e-07,1.3736871014352e-07,-0.0014748010819159,0.0014753086271829,-0.0015434568659766,0.001544224401866,-0.0015435166042549,0.0015441251327337,-0.0015435764730686,0.0015440200259318,-0.001543710187327,0.0015439052690822,-0.001315657193032,0.00131632145233,-0.0013159824051064,0.0013160764368018,-0.0014745943436981,0.0014755176578644,-0.0014751569457058,0.0014748731857916,6.9327228969391e-06,-6.043785979443e-06,-0.00098966012355445,0.00099053914263898,3.0761229598486e-07,5.8930911653242e-07,-0.0010397233604487,0.0010448125946855,-0.0010395809019413,0.0010449065149177,-0.0010440337474737,0.0010404918479727,-0.0010439561685067,0.0010405638586739,-0.0011039549953811,0.0010921423331128,-0.0010911256330094,0.0011048901682849,0.0035177426998094,0.0035996422883618,0.71753899298288,1473840,32975,0.0061267437003969,0.0061267747383517,0.0041188822224823,15.912659328167,4.2501274625332e-05,4.2501274625332e-05,4.2501274625332e-05,1562587.5514724,0.016507356405462
23587200,0.99989286201148,0.016735981604614,0.0059106711659894,0.0059106973706186,0.0049146130680059,-0.0014753014074027,0.0014750950022842,-6.587198322469e-06,6.3611644306298e-06,-3.4365486327575e-07,1.9481095089082e-07,-0.0015465548966466,0.0015418771604232,-0.0015422725051212,0.0015461376403431,-0.0015464366236033,0.0015420284033933,-0.0015420762254245,0.0015463742601194,-0.001322307486721,0.0013094447261355,-0.0013095141979573,0.001322230703785,4.9745926033259e-07,-3.7608687195819e-08,4.1050418794122e-07,1.3734033930263e-07,-0.0014749548548214,0.001475455696734,-0.0015438644009149,0.0015446203622235,-0.0015439199973541,0.0015445232042574,-0.0015439832816411,0.0015444186712499,-0.0015441131962444,0.0015443060428987,-0.0013155101976548,0.0013161607884409,-0.0013158276649737,0.0013159229188962,-0.0014745958151203,0.0014755117171992,-0.001475151414277,0.0014748710393889,6.936179992063e-06,-6.0427318764888e-06,-0.00098982802658437,0.00099071215864186,3.14238773276e-07,5.8800714387408e-07,-0.0010396869737224,0.0010447844593114,-0.0010395470974211,0.001044876182932,-0.0010439975498094,0.0010404632922655,-0.0010439236743625,0.0010405329267412,-0.0011042219250239,0.0010924091757425,-0.0010913909440929,0.0011051586150751,0.003518011166634,0.0035992901364008,0.72351646265188,1473840,32975,0.0061273698091895,0.0061273987276133,0.0041195872486446,16.138243786745,4.4305950293956e-05,4.4305950293956e-05,4.4305950293956e-05,1567947.2438055,0.016509342631543
23673600,0.99989466577156,0.016736010101566,0.0059106812859894,0.0059107074906176,0.0049146213249593,-0.0014761728365779,0.0014759968397893,-6.5725797748091e-06,6.3778001335073e-06,-3.3386475509951e-07,2.1550563682269e-07,-0.001547214629287,0.0015425647175562,-0.0015429329262811,0.001546823174964,-0.0015470963923297,0.001542719068715,-0.001542732169413,0.0015470660450534,-0.0013233182546209,0.0013104833586606,-0.0013105187192214,0.001323278019637,5.0737919735055e-07,-3.8259638662345e-08,4.2293171329847e-07,1.3624721373806e-07,-0.0014758376331777,0.0014763491146218,-0.0015445302599682,0.0015453038694984,-0.0015445891045214,0.0015452031143638,-0.0015446508269545,0.0015450990042521,-0.001544787071739,0.0015449809303989,-0.0013165250694269,0.0013171986804187,-0.0013168598298658,0.0013169476840628,-0.0014757138965186,0.0014766467054124,-0.001476286676064,0.0014759960776232,6.939507458374e-06,-6.0408234348138e-06,-0.00099018420081044,0.00099107460796095,3.1044125423642e-07,5.9717383932157e-07,-0.0010402286897611,0.0010453298845205,-0.0010400828294251,0.0010454247881962,-0.001044539442169,0.0010410083176829,-0.0010444622789126,0.0010410811774668,-0.0011046755388199,0.0010928681026744,-0.0010918427425839,0.001105621983156,0.0035206767854402,0.0035989452564174,0.72932085354124,1473840,32975,0.0061310396912349,0.0061310746722053,0.0041210857598007,16.364123338693,4.6112986709543e-05,4.6112986709543e-05,4.6112986709543e-05,1561264.4660191,0.016518334503707
23760000,0.99989646470088,0.016736038674004,0.0059106914298522,0.0059107176344893,0.0049146296096624,-0.0014770111694515,0.0014768486698571,-6.5655013393768e-06,6.3834837539637e-06,-3.3053938179348e-07,2.2565834361149e-07,-0.0015478254167985,0.0015431857463566,-0.0015435432567688,0.0015474461808942,-0.0015477016774413,0.0015433426370777,-0.0015433408549877,0.0015476890303178,-0.0013243245488712,0.0013115099267526,-0.0013115294264954,0.001324297733645,5.0419293883075e-07,-4.8411311085309e-08,4.2265088575597e-07,1.2139239105284e-07,-0.0014766884970836,0.0014771854729056,-0.0015451483028753,0.0015459154773051,-0.0015452128907824,0.0015458091162209,-0.0015452729259494,0.0015457080810572,-0.0015454122504093,0.0015455858200578,-0.0013175425043183,0.0013182114084493,-0.0013178877111248,0.0013179454420756,-0.0014767686454366,0.0014776893494875,-0.0014773426520199,0.0014770302956961,6.9404505849729e-06,-6.0392186320724e-06,-0.00099053538647546,0.00099142738608566,3.0424514077488e-07,6.0603766431506e-07,-0.0010408265920967,0.0010459228188362,-0.0010406772766477,0.001046023937076,-0.0010451372785224,0.001041601341073,-0.001045054190638,0.0010416802249303,-0.0011050844580814,0.0010932873591696,-0.001092252073869,0.001106038677485,0.0035232183459103,0.0035986074835122,0.73308703279233,1473840,32975,0.0061345374088882,0.0061345663034731,0.0041225532515487,16.590022802382,4.7920182419056e-05,4.7920182419056e-05,4.7920182419056e-05,1555442.7579519,0.016526932528939
23846400,0.99989825832382,0.016736067327323,0.0059107015994282,0.0059107278040637,0.0049146379238316,-0.0014776690700256,0.0014775111119051,-6.5650337856447e-06,6.3877495378387e-06,-3.319824099923e-07,2.3215821384903e-07,-0.0015483922107145,0.0015437535402122,-0.001544108610547,0.0015480137404699,-0.0015482673529854,0.0015439129876638,-0.0015439032326605,0.0015482601364569,-0.0013250314652458,0.0013122184687285,-0.0013122294847006,0.0013250104060696,5.0755127690142e-07,-5.3017559634328e-08,4.2879849900787e-07,1.1558133921694e-07,-0.0014773493489925,0.0014778460250626,-0.0015457128096204,0.0015464862397191,-0.0015457813536175,0.0015463765234856,-0.0015458389639246,0.0015462758316867,-0.0015459835508692,0.0015461493951237,-0.0013182438408292,0.0013189223053906,-0.0013186030165924,0.0013186460446767,-0.0014775390284432,0.001478462646528,-0.0014781233302798,0.0014777956941583,6.939908829626e-06,-6.0433750154228e-06,-0.00099082422227914,0.00099171126446352,2.95619459162e-07,6.0915409188325e-07,-0.0010412344034039,0.0010463233916484,-0.0010410804240175,0.0010464276645303,-0.0010455464136698,0.0010420007490233,-0.0010454597571667,0.0010420831001247,-0.0011054302638324,0.0010936285557917,-0.0010925941396903,0.0011063834524047,0.0035251467159277,0.0035982766781928,0.73721893852875,1473840,32975,0.006137269982773,0.0061373010745816,0.0041237461931859,16.81592376775,4.9727390142002e-05,4.9727390142002e-05,4.9727390142002e-05,1552196.6523403,0.016533703773893
23932800,0.99990004616328,0.016736096074484,0.0059107117989418,0.0059107380035795,0.004914646271963,-0.0014783221262196,0.0014781449462599,-6.5767327207299e-06,6.3798995589382e-06,-3.4533580622927e-07,2.2595355434125e-07,-0.0015489474017821,0.0015442853165963,-0.0015446624345498,0.0015485484229495,-0.0015488184844512,0.0015444474500849,-0.0015444552429512,0.0015487961196111,-0.0013257375791254,0.0013129063245908,-0.001312935659834,0.0013257007822399,5.0857206204523e-07,-5.9251211670567e-08,4.2632437178852e-07,1.1125981076559e-07,-0.0014779953614768,0.0014784858995199,-0.0015462576561887,0.0015470281081564,-0.0015463269289455,0.0015469169900951,-0.0015463872701012,0.0015468154675331,-0.0015465310280382,0.0015466887662544,-0.0013189461974482,0.0013196168274532,-0.0013193045601234,0.0013193374701144,-0.0014782782500912,0.0014792022081308,-0.0014788661649751,0.0014785287198769,6.9460294360012e-06,-6.0413272468357e-06,-0.00099108192042638,0.00099197730449116,2.9909642496691e-07,6.1471147853678e-07,-0.0010416465360343,0.0010467440483303,-0.0010414926873949,0.0010468497420099,-0.001045959907581,0.0010424200482785,-0.0010458721429192,0.0010425035759474,-0.0011057320317546,0.001093935883544,-0.0010928923193754,0.0011066938516694,0.0035270004919011,0.0035979527055331,0.74194598256759,1473840,32975,0.0061399331213961,0.0061399621356938,0.0041248374290509,17.041824986557,5.1534599892458e-05,5.1534599892458e-05,5.1534599892458e-05,1549126.8678704,0.016540226187447
24019200,0.99990182774107,0.016736124723003,0.0059107219644339,0.0059107481690707,0.0049146545894981,-0.0014789686739859,0.0014787802100538,-6.5848856622164e-06,6.3767328255869e-06,-3.5285157144043e-07,2.2229541739218e-07,-0.0015495008454049,0.0015448245427582,-0.0015452142574128,0.0015490892921722,-0.001549370695076,0.0015449879071402,-0.0015450057384725,0.0015493383265779,-0.0013264367384143,0.0013135904096085,-0.0013136296682767,0.0013263899025559,5.0940268381877e-07,-6.2347144735716e-08,4.2861608290556e-07,1.0669590147449e-07,-0.0014786373878807,0.0014791256787952,-0.0015468033559382,0.0015475750849416,-0.0015468748464157,0.0015474617077205,-0.0015469341577602,0.0015473611897814,-0.0015470802164825,0.0015472321370451,-0.0013196361926893,0.0013203100476461,-0.0013200013442643,0.0013200238907894,-0.0014790154541457,0.0014799389249811,-0.0014796074192568,0.0014792613165926,6.9495110868968e-06,-6.0428351419765e-06,-0.00099133215656966,0.00099222950745462,2.9667775833401e-07,6.191247885654e-07,-0.0010420499916429,0.001047148841052,-0.0010418938810766,0.0010472568461627,-0.0010463650674448,0.00104282322886,-0.0010462750444981,0.0010429090221236,-0.0011060228821672,0.0010942260364384,-0.0010931781645849,0.0011069890284223,0.0035288414367816,0.0035976353789364,0.74196747433098,1473840,32975,0.0061425856421337,0.0061426146438722,0.0041258846328372,17.26772507633,5.3341800610637e-05,5.3341800610637e-05,5.3341800610637e-05,1545899.5909419,0.016546684453343
24105600,0.99990360257845,0.016736152877325,0.0059107319632618,0.0059107581678977,0.0049146627461652,-0.0014793495667082,0.0014791589110174,-6.5872241478692e-06,6.3768124140507e-06,-3.5553658651302e-07,2.2287055313917e-07,-0.0015499452356478,0.001545264757331,-0.0015456575777611,0.0015495300588983,-0.001549814104568,0.0015454293580973,-0.0015454478575555,0.0015497803316558,-0.0013267373069222,0.0013138875032879,-0.0013139271314721,0.0013266884636255,5.1067132089451e-07,-6.4349016151771e-08,4.3113880902133e-07,1.0400614637883e-07,-0.001479017328328,0.0014795051916946,-0.0015472438807023,0.0015480184294202,-0.0015473176993686,0.0015479034104843,-0.0015473756764268,0.0015478029118965,-0.001547523899016,0.0015476723972733,-0.0013199322253154,0.0013206094429744,-0.0013203026005239,0.0013203190021877,-0.0014793508056549,0.0014802742876168,-0.0014799461088537,0.0014795943236772,6.9515174221497e-06,-6.0432972736413e-06,-0.000991486026953,0.00099238457198881,2.9456298829279e-07,6.2217820746943e-07,-0.0010422443056628,0.0010473433765535,-0.0010420863347021,0.0010474530136389,-0.0010465602793453,0.0010430170091429,-0.0010464684236095,0.0010431044396056,-0.0011061898259768,0.0010943941184995,-0.0010933425815389,0.0011071591817186,0.0035297972976239,0.0035973244575349,0.73198303416216,1473840,32975,0.006144157705916,0.0061441864169085,0.0041265266526867,17.493623923546,5.5148991388368e-05,5.5148991388368e-05,5.5148991388368e-05,1546640.7845453,0.016550532835009
24192000,0.99990536471716,0.016736180871032,0.005910741903896,0.0059107681085294,0.0049146708586067,-0.0014791762023563,0.0014789819585236,-6.5885369150008e-06,6.3745910023777e-06,-3.5216101545065e-07,2.1558395950955e-07,-0.0015501305261822,0.0015454500797098,-0.0015458428548798,0.0015497155373911,-0.0015500020923256,0.0015456113452132,-0.0015456370967146,0.001549961532758,-0.0013262110184388,0.001313356279424,-0.0013134038925556,0.0013261557471566,5.0839875151442e-07,-5.58798805738e-08,4.2774015857753e-07,1.1318591352564e-07,-0.0014788391868338,0.0014793330791544,-0.0015474303790043,0.0015482033756165,-0.0015475001033967,0.0015480921389841,-0.0015475590977701,0.0015479914210175,-0.0015477024675423,0.0015478654329225,-0.0013194053425548,0.0013200793330331,-0.0013197623333409,0.0013198011497263,-0.0014788910701778,0.0014798132124614,-0.0014794742687245,0.0014791450991386,6.9483865777589e-06,-6.0455192329222e-06,-0.00099148522485369,0.00099237850169872,2.9833115516858e-07,6.1338384773732e-07,-0.0010419907356622,0.0010470883617392,-0.0010418374291623,0.001047193873841,-0.0010463062806323,0.0010427623212396,-0.0010462183375828,0.0010428455589721,-0.0011062075957499,0.001094403375813,-0.0010933618581935,0.0011071668348139,0.0035289349526451,0.0035970198925857,0.73305373495231,1473840,32975,0.0061434339374031,0.0061434627801765,0.004126506326296,17.669976248083,5.6559809984661e-05,5.6559809984661e-05,5.6559809984661e-05,1555071.1619758,0.016549038638527
24278400,0.99990710384179,0.016736208540823,0.0059107517283113,0.0059107779329442,0.0049146788795678,-0.0014794451976529,0.0014792540903841,-6.5864959005953e-06,6.3755897929204e-06,-3.5295476735238e-07,2.1981130336683e-07,-0.0015503749046876,0.0015456966159414,-0.0015460880740675,0.0015499613844598,-0.0015502456212117,0.001545859302568,-0.0015458803093755,0.0015502097120395,-0.0013264580802453,0.0013136077979019,-0.0013136502746817,0.0013264073313233,5.095520792711e-07,-5.9796036458073e-08,4.2795178432004e-07,1.1035236367894e-07,-0.0014791111297448,0.0014796023030516,-0.001547675878979,0.0015484483498724,-0.0015477459995489,0.0015483364973188,-0.001547805848719,0.0015482351268391,-0.0015479506045014,0.0015481076329428,-0.0013196555651172,0.0013203285596545,-0.0013200167178445,0.0013200473512419,-0.0014792110401834,0.0014801356528081,-0.0014798005268006,0.0014794609639656,6.9491130523501e-06,-6.0436995874806e-06,-0.00099152312804669,0.00099241907400451,2.9802501191866e-07,6.1615332262856e-07,-0.001042078154593,0.0010471771532557,-0.0010419233515706,0.0010472836643331,-0.001046393339635,0.0010428514788598,-0.0010463046907102,0.0010429358040972,-0.0011063063615593,0.0010945066198038,-0.0010934611713166,0.0011072696809,0.0035294460391017,0.0035967215017696,0.73426691815376,1473840,32975,0.0061445537916208,0.006144582714522,0.0041266718325725,17.754570760067,5.7236566080537e-05,5.7236566080537e-05,5.7236566080537e-05,1553346.577505,0.016551484058686
24364800,0.99990881967478,0.016736235892546,0.0059107614385057,0.0059107876431369,0.0049146868109034,-0.0014797070662032,0.001479517622159,-6.5846464076822e-06,6.3754678717729e-06,-3.548191080057e-07,2.2329694483388e-07,-0.0015506054228574,0.0015459276218334,-0.0015463192804576,0.0015501919208048,-0.0015504742574964,0.0015460920545106,-0.0015461098435205,0.0015504419114713,-0.0013267121226622,0.0013138674148622,-0.0013139067287369,0.001326665202923,5.1050277466744e-07,-6.4209247699308e-08,4.2719149658625e-07,1.0745253207454e-07,-0.0014793756272188,0.0014798632150016,-0.001547907365541,0.0015486786734272,-0.0015479781803156,0.0015485660203074,-0.0015480391690115,0.0015484637622351,-0.0015481844832332,0.0015483354832886,-0.0013199143429072,0.0013205842778822,-0.0013202773709049,0.0013203004507427,-0.0014795213131974,0.001480447345286,-0.001480115898859,0.0014797670764822,6.9486604573942e-06,-6.0421966362704e-06,-0.00099155500343893,0.00099245212755032,2.9763423951882e-07,6.1789522743218e-07,-0.0010421693913507,0.0010472682523775,-0.0010420140165994,0.0010473755086313,-0.0010464839639786,0.0010429431459536,-0.0010463946332732,0.0010430282302738,-0.0011063869494652,0.0010945908474031,-0.0010935438142429,0.0011073520843698,0.0035299320827646,0.0035964291613547,0.73564456240195,1473840,32975,0.0061456410174183,0.0061456699593624,0.0041268091632174,17.835430602554,5.7883444820428e-05,5.7883444820428e-05,5.7883444820428e-05,1551531.6628504,0.016553834454357
24451200,0.99991051233669,0.016736262809659,0.0059107709957545,0.0059107972003846,0.0049146946135199,-0.0014799687195611,0.0014797820650566,-6.5823729415007e-06,6.3757761197674e-06,-3.5630256631387e-07,2.2780027553533e-07,-0.0015508349428306,0.0015461587435632,-0.0015465494887223,0.0015504220777818,-0.0015507020901648,0.0015463251810264,-0.0015463378891982,0.0015506742937888,-0.0013269724406785,0.0013141337352547,-0.0013141680578716,0.0013269295392404,5.1322843656144e-07,-6.7478491917332e-08,4.2856088519266e-07,1.0576496517743e-07,-0.0014796388709596,0.0014801260876332,-0.0015481361838215,0.0015489101996371,-0.0015482079686094,0.0015487966502354,-0.0015482697819507,0.001548693108734,-0.0015484163543855,0.0015485638363371,-0.0013201770508578,0.0013208474422348,-0.0013205434790075,0.0013205610536577,-0.0014798310999694,0.0014807614386256,-0.0014804318246073,0.0014800751797197,6.948183475946e-06,-6.0406987421986e-06,-0.00099158311118777,0.00099248112920785,2.9647048704189e-07,6.1979122672541e-07,-0.0010422590903038,0.0010473571419834,-0.0010421024910005,0.0010474653536161,-0.001046573015169,0.0010430328021509,-0.0010464827107746,0.0010431188593143,-0.0011064575259737,0.001094665366773,-0.0010936158036357,0.0011074244202535,0.0035304203524676,0.0035961427176753,0.73385828607087,1473840,32975,0.0061467296397095,0.0061467586228658,0.0041269302872583,17.916056497474,5.8528451979788e-05,5.8528451979788e-05,5.8528451979788e-05,1549679.0528025,0.016556171265075
24537600,0.99991218197432,0.016736289499221,0.0059107804689405,0.0059108066735689,0.0049147023567114,-0.0014800498078208,0.0014798675192298,-6.5794108642397e-06,6.3771284493968e-06,-3.541539833882e-07,2.2986207696194e-07,-0.0015509854335055,0.0015463138843361,-0.0015467001095649,0.0015505768395189,-0.001550852053806,0.0015464804084071,-0.001546488671345,0.0015508286690771,-0.0013269709319107,0.0013141390211423,-0.0013141690512756,0.0013269323330438,5.1139546284984e-07,-6.9251677522817e-08,4.2651364221347e-07,1.042275178377e-07,-0.0014797237810459,0.001480207545083,-0.0015482903421919,0.0015490616233783,-0.0015483628345852,0.0015489479265797,-0.0015484241912934,0.0015488439098111,-0.001548570580333,0.001548715073857,-0.0013201807026335,0.0013208467761456,-0.0013205458998706,0.0013205609055478,-0.0014798659391995,0.0014807920567631,-0.0014804658803448,0.0014801065969062,6.9463426590698e-06,-6.0411390286264e-06,-0.00099156399624444,0.00099245959491681,2.9556934320713e-07,6.1833284402641e-07,-0.0010422259465701,0.0010473212635968,-0.0010420698753335,0.0010474293435786,-0.0010465395784461,0.0010429972568854,-0.0010464489907839,0.0010430831693309,-0.0011064609006957,0.0010946678818085,-0.0010936207992214,0.0011074251712736,0.0035303256639609,0.0035958621051878,0.73763289326857,1473840,32975,0.0061470744067243,0.006147103028735,0.0041268459621089,17.996666949145,5.9173335593161e-05,5.9173335593161e-05,5.9173335593161e-05,1550624.4460447,0.01655678576389
24624000,0.99991382873785,0.016736315983913,0.0059107898658557,0.0059108160704822,0.004914710047575,-0.0014804403674901,0.0014802697421329,-6.5740457808202e-06,6.3832259503372e-06,-3.5301832424122e-07,2.410314238983e-07,-0.0015512757040369,0.0015466128863439,-0.001546990786131,0.001550875219996,-0.0015511405205897,0.0015467827559311,-0.0015467753902529,0.0015511311011843,-0.0013274095005857,0.0013145894339259,-0.0013146035377624,0.0013273838025152,5.1219824207802e-07,-7.8459143512154e-08,4.2524680354138e-07,9.7602041190579e-08,-0.0014801245470537,0.0014806002428349,-0.001548586794688,0.0015493545060648,-0.0015486601694891,0.0015492395960703,-0.0015487233502233,0.0015491333781146,-0.0015488719807007,0.001549002734786,-0.0013206276610408,0.0013212879819999,-0.0013210000728453,0.0013209981586779,-0.0014803884433104,0.0014813148448366,-0.0014809991160609,0.0014806187397567,6.9468325013535e-06,-6.0410895712921e-06,-0.00099163306131578,0.00099252904884523,2.9284057793359e-07,6.2090702763684e-07,-0.0010423970185097,0.001047491056677,-0.0010422382110502,0.0010476006296708,-0.0010467105073994,0.0010431673208677,-0.0010466190775549,0.0010432548884843,-0.0011065986364451,0.0010948073271836,-0.001093756988896,0.0011075647840007,0.0035312692235092,0.0035955872125132,0.74212139527789,1473840,32975,0.0061487148073581,0.0061487448373597,0.0041271379838932,18.077276467202,5.9818211737616e-05,5.9818211737616e-05,5.9818211737616e-05,1546682.2067239,0.016560420066089
24710400,0.99991545277925,0.016736342098728,0.0059107991320116,0.0059108253366371,0.0049147176300794,-0.0014808332952125,0.0014806629245864,-6.5745969709402e-06,6.3841526950532e-06,-3.5625392140449e-07,2.4445327791547e-07,-0.0015515542330349,0.0015468893175406,-0.0015472690600537,0.0015511519097909,-0.0015514173101278,0.0015470612298471,-0.0015470513827544,0.001551410127765,-0.001327872406549,0.0013150529109523,-0.0013150639343496,0.0013278490655282,5.1439286677403e-07,-8.293224157177e-08,4.281262723504e-07,9.2934660122808e-08,-0.0014805187980431,0.0014809924068916,-0.0015488632233001,0.0015496328928818,-0.0015489387215007,0.0015495158429393,-0.0015490016146343,0.0015494101729248,-0.0015491530147708,0.0015492767510423,-0.0013210884322178,0.0013217529002293,-0.0013214695296239,0.0013214553302886,-0.0014808995853259,0.0014818283936031,-0.0014815180388254,0.0014811256376543,6.9469959563421e-06,-6.0423689334014e-06,-0.00099168980348946,0.00099258480727214,2.8854330534053e-07,6.2413230819496e-07,-0.00104259179108,0.001047682797027,-0.0010424302690643,0.0010477947732791,-0.0010469056463432,0.0010433586064891,-0.0010468117896388,0.001043448737892,-0.0011067030521525,0.0010949119549046,-0.0010938602038922,0.0011076712499408,0.0035321933979364,0.0035953178810483,0.74194852660513,1473840,32975,0.0061503411740095,0.0061503718349144,0.0041273761109117,18.157885544271,6.0463084354162e-05,6.0463084354162e-05,6.0463084354162e-05,1542618.386432,0.016563970364334
24796800,0.99991705425221,0.016736367008593,0.0059108079881732,0.005910834192798,0.0049147248276218,-0.0014809633038722,0.0014807846992366,-6.5782990460064e-06,6.3798386750572e-06,-3.6003534391685e-07,2.395448800488e-07,-0.0015517166586231,0.0015470433196392,-0.0015474311279625,0.0015513067346361,-0.001551578589543,0.001547214848117,-0.0015472144915359,0.0015515639501123,-0.0013279548737359,0.0013151296682765,-0.0013151506033697,0.0013279252369373,5.176177127047e-07,-7.8548127810657e-08,4.3156303219734e-07,9.6221336371679e-08,-0.0014806407644553,0.0014811214251172,-0.0015490180111271,0.0015497948134806,-0.0015490940925325,0.001549677089376,-0.0015491566707484,0.0015495726288438,-0.0015493074154941,0.0015494391459065,-0.0013211655815046,0.001321836963301,-0.0013215443352837,0.0013215379155624,-0.0014809917686595,0.0014819265116898,-0.0014816077621075,0.0014812250444299,6.9484066106062e-06,-6.0405303005776e-06,-0.00099164838129749,0.00099254675877246,2.9045062332136e-07,6.2629249607924e-07,-0.0010425945713497,0.0010476887998166,-0.0010424339680604,0.0010478012269379,-0.0010469085743347,0.0010433643701018,-0.0010468139609716,0.0010434546538837,-0.0011066697536718,0.0010948822863666,-0.0010938282619281,0.0011076414779773,0.0035322148008009,0.003595053771897,0.71782207519496,1473840,32975,0.0061508619833634,0.0061508909927991,0.004127212052683,18.238494138107,6.1107953104857e-05,6.1107953104857e-05,6.1107953104857e-05,1542650.9333304,0.01656486068778
24883200,0.99991863331212,0.016736391650792,0.0059108167468484,0.0059108429514719,0.0049147319524717,-0.0014798480421399,0.0014796513086372,-6.5860926663478e-06,6.3696984080221e-06,-3.5317212507326e-07,2.1417325767843e-07,-0.0015514477880725,0.0015467676167847,-0.001547162890077,0.0015510305828455,-0.0015513200115521,0.001546928517821,-0.0015469571365414,0.0015512768297696,-0.0013260237348979,0.0013131729749792,-0.0013132231895949,0.0013259661971325,5.0631713057112e-07,-5.7632071167404e-08,4.0759629745404e-07,1.2918837597916e-07,-0.0014795118352823,0.0014800016519261,-0.0015487559687243,0.0015495122924159,-0.0015488133426189,0.0015494133734856,-0.0015488843385393,0.0015493009271218,-0.0015490159831713,0.0015491865652861,-0.0013192403230132,0.0013198753056233,-0.0013195627921613,0.0013196322458914,-0.0014791851112752,0.0014801164632289,-0.0014797687886487,0.0014794473333554,6.9429863176892e-06,-6.0435222374146e-06,-0.0009913990468652,0.00099228916181615,3.1461825983577e-07,5.936731366476e-07,-0.0010415953766374,0.0010466995707791,-0.0010414537850404,0.0010467931010017,-0.0010459084989524,0.0010423759010772,-0.0010458328781038,0.0010424473195519,-0.001106471899057,0.0010946595628015,-0.0010936335610405,0.0011074163049294,0.0035283164217085,0.0035947950250305,0.72017113960833,1473840,32975,0.0061462114472017,0.0061462403532608,0.0041261430113327,18.31910321036,6.175282568288e-05,6.175282568288e-05,6.175282568288e-05,1563802.7409659,0.016554313480343
24969600,0.99992019711875,0.016736416115722,0.0059108254402034,0.005910851644826,0.0049147390306926,-0.0014803773981156,0.0014801753976058,-6.5913055909026e-06,6.3693896422354e-06,-3.5974558070282e-07,2.1650755272578e-07,-0.0015518822375626,0.0015471924817467,-0.0015475960687489,0.0015514560371989,-0.0015517533027082,0.0015473562538469,-0.0015473865552245,0.0015517063068995,-0.0013266065478145,0.001313746278173,-0.0013137984893795,0.0013265455873428,5.1149921705872e-07,-6.1488722113688e-08,4.1262456521521e-07,1.2694799854149e-07,-0.0014800377203377,0.0014805298150257,-0.0015491820598703,0.0015499460928659,-0.0015492417572744,0.0015498456008349,-0.0015493120976806,0.0015497308297584,-0.0015494473414016,0.0015496140090785,-0.0013198142092369,0.0013204564092287,-0.0013201460357022,0.0013202068502152,-0.0014798235931677,0.0014807629735248,-0.0014804173728294,0.0014800835130339,6.9447585492964e-06,-6.046474793111e-06,-0.00099158539780037,0.00099247450715313,3.1031907762166e-07,5.9638060365928e-07,-0.0010418844036068,0.0010469873059988,-0.0010417394326684,0.0010470825435712,-0.0010461993911299,0.0010426622965876,-0.0010461219396955,0.0010427358537809,-0.0011067289617052,0.00109491286666,-0.0010938850742391,0.0011076736558678,0.0035298030165962,0.0035945415621246,0.72224652686619,1473840,32975,0.0061483916509742,0.0061484218041567,0.0041269185244716,18.471763667114,6.2974109336907e-05,6.2974109336907e-05,6.2974109336907e-05,1560327.0798263,0.016559536345
25056000,0.99992175728446,0.016736440599591,0.005910834138454,0.0059108603430768,0.0049147461180598,-0.0014810893292768,0.0014809467426951,-6.5645257752368e-06,6.4028351532228e-06,-3.3360511408454e-07,2.486275616992e-07,-0.001552510068689,0.0015478764601817,-0.001548221322713,0.0015521408147708,-0.0015523796986964,0.001548041304085,-0.0015480093204757,0.0015523930370232,-0.0013273576939019,0.0013145527544572,-0.0013145395230493,0.0013273566433832,5.1907574554535e-07,-5.9607395109334e-08,4.2358002270677e-07,1.2678846152833e-07,-0.0014807739732176,0.001481276102337,-0.0015498277802905,0.001550607467256,-0.0015498922799458,0.0015505045157737,-0.0015499594711008,0.0015503905894081,-0.0015501005905974,0.0015502707579087,-0.0013205782999135,0.0013212411766945,-0.0013209264386777,0.001320984028065,-0.0014806611035667,0.0014816122726047,-0.0014812645155249,0.0014809289164446,6.9458177154505e-06,-6.052327033899e-06,-0.0009919673925843,0.00099285052972207,3.0080872378509e-07,5.9782948006369e-07,-0.0010423757718298,0.0010474717427528,-0.0010422265850003,0.0010475702607445,-0.0010466926266254,0.0010431440699505,-0.0010466115806745,0.0010432209869099,-0.0011071831283722,0.0010953592626426,-0.0010943333878271,0.0011081287472554,0.0035321642466089,0.0035942933413281,0.72443194016337,1473840,32975,0.0061514617947567,0.0061514904231939,0.004128495552338,18.746238994295,6.5169911954357e-05,6.5169911954357e-05,6.5169911954357e-05,1557775.7934707,0.016567380529698
25142400,0.99992331371336,0.01673646510428,0.0059108428423975,0.0059108690470146,0.0049147532148676,-0.0014818347363476,0.001481696370425,-6.5657116387252e-06,6.4083335874081e-06,-3.3427839340611e-07,2.5347014612425e-07,-0.0015531758546444,0.0015485425253277,-0.001548884808782,0.0015528087838491,-0.0015530437729286,0.0015487091618858,-0.0015486709307318,0.001553063035767,-0.001328135583924,0.0013153301970054,-0.0013153097065538,0.0013281398701857,5.2418908097384e-07,-5.9954438501661e-08,4.3198647858131e-07,1.2363002152825e-07,-0.0014815187735848,0.0014820259300941,-0.0015504878327954,0.0015512781778612,-0.0015505562456676,0.001551171547099,-0.0015506213286342,0.0015510595515721,-0.0015507664191896,0.0015509358810643,-0.0013213474407295,0.0013220251314059,-0.0013217076838826,0.0013217572452463,-0.0014815054735573,0.0014824630306896,-0.0014821146154546,0.001481774226312,6.9478345460502e-06,-6.0570196321282e-06,-0.00099235564523593,0.00099323569791672,2.9336381389427e-07,6.0194375875354e-07,-0.0010428715924981,0.0010479626533377,-0.0010427183638441,0.0010480650220392,-0.0010471905796512,0.0010436328596626,-0.0010471056337588,0.0010437135162255,-0.001107644162636,0.0010958151224113,-0.0010947878444851,0.0011085915080593,0.0035345592588988,0.0035940502583311,0.72672656346615,1473840,32975,0.0061545562693176,0.0061545840551064,0.0041301045320374,19.02567826866,6.740542614928e-05,6.740542614928e-05,6.740542614928e-05,1555315.5437552,0.016575307455789
25228800,0.99992486584168,0.016736489625092,0.0059108515502965,0.0059108777549056,0.0049147603198895,-0.0014825687073848,0.0014824501889492,-6.5595092788156e-06,6.4220930956381e-06,-3.2884060483307e-07,2.6795080796226e-07,-0.0015538330038372,0.0015492137495635,-0.0015495394514129,0.001553482664057,-0.0015536978930247,0.001549383546587,-0.0015493225583362,0.0015537400851317,-0.0013288992049442,0.0013161093813455,-0.0013160660733021,0.0013289266776369,5.2530661010018e-07,-6.7728288347164e-08,4.3432674754294e-07,1.1469326602014e-07,-0.0014822658672381,0.0014827664344574,-0.001551151839464,0.0015519424308915,-0.0015512239270649,0.001551831981928,-0.0015512883725288,0.0015517207446357,-0.0015514371315476,0.0015515932895369,-0.0013221180214553,0.0013227971456712,-0.0013224893902622,0.0013225182809806,-0.0014823488975338,0.0014833046663508,-0.0014829666557895,0.0014826072428931,6.9491409744433e-06,-6.0632398680209e-06,-0.00099274488767147,0.00099362014482951,2.8543441341698e-07,6.0515783576048e-07,-0.0010433664234476,0.0010484515730548,-0.0010432095388053,0.0010485575973761,-0.0010476878542729,0.0010441192183584,-0.0010475992260627,0.0010442035484258,-0.0011081057740238,0.0010962682180111,-0.0010952422721712,0.0011090520964946,0.0035369501560363,0.0035938122086269,0.72915719871976,1473840,32975,0.0061576357267613,0.0061576631153626,0.0041317140420063,19.305428487864,6.9643427902906e-05,6.9643427902906e-05,6.9643427902906e-05,1552914.0371275,0.01658320492409
25315200,0.99992641307346,0.01673651415942,0.0059108602611218,0.005910886465722,0.0049147674325757,-0.001483295232948,0.0014832037598946,-6.5504952222469e-06,6.4399253567802e-06,-3.2038392161401e-07,2.8688005758313e-07,-0.00155448416609,0.0015498854963715,-0.0015501878407143,0.0015541574875547,-0.0015543453863208,0.00155005881288,-0.0015499676200117,0.0015544183535107,-0.0013296552260896,0.0013168867020837,-0.0013168139849834,0.0013297132354916,5.3031856889453e-07,-7.3042450932939e-08,4.4010341610912e-07,1.0842688365501e-07,-0.00148300636736,0.0014835066084866,-0.0015518105975401,0.0015526082448915,-0.0015518860230491,0.0015524934257711,-0.0015519501912198,0.0015523826771236,-0.0015521026258828,0.0015522510223543,-0.0013228811829764,0.0013235680073068,-0.0013232633641532,0.0013232765381721,-0.0014831838233083,0.0014841455141749,-0.0014838111859257,0.0014834373432608,6.9593100992944e-06,-6.0621002447558e-06,-0.00099312440556417,0.00099401115360332,2.8539605934641e-07,6.1723961537832e-07,-0.0010438516899656,0.0010489473155848,-0.0010436910735459,0.0010490574025736,-0.0010481762628429,0.0010446118453164,-0.0010480836483979,0.0010447003709307,-0.0011085566928093,0.0010967254477025,-0.0010956836351661,0.0011095176497467,0.0035393342050556,0.003593579090364,0.73180540598168,1473840,32975,0.0061606992299949,0.0061607278149867,0.0041333169765544,19.585199680752,7.1881597446016e-05,7.1881597446016e-05,7.1881597446016e-05,1550559.8441375,0.0165910649728
25401600,0.99992795480826,0.016736538898067,0.0059108690381596,0.0059108952427532,0.0049147746171539,-0.0014840417987466,0.0014839262109442,-6.5663927671585e-06,6.4314468759328e-06,-3.3751013595301e-07,2.8038619394272e-07,-0.0015551584751675,0.0015505299679739,-0.0015508596372345,0.0015548039830919,-0.0015550167102741,0.0015507069134584,-0.0015506356519759,0.0015550681295063,-0.0013304321011725,0.0013176341093195,-0.001317581966074,0.0013304675615024,5.2757592457511e-07,-8.6780872960826e-08,4.3640765419843e-07,9.625169615037e-08,-0.0014837495868138,0.0014842338112086,-0.0015524752593654,0.0015532636673799,-0.0015525536099126,0.0015531459772392,-0.0015526178559807,0.001553033710612,-0.0015527737127597,0.0015528994603991,-0.0013236484685856,0.00132432395545,-0.0013240394634825,0.0013240243433635,-0.0014840181255555,0.001484971187504,-0.0014846569063317,0.001484252687234,6.9667098463952e-06,-6.0619907030259e-06,-0.00099350511397184,0.00099439922352597,2.8495196229639e-07,6.252238724761e-07,-0.0010443358621303,0.001049438450044,-0.0010441721288129,0.0010495508654937,-0.0010486628517606,0.0010451005258332,-0.0010485677723605,0.0010451918394862,-0.0011090043803869,0.0010971758068029,-0.0010961231147513,0.0011099747503167,0.0035417076298155,0.003593350854845,0.74041587366827,1473840,32975,0.0061637397559499,0.0061637712503407,0.0041349162651311,19.864974029725,7.41197922378e-05,7.41197922378e-05,7.41197922378e-05,1548173.220162,0.016598876421953
25488000,0.99992948993667,0.016736563771233,0.0059108778582805,0.0059109040628727,0.0049147818500794,-0.0014850843173085,0.0014849295249387,-6.5907588391313e-06,6.4163287846016e-06,-3.6394491967532e-07,2.6778003518212e-07,-0.0015559406355809,0.0015512646396559,-0.0015516396253507,0.0015555434472603,-0.0015557934175173,0.0015514468351513,-0.0015514116691317,0.0015558124262891,-0.0013316541432,0.0013188136688788,-0.0013187983106084,0.0013316581936092,5.2570308131645e-07,-1.0251726367769e-07,4.3472378002334e-07,7.8812207456382e-08,-0.0014847812264416,0.0014852469869104,-0.00155323919895,0.0015540179476205,-0.001553321227429,0.0015538941948824,-0.0015533876914679,0.0015537853314764,-0.0015535460058342,0.0015536448255145,-0.0013248577053903,0.0013255252687315,-0.0013252595259954,0.0013252068566128,-0.0014853019914004,0.0014862465558717,-0.0014859523469926,0.0014855130071485,6.9757831598664e-06,-6.0621497228218e-06,-0.00099395908038041,0.00099486322652075,2.8282053437781e-07,6.3910520772146e-07,-0.001045047262407,0.0010501568755998,-0.0010448790785813,0.0010502756716311,-0.001049377375524,0.0010458164782742,-0.0010492765672505,0.0010459133621732,-0.0011095512375228,0.0010977284554617,-0.0010966615793842,0.0011105367109026,0.0035450274998435,0.0035931273871176,0.74755610044202,1473840,32975,0.0061679734301527,0.0061680028171851,0.0041368295806383,20.139387321239,7.6315098569912e-05,7.6315098569912e-05,7.6315098569912e-05,1541175.1852029,0.016609429317697
25574400,0.99993101832879,0.016736588567293,0.0059108866519306,0.0059109128565192,0.0049147890588432,-0.0014859475464758,0.0014857784933063,-6.6014534524147e-06,6.4125114401942e-06,-3.7065466847078e-07,2.6025420877816e-07,-0.0015566393256658,0.0015519471070149,-0.0015523360032232,0.0015562287433164,-0.0015564922248449,0.0015521289659963,-0.0015521086180615,0.0015564969320269,-0.0013326341729548,0.0013197730651216,-0.0013197740789491,0.0013326247941416,5.2750030540076e-07,-9.9996890513635e-08,4.4384326606412e-07,7.3335606299023e-08,-0.0014856353653684,0.0014861051820003,-0.00155392602956,0.0015547136631098,-0.0015540129074045,0.0015545846931447,-0.0015540743026841,0.0015544809637753,-0.0015542368635913,0.0015543356958962,-0.0013258201238843,0.0013265050833701,-0.0013262345461011,0.0013261716214711,-0.0014863146531791,0.0014872575415083,-0.0014869631565216,0.0014865251446301,6.9797130851917e-06,-6.0652131389907e-06,-0.00099434607454665,0.00099525161475786,2.7645189394129e-07,6.4736269314941e-07,-0.0010456480296087,0.0010507566370591,-0.0010454751266746,0.0010508803842871,-0.0010499805946105,0.0010464138784726,-0.0010498749163168,0.0010465156636026,-0.0011099851770417,0.0010981611961446,-0.0010970888118349,0.0011109754362519,0.0035477749432426,0.0035929085386364,0.74842910501833,1473840,32975,0.0061715165367441,0.0061715462068155,0.0041384448725478,20.418662728343,7.8549301826743e-05,7.8549301826743e-05,7.8549301826743e-05,1536464.8974654,0.016618277177774
25660800,0.99993253942241,0.016736613264985,0.0059108954111864,0.0059109216157732,0.0049147962380251,-0.0014864286204518,0.0014862522125185,-6.6076930545659e-06,6.4114676019185e-06,-3.7258736927183e-07,2.5441470532989e-07,-0.0015571757245757,0.0015524751484026,-0.0015528699799067,0.0015567589931489,-0.001557028683196,0.0015526558486568,-0.0015526443309516,0.0015570253822666,-0.0013330516520395,0.0013201780600061,-0.0013201878464855,0.0013330337203213,5.2746898380863e-07,-9.6140706325342e-08,4.4690797394028e-07,7.3363719695531e-08,-0.0014861109547639,0.0014865840187731,-0.0015544566944815,0.0015552475569401,-0.0015545451792888,0.0015551170346027,-0.0015546043536606,0.0015550162569687,-0.0015547675225527,0.001554870004597,-0.0013262278121452,0.0013269198086324,-0.0013266435948779,0.001326583141206,-0.0014867396445255,0.0014876809005029,-0.0014873826431351,0.0014869525115976,6.9842957475576e-06,-6.0659645131777e-06,-0.00099455305930848,0.00099546200706902,2.7679452052548e-07,6.5078983139708e-07,-0.0010459371709197,0.001051049689474,-0.00104576386879,0.0010511748784113,-0.0010502716124818,0.0010467048601388,-0.001050164405258,0.0010468078146725,-0.0011101840748336,0.0010983596688196,-0.0010972826129189,0.0011111789865134,0.0035491797885116,0.0035926942089555,0.74897581979103,1473840,32975,0.006173492349308,0.0061735212605013,0.0041393120688176,20.698371899723,8.0786975197784e-05,8.0786975197784e-05,8.0786975197784e-05,1537210.751338,0.016623175253193
25747200,0.9999340408921,0.016736637602007,0.0059109040439608,0.0059109302485464,0.0049148033095,-0.0014866877249834,0.001486510865286,-6.6084561862798e-06,6.4118277665727e-06,-3.7019631334124e-07,2.5151112970825e-07,-0.0015574831922997,0.0015527834572672,-0.0015531770610034,0.0015570678205112,-0.0015573377531247,0.001552962454383,-0.001552953278775,0.0015573323273552,-0.0013332438804535,0.0013203672314122,-0.0013203795278706,0.0013332240318809,5.2541408988254e-07,-9.2900619963491e-08,4.4702553891925e-07,7.4040147598755e-08,-0.0014863693739096,0.0014868433910293,-0.0015547651477629,0.0015555550426598,-0.0015548534673835,0.0015554245786387,-0.0015549112354471,0.0015553255178277,-0.0015550740398363,0.0015551794850776,-0.0013264181102356,0.0013271121797601,-0.0013268329646502,0.0013267758356581,-0.0014869680720509,0.0014879054986783,-0.0014876052086556,0.0014871822132021,6.9857641483548e-06,-6.0656309540628e-06,-0.00099460205877954,0.000995512877815,2.7808035038753e-07,6.5151686117117e-07,-0.001046033929263,0.0010511488628395,-0.0010458608744656,0.0010512738528978,-0.0010503687196495,0.0010468036082139,-0.0010502617358399,0.0010469063879391,-0.0011102444044269,0.0010984204112719,-0.0010973419966625,0.0011112408225471,0.0035497559798333,0.0035924842234142,0.74771681488239,1473840,32975,0.006174563632802,0.0061745926140312,0.0041395204858861,20.850692038962,8.2005536311694e-05,8.2005536311694e-05,8.2005536311694e-05,1537371.7889501,0.016625565356967
25833600,0.99993550474069,0.016736661319572,0.0059109124574358,0.0059109386620206,0.0049148102001154,-0.0014864985007845,0.0014863208930076,-6.6067184465104e-06,6.409051441536e-06,-3.6769862514978e-07,2.4824175289482e-07,-0.0015573703912648,0.001552673081747,-0.0015530652773607,0.0015569562129475,-0.0015572261978612,0.0015528502047325,-0.0015528436405698,0.0015572182962458,-0.0013329754679886,0.0013201010956798,-0.0013201161907455,0.0013329522839153,5.2312665132439e-07,-8.9417828059893e-08,4.4531962007952e-07,7.6325826865087e-08,-0.0014861793142215,0.0014866542251787,-0.0015546545719695,0.0015554424621942,-0.0015547420108964,0.001555313072986,-0.0015547990744346,0.0015552147293975,-0.0015549603236565,0.001555070192243,-0.0013261517448039,0.0013268442798702,-0.0013265619278328,0.001326511794624,-0.0014867138040135,0.0014876477037395,-0.0014873441197727,0.0014869301872724,6.9832052995406e-06,-6.0636862671872e-06,-0.00099433682080602,0.00099524678701104,2.7970094060346e-07,6.4921970907618e-07,-0.0010457715085128,0.0010508850262194,-0.0010456000117925,0.0010510090324319,-0.0010501048625191,0.0010465413408283,-0.0010499988153066,0.0010466430339982,-0.0011099718496768,0.0010981508199869,-0.001097073760576,0.0011109659293018,0.003548631627115,0.0035922784044121,0.74742151684117,1473840,32975,0.0061737783264863,0.0061738072480713,0.0041384177036682,20.803716620996,8.1629732967966e-05,8.1629732967966e-05,8.1629732967966e-05,1537919.9427038,0.016622847087473
25920000,0.99993693098363,0.016736684407637,0.0059109206478578,0.0059109468524426,0.0049148169073368,-0.0014863607642359,0.0014861814447274,-6.6055651075113e-06,6.4063838711815e-06,-3.6641311563574e-07,2.4520373806904e-07,-0.0015572714016756,0.0015525752757688,-0.0015529679350933,0.0015568570126343,-0.0015571291008851,0.0015527509859555,-0.0015527475633358,0.0015571179349907,-0.0013327801124407,0.0013199060464455,-0.0013199244643547,0.0013327542406958,5.2166360702821e-07,-8.6553896028271e-08,4.4464546596429e-07,7.8723880976871e-08,-0.0014860399716827,0.0014865164359341,-0.0015545567583562,0.0015553435644081,-0.0015546429090836,0.0015552153506056,-0.0015546995954465,0.001555117305769,-0.0015548600720726,0.0015549737037398,-0.00132595653497,0.0013266492538392,-0.0013263642637321,0.0013263196949646,-0.0014865554556824,0.001487487654208,-0.0014871822010227,0.0014867745440852,6.9809460010891e-06,-6.0621123195986e-06,-0.00099409010592048,0.00099499955696512,2.8098502783627e-07,6.4734525377447e-07,-0.0010455293298291,0.001050642491747,-0.0010453587585739,0.0010507650881638,-0.0010498613899692,0.0010462999046467,-0.0010497566864785,0.0010464004046367,-0.0011097443604541,0.0010979250204904,-0.0010968501784028,0.0011107367399772,0.0035476853237346,0.0035920766612361,0.74679293137084,1473840,32975,0.0061732041870176,0.0061732332183398,0.0041373934811223,20.745088428615,8.1160707428919e-05,8.1160707428919e-05,8.1160707428919e-05,1537433.3166283,0.016620638443742
26006400,0.99993832060823,0.016736706743133,0.0059109285744311,0.0059109547790156,0.0049148233896861,-0.0014862142342537,0.0014860366337923,-6.6031976143208e-06,6.4053967309207e-06,-3.6384161326391e-07,2.4439553040414e-07,-0.0015571596049761,0.0015524673277205,-0.001552857033038,0.0015567480510915,-0.0015570179463907,0.0015526419897383,-0.0015526379598325,0.0015570077031396,-0.0013325866381957,0.0013197169542635,-0.0013197348357097,0.0013325612831867,5.1990819353899e-07,-8.4882763431225e-08,4.435511685063e-07,7.9458687863614e-08,-0.0014858942498938,0.0014863705615385,-0.0015544477346577,0.0015552326598176,-0.0015545331943251,0.0015551049308108,-0.0015545896324894,0.0015550076665014,-0.0015547490520709,0.001554864586125,-0.0013257658707174,0.0013264579162472,-0.0013261709910826,0.0013261295038181,-0.0014863857238507,0.0014873151505978,-0.0014870084262828,0.0014866049630029,6.977876936363e-06,-6.0618052213849e-06,-0.00099385149987798,0.00099475831656125,2.8063951999824e-07,6.4532980718871e-07,-0.0010452991477497,0.0010504087286323,-0.0010451294802324,0.0010505311353741,-0.0010496302198614,0.0010460675585875,-0.0010495255871725,0.0010461677010873,-0.001109519339516,0.0010977007867353,-0.0010966287144804,0.0011105083443717,0.0035467316829171,0.0035918788759113,0.74152872735906,1473840,32975,0.0061726007786541,0.006172629281603,0.0041363983262018,20.685415159008,8.068332127206e-05,8.068332127206e-05,8.068332127206e-05,1537051.1969481,0.016618399150333
26092800,0.99993967465534,0.016736728182184,0.0059109361892613,0.0059109623938448,0.0049148295990783,-0.0014858601163835,0.0014856708435076,-6.6076544899736e-06,6.3986591887533e-06,-3.6343562124477e-07,2.3213746615865e-07,-0.0015569868325086,0.0015522880208509,-0.0015526852898133,0.0015565677546973,-0.0015568499240577,0.0015524583055812,-0.0015524701409335,0.0015568234727966,-0.0013320386195948,0.0013191547444317,-0.0013191881421959,0.0013319977062512,5.1631158514546e-07,-7.5891661393294e-08,4.4007417799406e-07,8.8675677019333e-08,-0.0014855316832158,0.0014860134325012,-0.0015542731992885,0.0015550549900214,-0.0015543544689915,0.0015549317154431,-0.0015544107419251,0.0015548341788205,-0.0015545664059835,0.0015546954128014,-0.0013252117041885,0.0013259007826858,-0.0013256053637144,0.0013255858711303,-0.0014858921423626,0.0014868187354845,-0.0014865035769315,0.0014861216056355,6.9765434026794e-06,-6.060839213777e-06,-0.0009935684751044,0.00099447484824278,2.8656924752799e-07,6.3844746478102e-07,-0.0010448760039829,0.0010499890087812,-0.0010447101299834,0.0010501068404392,-0.0010492060924349,0.0010456484402057,-0.001049106306121,0.0010457440686489,-0.0011092697010398,0.0010974479131189,-0.0010963811871714,0.001110254512279,0.0035450975614657,0.0035916849263082,0.73054856185236,1473840,32975,0.0061711111264693,0.0061711400694882,0.0041352201818784,20.625641148659,8.0205129189267e-05,8.0205129189267e-05,8.0205129189267e-05,1540340.8702543,0.016614171884116
26179200,0.99994099414098,0.016736749438557,0.0059109437303173,0.0059109699349,0.0049148357733392,-0.0014852022239191,0.0014850161102459,-6.6029238642096e-06,6.39714506226e-06,-3.5658064060302e-07,2.2830378928754e-07,-0.0015566997801315,0.0015520097026845,-0.0015524002070458,0.0015562873508691,-0.0015565663174652,0.0015521764392693,-0.0015521886212683,0.0015565394894263,-0.0013310108701185,0.0013181329751695,-0.0013181665710429,0.0013309696066065,5.1223804097961e-07,-6.9228539011036e-08,4.2882689321945e-07,1.024105063839e-07,-0.0014848741042168,0.0014853583664232,-0.0015539950056169,0.0015547675331818,-0.0015540681574472,0.0015546525900837,-0.0015541290953819,0.0015545503091248,-0.0015542765912819,0.0015544198812354,-0.0013241960292218,0.0013248667161973,-0.0013245653512027,0.0013245763730397,-0.0014849406018964,0.0014858675595893,-0.0014855415328814,0.0014851810806146,6.9768797469885e-06,-6.0542263083086e-06,-0.00099324828168353,0.0009941614917822,3.0235238537511e-07,6.2933959192064e-07,-0.0010442300535399,0.0010493560906369,-0.0010440725136539,0.0010494656174724,-0.0010485580360767,0.0010450175759249,-0.0010484665213295,0.0010451049407142,-0.0011089887195525,0.0010971718254343,-0.0010961066272273,0.0011099723031563,0.0035425595770102,0.0035914949201817,0.74324488639693,1473840,32975,0.0061683957311965,0.0061684246344074,0.0041338985008019,20.56585596414,7.9726847713114e-05,7.9726847713114e-05,7.9726847713114e-05,1548725.0619343,0.016607304774101
26265600,0.99994228005023,0.016736770394752,0.0059109511592931,0.0059109773638751,0.0049148418715842,-0.0014858989633243,0.0014857138426414,-6.603856951134e-06,6.3987385330567e-06,-3.5886969342711e-07,2.3185225002163e-07,-0.0015569380541517,0.0015522478984043,-0.0015526395149257,0.0015565253176881,-0.0015568049020542,0.0015524161106267,-0.0015524252512858,0.001556781040774,-0.0013320732615533,0.001319193142876,-0.0013192247468684,0.0013320364659393,5.1803978372077e-07,-6.907127811691e-08,4.460217624934e-07,9.2444520250863e-08,-0.0014855679901612,0.0014860590267604,-0.001554224811515,0.0015550131885184,-0.0015543045543413,0.0015548901904246,-0.0015543597610228,0.0015547955331723,-0.0015545164314956,0.0015546549080679,-0.0013252422845565,0.0013259473757856,-0.0013256407425268,0.0013256283069958,-0.0014860743313041,0.0014870062253833,-0.0014866852371235,0.001486312337618,6.9727566583081e-06,-6.0607656648465e-06,-0.00099327614866134,0.00099418013066132,2.8448348653035e-07,6.3825231106869e-07,-0.0010446308015762,0.0010497399891702,-0.0010444634393131,0.0010498575746213,-0.0010489594113164,0.001045401110783,-0.001048859972462,0.0010454971130938,-0.0011091174733943,0.0010972967192549,-0.0010962334310894,0.0011100997907133,0.0035444255818551,0.0035913087475992,0.75194069727014,1473840,32975,0.0061712800149011,0.0061713090679651,0.0041340073859713,20.506068757441,7.9248550059527e-05,7.9248550059527e-05,7.9248550059527e-05,1535384.1048183,0.016613283148481
26352000,0.99994353333773,0.016736790845538,0.0059109584093107,0.0059109846138887,0.0049148478223382,-0.0014862204433539,0.0014860431640594,-6.6002916249084e-06,6.4032110734341e-06,-3.5835735788685e-07,2.3927138643858e-07,-0.0015569838790128,0.001552297437547,-0.0015526836604414,0.0015565761315426,-0.0015568466368673,0.0015524682718027,-0.0015524676171463,0.0015568329211135,-0.0013326468275052,0.001319777869569,-0.0013197986915197,0.0013326191829242,5.1700363100072e-07,-7.719684321165e-08,4.4815377154587e-07,8.0253285015687e-08,-0.0014858981833214,0.0014863795072692,-0.0015542735088003,0.0015550607138688,-0.0015543597017407,0.0015549322381981,-0.0015544114920142,0.0015548396039491,-0.0015545727649869,0.0015546949237462,-0.0013258199289934,0.0013265254094438,-0.0013262305874052,0.0013261930358523,-0.0014866241091566,0.0014875478434952,-0.0014872386856427,0.0014868471359727,6.9744521144656e-06,-6.0601674969521e-06,-0.000993193013246,0.00099409831127963,2.7788808266576e-07,6.4623520184059e-07,-0.0010448309358427,0.0010499366853705,-0.0010446595675235,0.0010500598163634,-0.0010491602214875,0.0010455969600219,-0.0010490549804658,0.001045698072699,-0.0011090447168422,0.0010972296744917,-0.0010961590605897,0.0011100340576356,0.0035450793327984,0.0035911262789543,0.75272439754159,1473840,32975,0.0061726253922293,0.0061726541836837,0.0041336723587782,20.446283330572,7.8770266644576e-05,7.8770266644576e-05,7.8770266644576e-05,1527587.5619518,0.016615679729589
26438400,0.99994475492825,0.016736810905028,0.0059109655181823,0.0059109917227587,0.0049148536640872,-0.0014860540190997,0.0014858693634833,-6.6023446721068e-06,6.3978612755406e-06,-3.6046866756938e-07,2.3386386431939e-07,-0.0015568535463251,0.0015521618256795,-0.001552554093931,0.00155643953963,-0.0015567170617301,0.0015523316715189,-0.0015523393150021,0.0015566948488868,-0.0013324466191791,0.0013195727161724,-0.0013196020533606,0.0013324097707982,5.1626522480059e-07,-7.4675433270964e-08,4.4713770114857e-07,8.2723443581259e-08,-0.0014857273302707,0.0014862102332958,-0.0015541409451651,0.0015549278078133,-0.0015542264512733,0.0015548002108344,-0.0015542780607566,0.0015547074233808,-0.0015544380552805,0.0015545642566967,-0.0013256176200263,0.0013263213622936,-0.0013260240731398,0.0013259931681401,-0.0014864138245782,0.0014873363322854,-0.0014870240810526,0.0014866399196217,6.9738680760604e-06,-6.057462619014e-06,-0.00099288668568254,0.00099379377609666,2.8051167450569e-07,6.4538062273045e-07,-0.0010445741645917,0.0010496815791324,-0.0010444040225802,0.0010498037033833,-0.0010489022916796,0.0010453429384709,-0.0010487981675781,0.0010454429061906,-0.0011087131910633,0.0010969023233032,-0.0010958304363723,0.0011097029129823,0.0035439902781235,0.0035909474670387,0.75734692496996,1473840,32975,0.0061719202828066,0.0061719492780678,0.0041324053687173,20.386496975833,7.8291975806659e-05,7.8291975806659e-05,7.8291975806659e-05,1526991.5172894,0.016612958173052
26524800,0.9999459529558,0.016736830625088,0.0059109725060623,0.0059109987106382,0.0049148594083871,-0.0014862963312191,0.0014861106362313,-6.6031253207459e-06,6.3976685037044e-06,-3.6040675524308e-07,2.3274055874606e-07,-0.0015570056290243,0.0015523130772462,-0.0015527060105241,0.0015565909203829,-0.0015568695682088,0.0015524825046982,-0.0015524915809597,0.0015568458959313,-0.0013327539837256,0.0013198780308979,-0.001319908665662,0.0013327158057215,5.1619859791057e-07,-7.3543771348503e-08,4.4931432478756e-07,8.1702951681836e-08,-0.0014859685795378,0.0014864525777111,-0.0015542917383341,0.0015550803126607,-0.0015543782762001,0.001554951659607,-0.0015544284310559,0.0015548603494116,-0.0015545894843053,0.0015547161007471,-0.0013259215168033,0.0013266298643701,-0.0013263311512976,0.0013262987385745,-0.0014867358938044,0.0014876572154396,-0.0014873451807089,0.0014869620294793,6.9745115675952e-06,-6.0574230283181e-06,-0.00099283492313363,0.00099374269598527,2.7922887450435e-07,6.4730758383414e-07,-0.0010446607755476,0.001049767979604,-0.0010444895343115,0.0010498912173489,-0.001048989095588,0.0010454292037042,-0.0010488839157137,0.0010455302184428,-0.0011086773542827,0.0010968675496844,-0.0010957939840929,0.0011096689528702,0.0035444341590708,0.0035907722585529,0.75917772990093,1473840,32975,0.0061729202008987,0.0061729492145285,0.0041321958782944,20.425545702179,7.8604365617432e-05,7.8604365617432e-05,7.8604365617432e-05,1523567.372193,0.016614779125117
26611200,0.99994713805932,0.016736850125749,0.0059109794166324,0.0059110056212077,0.0049148650879086,-0.0014866620137008,0.0014864877258254,-6.5987494923068e-06,6.4048094240071e-06,-3.5479811093828e-07,2.3840624711274e-07,-0.0015573775811557,0.0015526955457666,-0.0015530770960955,0.0015569742542891,-0.0015572415471387,0.0015528649673615,-0.0015528626057329,0.0015572293031205,-0.0013330918895293,0.0013202246809567,-0.0013202436316183,0.0013330652700104,5.1726138565408e-07,-7.2468169248717e-08,4.5146193996357e-07,8.1789787951503e-08,-0.0014863388522198,0.0014868250517001,-0.0015546674662185,0.001555458942015,-0.0015547546643708,0.0015553296303987,-0.0015548041904188,0.0015552390124457,-0.0015549659614284,0.001555094044012,-0.0013262615073173,0.001326974048047,-0.0013266732247405,0.0013266409844009,-0.001487107977186,0.0014880307686401,-0.0014877176708464,0.0014873357895007,6.9761125368651e-06,-6.0586191138841e-06,-0.00099295060243756,0.00099385876891099,2.7838816658278e-07,6.4851548668225e-07,-0.001044852885798,0.0010499607182553,-0.001044680917984,0.0010500846427719,-0.0010491820756671,0.0010456209879423,-0.0010490762131934,0.0010457226641702,-0.0011088108473058,0.00109699932808,-0.0010959248235583,0.0011098038080109,0.0035454619204631,0.0035906006219452,0.7588868993194,1473840,32975,0.006174457132095,0.0061744860931198,0.0041326788539513,20.606409118377,8.0051272947012e-05,8.0051272947012e-05,8.0051272947012e-05,1522892.4464064,0.016618395183614
26697600,0.99994831066477,0.016736869389882,0.0059109862442864,0.005911012448861,0.004914870696735,-0.0014869678422516,0.0014867995436201,-6.5964036185795e-06,6.40883092387e-06,-3.5221012536717e-07,2.4119625866426e-07,-0.0015577376817318,0.0015530616927723,-0.001553436374667,0.0015573399970208,-0.0015576030446394,0.0015532312139568,-0.0015532219723448,0.00155759576049,-0.0013333351835358,0.0013204722615325,-0.0013204842870711,0.00133331359919,5.2360907965327e-07,-6.636523194516e-08,4.5936452635469e-07,8.7620373152569e-08,-0.001486641622908,0.0014871412210491,-0.0015550237007565,0.0015558305323221,-0.0015551128822058,0.0015557005111719,-0.0015551600231067,0.0015556094347133,-0.001555323691069,0.001555464145989,-0.001326498141879,0.0013272256262245,-0.0013269126130623,0.0013268912179042,-0.0014873660013657,0.001488300244782,-0.0014879778214382,0.0014876075514549,6.977100131462e-06,-6.0594051116306e-06,-0.00099307368975604,0.0009939817566577,2.7720329809735e-07,6.4923622510421e-07,-0.0010450152224317,0.0010501231402873,-0.0010448419003135,0.0010502471450884,-0.0010493450503029,0.0010457824579602,-0.0010492384078702,0.0010458843503098,-0.0011089437498249,0.0010971309895627,-0.0010960558394305,0.001109937415814,0.0035463189053866,0.003590432479645,0.75768461040904,1473840,32975,0.0061757353791129,0.0061757670198941,0.0041331902500337,20.795562968651,8.1564503749209e-05,8.1564503749209e-05,8.1564503749209e-05,1523551.5781964,0.016621516554
26784000,0.99994947063322,0.016736888396526,0.0059109929818219,0.0059110191863998,0.0049148762283038,-0.0014872722622401,0.0014871005732253,-6.5981496504699e-06,6.4070955854663e-06,-3.5387409585222e-07,2.3911724964544e-07,-0.0015581121937231,0.0015534330447745,-0.0015538106349686,0.0015577114976152,-0.001557977535314,0.0015536024109952,-0.0015535964567086,0.0015579667603201,-0.0013335542722423,0.0013206879441533,-0.0013207033804577,0.0013335287169438,5.2990556679361e-07,-5.9718716262828e-08,4.6656769482842e-07,9.3901580284061e-08,-0.0014869373283329,0.0014874500803345,-0.0015553891750463,0.0015562096171813,-0.0015554790523341,0.0015560792611314,-0.0015555255280442,0.0015559884455112,-0.0015556896972292,0.0015558430989818,-0.0013267073161801,0.0013274488493483,-0.0013271226594754,0.0013271141141606,-0.0014876129574481,0.0014885590278657,-0.0014882250300595,0.0014878677306538,6.9774405182214e-06,-6.0592411280353e-06,-0.00099320935619092,0.00099411766958147,2.7678353224361e-07,6.4975090976133e-07,-0.0010451609438055,0.00105026884848,-0.0010449873680133,0.0010503931466074,-0.0010494908330043,0.0010459279721467,-0.0010493836615191,0.0010460301906209,-0.0011091036403671,0.0010972914701516,-0.0010962154021087,0.0011100979069728,0.0035471748097368,0.0035902677538864,0.75573593074977,1473840,32975,0.0061769886439733,0.0061770184534879,0.00413375427188,20.985460220083,8.3083681760663e-05,8.3083681760663e-05,8.3083681760663e-05,1524673.8282096,0.016624635922036
26870400,0.99995061778152,0.016736907129424,0.0059109996236737,0.0059110258282522,0.004914881677498,-0.001487569527135,0.0014873901418483,-6.6028500311708e-06,6.4040817052179e-06,-3.5766620034833e-07,2.3538228498222e-07,-0.0015584945339881,0.0015538067754693,-0.0015541923075657,0.0015580860927406,-0.0015583592997859,0.0015539758446342,-0.0015539777618563,0.001558341111173,-0.0013337446609119,0.001320869083339,-0.0013208921240561,0.0013337118230054,5.2403151080988e-07,-6.5661498538527e-08,4.6045609045751e-07,8.7621345664638e-08,-0.0014872368362494,0.0014877375172764,-0.0015557732766307,0.0015565814934806,-0.0015558628358512,0.0015564512120311,-0.0015559096365868,0.0015563606054909,-0.0015560736797608,0.0015562151595529,-0.0013268992376458,0.0013276286893785,-0.0013273149369403,0.0013272940991264,-0.0014878593804592,0.001488793740514,-0.0014884713088314,0.0014881017158422,6.9788443969062e-06,-6.0593634999733e-06,-0.00099335718341787,0.00099426673338098,2.7725852018705e-07,6.5045233747881e-07,-0.0010452907879726,0.0010504001937227,-0.0010451173976216,0.0010505249829434,-0.0010496211170596,0.001046059099966,-0.0010495139131676,0.0010461614658747,-0.0011092928404195,0.0010974805721284,-0.0010964030834056,0.001110288585598,0.0035480234024203,0.0035901063696277,0.75321649190719,1473840,32975,0.0061782036039138,0.0061782336440017,0.0041343705736595,21.175429059788,8.4603432478304e-05,8.4603432478304e-05,8.4603432478304e-05,1526164.9028684,0.016627732553256
26956800,0.99995175192794,0.016736925577156,0.0059110061659025,0.0059110323704819,0.0049148870407717,-0.0014878541411302,0.0014876729923668,-6.6053567457274e-06,6.4047405562684e-06,-3.5856891912797e-07,2.3482065307063e-07,-0.0015588738460507,0.0015541829650544,-0.001554570670844,0.0015584634982502,-0.00155873824381,0.00155435212104,-0.0015543559651646,0.0015587185936321,-0.0013339092873706,0.0013210288760439,-0.0013210538568301,0.0013338751342155,5.2121335106433e-07,-6.8757781731245e-08,4.5675557677925e-07,8.4965123361627e-08,-0.0014875237073529,0.0014880182293407,-0.0015561545869669,0.0015569561855782,-0.001556243505208,0.0015568261643571,-0.0015562910191693,0.0015567353631271,-0.0015564543493081,0.0015565901026259,-0.0013270656550731,0.0013277876855673,-0.0013274801089574,0.0013274540369998,-0.0014880887036686,0.0014890178090898,-0.0014887001066832,0.0014883247051958,6.9812303248497e-06,-6.0601636936174e-06,-0.0009935172349431,0.00099442846389075,2.7863462136514e-07,6.5084490215829e-07,-0.0010454131786586,0.0010505256184576,-0.0010452402681749,0.0010506502297258,-0.0010497445609357,0.0010461835907516,-0.0010496376945453,0.0010462856160039,-0.0011095059505973,0.001097691695816,-0.0010966130431349,0.0011105030052781,0.0035488633836336,0.0035899482546065,0.75029973813353,1473840,32975,0.006179378635131,0.0061794089205335,0.0041350383028148,21.365405013635,8.612324010908e-05,8.612324010908e-05,8.612324010908e-05,1527929.9674735,0.01663080022558
27043200,0.99995287289668,0.01673694373202,0.0059110126058252,0.0059110388104061,0.0049148923157891,-0.0014881326661043,0.0014879458377068,-6.6095931787783e-06,6.4032677279039e-06,-3.610935755431e-07,2.3185021863925e-07,-0.0015592519387504,0.001554554564044,-0.0015549479740906,0.0015588360860175,-0.0015591165711471,0.0015547236312875,-0.0015547335937658,0.0015590911417194,-0.0013340632692864,0.0013211741215594,-0.0013212052976924,0.0013340234028925,5.2482862648156e-07,-6.4627785840637e-08,4.5958548776144e-07,9.0017266478593e-08,-0.0014877954201152,0.001488297698368,-0.0015565260542689,0.001557334531778,-0.0015566142673367,0.0015572051034923,-0.0015566622962604,0.0015571137463445,-0.0015568248168912,0.0015569691436654,-0.0013272124562136,0.0013279403004289,-0.0013276244534596,0.001327608616405,-0.0014882986541925,0.0014892357860962,-0.0014889092840731,0.0014885428946864,6.981234594178e-06,-6.0630747568175e-06,-0.00099368895641207,0.00099459738264706,2.7838939399161e-07,6.484087488951e-07,-0.0010455365412272,0.0010506478989037,-0.0010453643608006,0.0010507717454772,-0.0010498689043203,0.0010463048441482,-0.0010497627745848,0.0010464061505054,-0.0011097341118084,0.0010979131292986,-0.0010968380182039,0.0011107273350668,0.0035496956123398,0.0035897933390088,0.74711819950854,1473840,32975,0.0061805204517479,0.0061805503465572,0.0041357449612803,21.555381915441,8.7643055323522e-05,8.7643055323522e-05,8.7643055323522e-05,1529902.3055007,0.016633839250171
27129600,0.99995398051837,0.016736961588708,0.0059110189415711,0.005911045146153,0.0049148975009843,-0.0014883991519489,0.0014882177277036,-6.6083948839981e-06,6.4075427325911e-06,-3.5853111608613e-07,2.3459080530238e-07,-0.0015596236072965,0.0015549305686478,-0.0015553186443101,0.0015592130140188,-0.0015594883230974,0.0015550998133693,-0.0015551043533493,0.0015594684482605,-0.0013341991341571,0.0013213123105912,-0.0013213378583606,0.0013341645583226,5.2402116631397e-07,-6.5600502748186e-08,4.5716664637838e-07,9.1084170411072e-08,-0.0014880652554949,0.0014885659432771,-0.0015569009993126,0.0015577068686641,-0.0015569881117863,0.001557578507144,-0.0015570373336485,0.0015574860090351,-0.0015571988537515,0.0015573424911194,-0.0013273515403666,0.0013280747526738,-0.0013277602374069,0.0013277462795975,-0.0014885029705851,0.001489439780046,-0.0014891141643831,0.0014887467458447,6.9863339564461e-06,-6.0610545038652e-06,-0.00099386214883842,0.00099477748635676,2.8361315197065e-07,6.5014520076313e-07,-0.0010456510137668,0.0010507713341069,-0.0010454798845839,0.0010508938359447,-0.0010499842817525,0.0010464271822808,-0.0010498792634129,0.001046527225346,-0.0011099676971779,0.001098149491616,-0.0010970685334486,0.0011109667875923,0.0035505207021195,0.0035896415550661,0.74375507024815,1473840,32975,0.0061816354495201,0.0061816647319773,0.0041364777343508,21.745359127225,8.9162873017794e-05,8.9162873017794e-05,8.9162873017794e-05,1532050.8062768,0.016636850042291
27216000,0.99995507463032,0.016736979143445,0.0059110251717939,0.0059110513763755,0.004914902595276,-0.0014886619633719,0.0014884811152723,-6.6105900352637e-06,6.4103930278233e-06,-3.5778322243729e-07,2.343554388895e-07,-0.0015599966192281,0.0015553027006874,-0.0015556899343477,0.00155958697935,-0.0015598615474585,0.0015554717148469,-0.0015554760787239,0.0015598419763435,-0.0013343262860895,0.0013214351606747,-0.0013214603428421,0.0013342919560476,5.1809902374965e-07,-7.068817771384e-08,4.5042936131208e-07,8.6712015276631e-08,-0.0014883337780474,0.0014888234567739,-0.001557279389075,0.001558073382744,-0.0015573658221864,0.0015579456832134,-0.0015574155844984,0.0015578527282502,-0.0015575762465203,0.0015577100661834,-0.0013274831765706,0.0013281929564005,-0.0013278893496679,0.0013278672588762,-0.0014887039759221,0.0014896294692599,-0.0014893141825659,0.001488937591506,6.9878166280506e-06,-6.0647074143953e-06,-0.00099404477859257,0.0009949579511441,2.836358537493e-07,6.4788708603566e-07,-0.001045765818318,0.0010508864695253,-0.0010455954506153,0.0010510083543542,-0.001050100821997,0.0010465405523893,-0.0010499965451347,0.0010466398924291,-0.0011102147917023,0.0010983888124863,-0.0010973106855913,0.0011112111879114,0.0035513382188055,0.0035894928367828,0.74026139433312,1473840,32975,0.0061827253020686,0.0061827542466402,0.0041372307204633,21.935336553404,9.0682692427234e-05,9.0682692427234e-05,9.0682692427234e-05,1534349.4051176,0.016639830520122
27302400,0.99995615303894,0.016736996431639,0.0059110313075699,0.0059110575121508,0.0049149076119178,-0.0014888601899428,0.0014886730783302,-6.6151041911899e-06,6.4086020743128e-06,-3.5986961995428e-07,2.3025688208063e-07,-0.0015603095503884,0.001555608938291,-0.001556001826473,0.0015598943165269,-0.0015601748029079,0.0015557773836038,-0.0015557887660587,0.0015601483470501,-0.0013343829476001,0.0013214826953582,-0.0013215148253908,0.001334341753329,5.1890255891671e-07,-6.7855879116574e-08,4.5039913021656e-07,9.0047697224426e-08,-0.0014885270844926,0.0014890202244112,-0.0015575880533632,0.0015583837298816,-0.0015576734145493,0.0015582570756011,-0.0015577237341082,0.0015581638064196,-0.0015578830900641,0.0015580223031886,-0.0013275350845224,0.0013282454869827,-0.0013279377871777,0.0013279231090211,-0.0014888267178519,0.0014897547262298,-0.0014894342413116,0.0014890648453502,6.9888470167581e-06,-6.0664352611105e-06,-0.00099417938231517,0.00099509187629765,2.8497668474475e-07,6.4587673231941e-07,-0.0010458235744818,0.0010509456410431,-0.0010456545431346,0.0010510664207944,-0.0010501595511303,0.0010465987918268,-0.0010500563318832,0.0010466971062406,-0.0011104134138634,0.0010985831850327,-0.001097506881153,0.0011114080331286,0.0035519021079791,0.0035893471278813,0.73966765846309,1473840,32975,0.0061835336311693,0.0061835623362583,0.0041377873160851,22.094083572675,9.1952668581395e-05,9.1952668581395e-05,9.1952668581395e-05,1536689.2259163,0.016642039013921
27388800,0.99995721306633,0.016737013529864,0.0059110373735022,0.0059110635780822,0.0049149125782798,-0.0014891308587661,0.0014889431209646,-6.6168211162028e-06,6.4094040552149e-06,-3.58986309909e-07,2.2912897568728e-07,-0.0015606073517721,0.0015559058699756,-0.0015562991782516,0.0015601922996061,-0.0015604728234876,0.0015560736793209,-0.0015560864606156,0.0015604454860826,-0.0013345681125036,0.0013216639101838,-0.0013216981178693,0.0013345263963944,5.1339620268214e-07,-7.1310034611774e-08,4.4472967646513e-07,8.5618889812378e-08,-0.0014888023760872,0.0014892857438652,-0.0015578915118891,0.0015586749873576,-0.0015579753040691,0.0015585491289796,-0.0015580266435664,0.0015584567044409,-0.001558184799163,0.0015583153396459,-0.0013277250828734,0.0013284259456925,-0.0013281263060693,0.0013281033543139,-0.0014891220312547,0.0014900404262254,-0.0014897262450891,0.001489350614432,6.9874118716572e-06,-6.0700666119663e-06,-0.00099428259185448,0.00099519060763777,2.8359435893397e-07,6.4314780131723e-07,-0.001045912313419,0.0010510311034158,-0.0010457439819052,0.0010511515202561,-0.0010502491053463,0.0010466838217377,-0.001050146747825,0.0010467820380092,-0.0011106078988581,0.0010987707297037,-0.0010976999520392,0.0011115971234034,0.003552650084859,0.0035892043837009,0.74421442319759,1473840,32975,0.0061846530641262,0.0061846819734506,0.0041382081076015,22.211641207686,9.2893129661489e-05,9.2893129661489e-05,9.2893129661489e-05,1536395.2468504,0.016644743135921
27475200,0.99995825468296,0.016737030354225,0.0059110433417033,0.0059110695462826,0.0049149174662389,-0.0014896681020991,0.0014894819747933,-6.6190034484721e-06,6.4131674692273e-06,-3.5914481993884e-07,2.3101446356912e-07,-0.0015609826832356,0.001556280263428,-0.001556672683812,0.0015605685390897,-0.0015608476797921,0.0015564486145673,-0.0015564591504663,0.001560822577775,-0.0013352223900961,0.0013223141826729,-0.0013223462130088,0.0013351830914165,5.1411240786959e-07,-7.2629850502187e-08,4.4929606638293e-07,8.0539730717923e-08,-0.0014893406652464,0.0014898235076194,-0.0015582646140618,0.0015590512839596,-0.001558351377529,0.0015589223782669,-0.0015584002317748,0.0015588324921773,-0.0015585616975269,0.0015586877131902,-0.0013283729984744,0.0013290826636349,-0.0013287842785816,0.001328750201052,-0.0014898218216982,0.0014907391112179,-0.0014904287492739,0.001490046510644,6.9906258913473e-06,-6.072819001334e-06,-0.00099444396488169,0.00099535255610096,2.7906368011783e-07,6.4823275410486e-07,-0.0010462406080549,0.0010513588810485,-0.001046069054812,0.00105148244904,-0.0010505794472124,0.0010470096099442,-0.0010504738962687,0.0010471110336753,-0.0011108325057274,0.0010989930697089,-0.0010979185900635,0.0011118254867005,0.0035542647104576,0.003589064521265,0.74522273507361,1473840,32975,0.0061868796806559,0.0061869084976437,0.004138884562681,22.326772170365,9.3814177362918e-05,9.3814177362918e-05,9.3814177362918e-05,1531560.7502874,0.01664995932499
27561600,0.9999592780114,0.016737046911416,0.0059110492145242,0.0059110754191024,0.0049149222777897,-0.0014899881925569,0.0014898009579037,-6.6214303931474e-06,6.414480129623e-06,-3.5948171357135e-07,2.3020604471881e-07,-0.0015612743102329,0.0015565696885168,-0.0015569630076227,0.0015608592230111,-0.001561139432806,0.0015567379343978,-0.0015567496835851,0.0015611130632247,-0.001335542081188,0.0013226290193952,-0.0013226622162981,0.0013355012922246,5.1484343162817e-07,-7.1428038825267e-08,4.5181150627671e-07,7.996987486429e-08,-0.0014896592514643,0.0014901440226536,-0.0015585538006148,0.0015593433523735,-0.0015586416955519,0.001559213344657,-0.0015586893118588,0.0015591246154742,-0.0015588517862008,0.001558978903717,-0.0013286877093186,0.0013294021585921,-0.0013291017079314,0.0013290669193464,-0.0014901850099739,0.0014911024220229,-0.0014907912329459,0.0014904106530632,6.9932928906978e-06,-6.0739334516073e-06,-0.00099454396123762,0.00099545400100712,2.7825822685056e-07,6.5052457666704e-07,-0.0010463957024228,0.0010515155482162,-0.0010462230830179,0.0010516401855692,-0.0010507357566812,0.0010471650256594,-0.0010506291684114,0.0010472674496026,-0.0011109801939365,0.0010991396221461,-0.0010980624708779,0.0011119756467323,0.0035551643606015,0.0035889274830071,0.74641612946302,1473840,32975,0.0061882022487876,0.0061882311232036,0.0041393049893299,22.441684474923,9.4733475799379e-05,9.4733475799379e-05,9.4733475799379e-05,1530144.9461762,0.016653076314447
27648000,0.99996028319032,0.016737063206225,0.0059110549935926,0.00591108119817,0.0049149270144627,-0.0014903079002219,0.0014901214823126,-6.6225624751089e-06,6.4164331917482e-06,-3.5895480277608e-07,2.304872450336e-07,-0.0015615646342053,0.0015568598509629,-0.0015572522861387,0.0015611504542957,-0.0015614297907699,0.0015570280404567,-0.0015570390670833,0.0015614041718183,-0.0013358594190897,0.0013229441453009,-0.0013229766444796,0.0013358193821118,5.1456356824875e-07,-7.1477114622271e-08,4.5277493496197e-07,7.8633914895362e-08,-0.0014899795649938,0.0014904639783413,-0.0015588439139578,0.0015596338383592,-0.0015589325966175,0.001559503016913,-0.0015589794005335,0.0015594151342371,-0.0015591425936688,0.0015592686800615,-0.0013290031066044,0.0013297194607466,-0.0013294192118417,0.0013293819456905,-0.0014905505525351,0.0014914665314692,-0.0014911563651726,0.0014907750795815,6.995034227884e-06,-6.0753023159823e-06,-0.00099464174315552,0.00099555216687076,2.773268393261e-07,6.5188476653221e-07,-0.0010465509200793,0.0010516714110225,-0.0010463775591823,0.0010517968152534,-0.001050892009215,0.0010473198439818,-0.0010507846710449,0.0010474230370395,-0.0011111261391288,0.0010992836691859,-0.0010982053989561,0.0011121226990396,0.0035560654091499,0.003588793211929,0.7478212122634,1473840,32975,0.0061895271779762,0.0061895561290694,0.0041397140816262,22.55657574697,9.5652605975756e-05,9.5652605975756e-05,9.5652605975756e-05,1528680.7281426,0.01665618663611
27734400,0.99996127036258,0.016737079245022,0.0059110606811254,0.0059110868857021,0.0049149316781942,-0.0014906285567819,0.0014904425174837,-6.6236251759783e-06,6.4178719238034e-06,-3.5891595234694e-07,2.3084296154286e-07,-0.0015618542094617,0.0015571488975354,-0.0015575410592986,0.0015614402829661,-0.0015617193097187,0.0015573171643682,-0.0015573276915552,0.0015616941563681,-0.0013361802262794,0.0013232628589774,-0.0013232947946945,0.0013361406063884,5.148204458663e-07,-7.1530377468157e-08,4.5399010103781e-07,7.7672066205385e-08,-0.0014903002792533,0.0014907849351288,-0.001559132656027,0.001559923621768,-0.0015592220232271,0.0015597921251443,-0.0015592682053216,0.0015597048490156,-0.0015594321595876,0.0015595576452273,-0.0013293215654053,0.0013300402535438,-0.0013297399562292,0.001329700634918,-0.0014909165615787,0.00149183241966,-0.0014915228572696,0.001491140581335,6.9965584995466e-06,-6.0763003890613e-06,-0.00099473589276424,0.00099564682104075,2.764738388328e-07,6.5321589683256e-07,-0.0010467073617794,0.0010518284700329,-0.0010465332510477,0.0010519546048143,-0.0010510492892002,0.0010474760762642,-0.0010509412274012,0.0010475799797651,-0.0011112648729681,0.0010994211643173,-0.0010983415953714,0.0011122627351451,0.0035569670283575,0.0035886616527262,0.74946700345015,1473840,32975,0.0061908550759929,0.0061908839841305,0.0041401084092685,22.671465063564,9.6571720508511e-05,9.6571720508511e-05,9.6571720508511e-05,1527154.264665,0.016659287897841
27820800,0.99996223967402,0.016737095034445,0.0059110662794335,0.0059110924840095,0.004914936271002,-0.0014909484774149,0.0014907663294721,-6.6233768493533e-06,6.4214843904224e-06,-3.5801305668881e-07,2.3393455641909e-07,-0.0015621425940081,0.0015574397757353,-0.0015578285508841,0.0015617316879171,-0.0015620078381225,0.001557608607184,-0.0015576141685486,0.0015619868566791,-0.0013365046294462,0.0013235875705974,-0.0013236143923576,0.0013364688686361,5.1776900326823e-07,-7.0745016551423e-08,4.5780435094868e-07,7.8001457145482e-08,-0.0014906202009832,0.0014911089397816,-0.0015594192452703,0.0015602161235118,-0.0015595096498999,0.0015600839373773,-0.0015595550216411,0.0015599965222097,-0.0015597207349168,0.0015598482500087,-0.0013296415338874,0.0013303672528339,-0.0013300647481223,0.0013300246063252,-0.0014912815388264,0.0014922027377698,-0.00149189137056,0.001491508689207,6.9970382143415e-06,-6.0791764044681e-06,-0.00099482695147759,0.00099573537328965,2.7327606885256e-07,6.5347875230433e-07,-0.0010468638167977,0.0010519824584765,-0.0010466882544027,0.0010521096689364,-0.001051206801563,0.0010476290695345,-0.0010510977443376,0.0010477339761262,-0.0011113962271791,0.0010995479608659,-0.0010984693362864,0.0011123928570694,0.0035578687533738,0.0035885327513344,0.75137668600173,1473840,32975,0.0061921871413631,0.0061922164505372,0.0041404837321459,22.786354309817,9.7490834478531e-05,9.7490834478531e-05,9.7490834478531e-05,1525556.4162338,0.016662378799705
27907200,0.9999631912733,0.016737110581091,0.0059110717908147,0.0059110979953898,0.0049149407948866,-0.0014912674647023,0.0014910899812819,-6.6225962309654e-06,6.4253365967957e-06,-3.5705054736198e-07,2.37657849459e-07,-0.0015624283878559,0.0015577287482438,-0.0015581135683264,0.0015620212361002,-0.0015622936020515,0.0015578983593211,-0.0015578981185861,0.001562277774165,-0.0013368298159861,0.0013239144392921,-0.0013239355702589,0.0013367990747758,5.2321573641385e-07,-6.8041847434619e-08,4.6434922572225e-07,7.9966111778235e-08,-0.0014909375432855,0.0014914347105624,-0.0015597013165547,0.0015605091998271,-0.0015597933567576,0.0015603756962666,-0.0015598376207976,0.0015602883582972,-0.0015600054263869,0.0015601386201314,-0.0013299608191807,0.0013306988327929,-0.0013303896389369,0.0013303518453585,-0.0014916433484936,0.0014925743738016,-0.0014922568869579,0.0014918776683899,6.9988187146124e-06,-6.0803491522245e-06,-0.00099491331370668,0.00099582232409513,2.7126794328857e-07,6.5585803529204e-07,-0.0010470217728284,0.0010521406159743,-0.0010468444937729,0.0010522690855685,-0.0010513657019004,0.0010477863113067,-0.0010512553394918,0.0010478925016221,-0.0011115198642137,0.001099670679637,-0.0010985898480577,0.001112518428108,0.0035587682048148,0.0035884064548131,0.75355984746043,1473840,32975,0.0061935168808849,0.0061935471711718,0.0041408460547262,22.901243675861,9.8409949406888e-05,9.8409949406888e-05,9.8409949406888e-05,1523854.0123467,0.016665452380854
27993600,0.99996412531175,0.016737125891157,0.0059110772174244,0.0059111034219994,0.0049149452517332,-0.0014915914701397,0.0014914133496855,-6.6240960224029e-06,6.4262209845076e-06,-3.5937077052958e-07,2.3936398853076e-07,-0.0015627164129071,0.0015580139779556,-0.0015584008703455,0.0015623074243649,-0.001562580340806,0.0015581850081141,-0.001558184145373,0.0015625652559376,-0.0013371606865007,0.0013242438101922,-0.0013242644141061,0.0013371308267357,5.2312527521751e-07,-7.219097032441e-08,4.6513897688533e-07,7.5029644077876e-08,-0.0014912633487052,0.0014917562621931,-0.0015599884259425,0.0015607952797325,-0.0015600823482734,0.0015606598200881,-0.0015601261718454,0.0015605730430854,-0.0015602957529397,0.0015604213732704,-0.0013302911476208,0.001331029168769,-0.0013307253554378,0.001330676545583,-0.001492013917036,0.0014929425443061,-0.0014926314316765,0.0014922421840461,6.9994125864061e-06,-6.0821744907886e-06,-0.00099499351911433,0.00099590146613577,2.6789938964189e-07,6.5823292420202e-07,-0.0010471828984307,0.0010522996495993,-0.0010470036278214,0.0010524299295681,-0.0010515276674573,0.001047944477151,-0.0010514153351116,0.0010480526170343,-0.0011116344766804,0.0010997838878157,-0.0010987022927241,0.001112633861897,0.0035596677375829,0.0035882827112166,0.75600933333941,1473840,32975,0.0061948563532453,0.0061948866083432,0.0041411795110547,23.016133180989,9.9329065447909e-05,9.9329065447909e-05,9.9329065447909e-05,1522094.0040913,0.016668515413336
28080000,0.99996504116124,0.016737140957306,0.0059110825566461,0.0059111087612207,0.0049149496394395,-0.0014918971330916,0.001491699924152,-6.6349318536346e-06,6.417802509004e-06,-3.6981633192447e-07,2.3075092376713e-07,-0.0015629837884249,0.0015582608776474,-0.0015586673302001,0.0015625551803022,-0.0015628468944077,0.0015584324810257,-0.0015584499733906,0.0015628134481914,-0.0013374772917031,0.0013245396761029,-0.001324578874743,0.0013374288865657,5.2852349747234e-07,-6.8601920665473e-08,4.7229010321672e-07,7.681026061166e-08,-0.0014915550345687,0.0014920568970438,-0.0015602399487138,0.0015610580600174,-0.0015603357266345,0.0015609208368632,-0.0015603782848553,0.0015608352664695,-0.0015605495326181,0.001560681906825,-0.0013305908367954,0.0013313424025307,-0.0013310300870978,0.0013309846102543,-0.0014923507389162,0.0014932880677348,-0.0014929698499999,0.0014925860276546,7.0013263552666e-06,-6.0827093153176e-06,-0.00099504377202893,0.00099595313501036,2.6594245135734e-07,6.61623826202e-07,-0.001047320701388,0.0010524379279365,-0.001047139663443,0.0010525700420899,-0.0010516663973813,0.0010480820427521,-0.0010515523444271,0.0010481919696739,-0.0011117146876868,0.0010998650257297,-0.0010987800130829,0.0011127170697717,0.0035604534441574,0.0035881614652467,0.75870344000118,1473840,32975,0.00619608161268,0.0061961120400731,0.0041413938675782,23.11678169412,0.00010013425355296,0.00010013425355296,0.00010013425355296,1520211.4188543,0.016671225373967
28166400,0.99996593810077,0.016737155769687,0.0059110878049645,0.005911114009539,0.0049149539551831,-0.0014921512052312,0.0014919703880988,-6.6263338866655e-06,6.4256145218722e-06,-3.6329874304031e-07,2.4060454334445e-07,-0.0015631972811142,0.0015584899849914,-0.0015588811341129,0.001562783898082,-0.0015630592019732,0.0015586626415755,-0.001558662703609,0.0015630432357761,-0.0013377446836242,0.0013248253815386,-0.0013248470687439,0.0013377138937554,5.3253221275089e-07,-6.7861838104075e-08,4.7717036704424e-07,7.655690155737e-08,-0.001491814936227,0.0014923214247745,-0.0015604574861729,0.0015612828985529,-0.0015605548722322,0.001561143952367,-0.0015605970100161,0.0015610591364059,-0.0015607698852373,0.0015609039723619,-0.0013308632211987,0.0013316234027307,-0.0013313075611611,0.0013312605048974,-0.0014926541819029,0.0014935977965271,-0.0014932763636786,0.0014928923215349,7.0015690480594e-06,-6.081701721616e-06,-0.00099506079630168,0.00099597140550541,2.640234033762e-07,6.6483449668331e-07,-0.0010474316470906,0.0010525481386148,-0.001047248923183,0.001052681966502,-0.0010517770185504,0.0010481924408737,-0.0010516612597108,0.0010483041295906,-0.001111755335165,0.0010999093144192,-0.001098821422174,0.0011127607329074,0.0035611008592862,0.003588042661866,0.76161261440317,1473840,32975,0.0061971666534834,0.006197196859764,0.0041414700139186,23.200147706428,0.00010080118165143,0.00010080118165143,0.00010080118165143,1518202.8901803,0.016673509334662
28252800,0.99996681634856,0.01673717033304,0.0059110929640402,0.0059111191686144,0.0049149582003853,-0.0014924098758441,0.0014922324928445,-6.6245952815521e-06,6.4273220326268e-06,-3.6273667175814e-07,2.4342021864244e-07,-0.0015634134819985,0.0015587089007496,-0.001559097407615,0.0015630028691159,-0.0015632746586895,0.0015588822662822,-0.0015588782022338,0.0015632629785241,-0.0013380205800978,0.001325105454585,-0.0013251232328407,0.0013379942329328,5.2601800359478e-07,-7.6706233263374e-08,4.7174482623155e-07,6.635346301859e-08,-0.0014920830703381,0.0014925741042066,-0.0015606816245435,0.0015614939565484,-0.0015607804991056,0.0015613534008593,-0.0015608219446699,0.0015612694476608,-0.0015609962701007,0.0015611126491685,-0.0013311473504869,0.0013318958850432,-0.001331596227165,0.0013315279988212,-0.001492965928044,0.0014938949242923,-0.0014935904129666,0.0014931871911569,7.0013769871644e-06,-6.0818298153866e-06,-0.00099507242838331,0.00099598284975126,2.6158834215421e-07,6.6718482128742e-07,-0.0010475424368148,0.0010526571443984,-0.00104735815983,0.0010527925904177,-0.0010518877627733,0.0010483014820755,-0.0010517704993247,0.0010484147656192,-0.001111787929399,0.0010999432400629,-0.0010988541601905,0.001112794610822,0.0035617374558552,0.0035879262519222,0.76470629355212,1473840,32975,0.0061982438573279,0.0061982741424936,0.0041415208729533,23.282491203303,0.00010145992962642,0.00010145992962642,0.00010145992962642,1516129.5247571,0.016675751975799
28339200,0.99996767617448,0.016737184652225,0.0059110980356017,0.0059111242401757,0.0049149623764477,-0.0014926684299262,0.0014924942911414,-6.6235266071609e-06,6.4294116058514e-06,-3.6188361379498e-07,2.4592401473889e-07,-0.0015636286029087,0.0015589262284357,-0.0015593122201679,0.0015632207300136,-0.0015634892290111,0.0015591003042838,-0.0015590925098418,0.0015634814494786,-0.0013382992745319,0.0013253869665017,-0.0013254014275005,0.0013382769045422,5.2685076748647e-07,-7.7419866478222e-08,4.7383402708425e-07,6.4395777436658e-08,-0.0014923432024852,0.0014928344299239,-0.0015608970564423,0.001561711474073,-0.0015609972053799,0.0015615695060543,-0.0015610378621254,0.0015614864131924,-0.0015612133232469,0.0015613282107803,-0.0013314261751285,0.0013321782187563,-0.0013318783998928,0.0013318058284509,-0.0014932695584762,0.0014941987526658,-0.0014938950903674,0.0014934892911945,7.0022723305621e-06,-6.0819708396645e-06,-0.00099507927660329,0.0009959906189774,2.6019455849269e-07,6.6977512607653e-07,-0.0010476532085465,0.0010527678433144,-0.0010474676056108,0.0010529045206718,-0.0010519989245724,0.0010484118464856,-0.0010518803562067,0.0010485264223207,-0.0011118138992509,0.001099970400987,-0.0010988791463855,0.0011128223917748,0.003562370384271,0.0035878121873576,0.76795495136913,1473840,32975,0.0061993201421983,0.006199350645724,0.0041415542430312,23.364742317992,0.00010211793854393,0.00010211793854393,0.00010211793854393,1514010.5505049,0.01667797512732
28425600,0.99996851785167,0.016737198731518,0.0059111030211806,0.0059111292257545,0.004914966484583,-0.0014929277071312,0.0014927550970518,-6.6230864930247e-06,6.4304870775247e-06,-3.6177781730984e-07,2.4746279478393e-07,-0.00156384373026,0.0015591421677476,-0.0015595271222078,0.0015634368802562,-0.0015637039138593,0.0015593167311899,-0.0015593069171476,0.0015636980026181,-0.0013385807269956,0.0013256696673278,-0.0013256819614752,0.0013385601025794,5.2918490348959e-07,-7.6555799357644e-08,4.7762991476576e-07,6.3878180482125e-08,-0.0014926015034054,0.0014930960073388,-0.0015611099479211,0.0015619295041558,-0.0015612115047213,0.0015617861999644,-0.0015612512425244,0.0015617039734207,-0.0015614280601295,0.0015615443609686,-0.0013317045084524,0.0013324636564229,-0.0013321607303466,0.0013320869643264,-0.0014935706225771,0.0014945030225299,-0.001494197378082,0.0014937919832502,7.0037260044121e-06,-6.0811722910251e-06,-0.0009950818032415,0.00099599538478337,2.5904344395766e-07,6.7313021494211e-07,-0.0010477640857992,0.0010528797425624,-0.0010475770274378,0.0010530179537312,-0.0010521101402009,0.0010485235613611,-0.0010519900406707,0.0010486396672942,-0.0011118330482625,0.0010999927808226,-0.001098897538718,0.0011128453493176,0.0035630002228106,0.0035877004209413,0.77133095137932,1473840,32975,0.0062003958344182,0.0062004259140288,0.0041415724690135,23.446984532289,0.00010277587625831,0.00010277587625831,0.00010277587625831,1511858.9133915,0.016680181037787
28512000,0.9999693416523,0.016737212574624,0.0059111079221136,0.0059111341266871,0.0049149705258229,-0.0014931941090168,0.0014930078008277,-6.6305882961645e-06,6.4241160785608e-06,-3.6933526651045e-07,2.4147858355776e-07,-0.0015640657771071,0.0015593495201801,-0.0015597487117157,0.0015636446935385,-0.0015639253005391,0.0015595246588935,-0.0015595278743946,0.0015639062827745,-0.0013388713181007,0.0013259457779108,-0.0013259706571228,0.0013388366677598,5.2442685157258e-07,-8.2910834052961e-08,4.7463775460375e-07,5.5865746014101e-08,-0.0014928665332238,0.0014933499641065,-0.0015613291078363,0.0015621397124477,-0.0015614323340879,0.0015619947603739,-0.0015614708533934,0.0015619136635524,-0.0015616492678588,0.0015617523064932,-0.0013319905361393,0.0013327432990289,-0.0013324515424305,0.0013323615577412,-0.0014938777221813,0.0014947988746384,-0.0014945054557006,0.0014940859126986,7.0045658586448e-06,-6.0814040665068e-06,-0.00099508207400769,0.00099599606628537,2.5676129451938e-07,6.7578110829284e-07,-0.0010478765057293,0.0010529912321033,-0.0010476878840167,0.0010531311689963,-0.0010522230546495,0.0010486347812446,-0.0010521013052713,0.0010487525420359,-0.0011118481665926,0.0011000094323582,-0.0010989114883858,0.0011128628894669,0.0035636267850626,0.0035875909062483,0.77480850319419,1473840,32975,0.0062014694751291,0.0062014993083528,0.0041415775861387,23.529225905093,0.00010343380724074,0.00010343380724074,0.00010343380724074,1509684.866852,0.016682369639455
28598400,0.99997014784706,0.016737226154677,0.0059111127295809,0.0059111389341539,0.0049149744909426,-0.0014934530776966,0.0014932663389537,-6.6323243199048e-06,6.4254124115249e-06,-3.706036853568e-07,2.4238699027112e-07,-0.0015642803682909,0.0015595618662587,-0.0015599623390066,0.001563858210778,-0.0015641393106685,0.0015597378668229,-0.0015597409877391,0.0015641207126754,-0.0013391558988836,0.0013262277891722,-0.0013262525663809,0.0013391217135716,5.2747074139275e-07,-8.2011723156329e-08,4.7982822532855e-07,5.5037602007361e-08,-0.0014931234765019,0.0014936110912491,-0.0015615399098908,0.0015623574455637,-0.0015616450812193,0.0015622104369338,-0.0015616824055803,0.0015621307364392,-0.0015618627581652,0.0015619671772248,-0.0013322692228448,0.0013330317279369,-0.0013327359479626,0.0013326435513312,-0.0014941752453816,0.0014951004706608,-0.001494804975337,0.00149438521002,7.0070462928383e-06,-6.0820154839832e-06,-0.00099507891162197,0.00099599478887694,2.5474588705046e-07,6.7979936413162e-07,-0.0010479885640399,0.0010531041734602,-0.0010477978839954,0.0010532460296267,-0.0010523362117356,0.0010487466898726,-0.0010522123425393,0.0010488664071111,-0.0011118593246637,0.0011000216630148,-0.0010989198466812,0.0011128778852952,0.0035642501389551,0.0035874835897882,0.77665745886794,1473840,32975,0.0062025397841833,0.0062025707851273,0.0041415715535184,23.611466462853,0.00010409173170282,0.00010409173170282,0.00010409173170282,1507497.7017234,0.016684541574867
28684800,0.99997093670508,0.016737239429866,0.0059111174296608,0.0059111436342349,0.0049149783659706,-0.0014936354495414,0.0014934514278033,-6.631339253516e-06,6.427522682886e-06,-3.6776248268674e-07,2.4187360173269e-07,-0.0015644583357032,0.0015597426663686,-0.0015601394490626,0.0015640398823065,-0.0015643169016591,0.0015599175998185,-0.0015599195573591,0.0015643003411756,-0.0013393326747329,0.0013264068730011,-0.0013264303484072,0.0013393015843882,5.2190808016806e-07,-8.4349333002835e-08,4.7342430464917e-07,5.253503340782e-08,-0.0014933110469263,0.0014937900297834,-0.0015617239650932,0.0015625306863865,-0.0015618280201742,0.0015623842432295,-0.0015618660505216,0.0015623051849849,-0.0015620446254426,0.0015621431505159,-0.0013324544821732,0.001333204487723,-0.0013329160779996,0.0013328209073373,-0.0014943592093103,0.0014952739315715,-0.0014949846503519,0.0014945624802308,7.0103234231115e-06,-6.0801033800024e-06,-0.00099504065655909,0.00099596156526497,2.5936583261791e-07,6.8063980205687e-07,-0.0010480440172054,0.0010531660513652,-0.0010478551169206,0.0010533070565824,-0.001052391864128,0.0010488078145313,-0.0010522690199117,0.001048926552807,-0.0011118229048172,0.0010999867822245,-0.0010988823126401,0.0011128453763149,0.003564608348295,0.0035873784146967,0.77589792975306,1473840,32975,0.0062032996652944,0.0062033286948685,0.0041414252208547,23.693705995456,0.00010474964796365,0.00010474964796365,0.00010474964796365,1506513.3243596,0.016685936078458
28771200,0.99997170849396,0.016737252388732,0.0059111220184767,0.0059111482230504,0.0049149821472049,-0.0014937231273027,0.0014935328906483,-6.6340393042957e-06,6.4239616725486e-06,-3.6977992654404e-07,2.375899284998e-07,-0.0015646067722594,0.0015598858759534,-0.0015602878060021,0.0015641827495019,-0.0015644661755702,0.001560060018306,-0.001560068732934,0.0015644423223583,-0.001339355635466,0.0013264240206603,-0.0013264540930531,0.0013393169511634,5.2395692333445e-07,-8.0164633752054e-08,4.755016200067e-07,5.6805129665061e-08,-0.0014933925955322,0.0014938779846713,-0.0015618671155641,0.00156267954875,-0.0015619712251216,0.0015625336783418,-0.0015620084435324,0.0015624540563638,-0.0015621866412692,0.0015622931171293,-0.0013324715785936,0.0013332260189773,-0.0013329309262118,0.0013328450167327,-0.0014943854560369,0.0014953045615159,-0.0014950088715074,0.001494596102138,7.0109929883584e-06,-6.0786341862005e-06,-0.00099498817370823,0.00099591102380948,2.6134021081774e-07,6.8046854142697e-07,-0.0010480187646535,0.0010531430597879,-0.0010478304825357,0.0010532834006648,-0.0010523664534565,0.0010487850805895,-0.0010522439986378,0.0010489030232442,-0.001111774508512,0.0010999408944511,-0.001098834724699,0.0011127984091376,0.0035646559826114,0.0035872753328139,0.77417282195945,1473840,32975,0.0062036494724141,0.0062036792540629,0.0041412118064328,23.77594520107,0.00010540756160856,0.00010540756160856,0.00010540756160856,1507119.6337287,0.016686430758111
28857600,0.9999724646201,0.016737265127566,0.0059111265285568,0.005911152733131,0.0049149858658782,-0.0014938434684682,0.0014936612510762,-6.6300262601264e-06,6.4281136927453e-06,-3.6481156200537e-07,2.4041049014689e-07,-0.0015648039350283,0.0015600916579985,-0.0015604847646732,0.0015643885855263,-0.0015646640328123,0.0015602652051541,-0.0015602664738919,0.0015646474141931,-0.0013393900478018,0.0013264658028258,-0.0013264883495402,0.0013393585013039,5.2647747603391e-07,-7.5369734030449e-08,4.7815647481441e-07,6.1758839022581e-08,-0.0014935132261436,0.0014940060659213,-0.0015620654574197,0.0015628841568112,-0.0015621691617959,0.0015627388942002,-0.0015622060840775,0.0015626591358451,-0.0015623837177941,0.001562499142886,-0.001332506234076,0.0013332663098577,-0.0013329633664402,0.0013328881662671,-0.0014944460336302,0.0014953704450216,-0.0014950674565546,0.0014946651353805,7.01033219401e-06,-6.0795116404261e-06,-0.00099499346687922,0.00099591457185239,2.6155234687552e-07,6.7838576881834e-07,-0.0010480209601246,0.0010531443436704,-0.0010478334166305,0.0010532838956159,-0.0010523686412208,0.0010487861804815,-0.0010522468526544,0.0010489032737251,-0.0011118012615672,0.0010999649596276,-0.0010988611713217,0.0011128228038982,0.0035648909547553,0.0035871743269505,0.77679398553822,1473840,32975,0.0062041642737748,0.0062041940772646,0.004141230225437,23.883523072939,0.00010626818458351,0.00010626818458351,0.00010626818458351,1508246.6748922,0.016687495752542
28944000,0.9999732065158,0.016737277483277,0.0059111309058996,0.0059111571104742,0.004914989466903,-0.0014942205108207,0.0014940513562422,-6.6248988219576e-06,6.4360319925059e-06,-3.5865846981226e-07,2.474510560499e-07,-0.0015651455698664,0.0015604458008583,-0.0015608262601406,0.0015647432093018,-0.0015650062106195,0.0015606193366528,-0.0015606073407548,0.0015650029955296,-0.0013397640756049,0.001326848994637,-0.001326858665744,0.0013397464463127,5.2930861054681e-07,-7.3260814708516e-08,4.8235999567921e-07,6.2917775998705e-08,-0.0014938941912154,0.0014943921575529,-0.001562410423303,0.0015632344165352,-0.0015625139745634,0.0015630887975988,-0.00156255086051,0.0015630099811325,-0.0015627295847035,0.0015628484579962,-0.0013328805805684,0.0013336497065152,-0.0013333421177906,0.0013332681297683,-0.001494880687513,0.0014958109761652,-0.0014955044166192,0.0014951037337805,7.0098729910523e-06,-6.0826009202111e-06,-0.00099511025241236,0.00099602827159152,2.58464791742e-07,6.7821872132429e-07,-0.0010482171007308,0.0010533376085607,-0.0010480282311117,0.0010534778946229,-0.0010525654951919,0.0010489786757346,-0.0010524432552491,0.0010490967495316,-0.0011119741536833,0.0011001324771153,-0.0010990313279334,0.00111299315789,0.003566033093311,0.0035870753115723,0.76796934750288,1473840,32975,0.0062057517462549,0.0062057813605133,0.0041417119105196,24.019409853782,0.00010735527883026,0.00010735527883026,0.00010735527883026,1506344.8135329,0.01669121368831
29030400,0.99997393435277,0.016737289461671,0.0059111351523357,0.0059111613569099,0.0049149929524254,-0.0014941333145647,0.001493955757439,-6.6277290769444e-06,6.4306777852868e-06,-3.6025385277794e-07,2.4018050879181e-07,-0.0015652924385787,0.0015605855632353,-0.0015609724453303,0.0015648831407607,-0.0015651527597861,0.0015607577733155,-0.0015607562927758,0.0015651396337257,-0.0013394601496268,0.0013265409827467,-0.0013265596747734,0.0013394318475371,5.2085354354164e-07,-7.6361889690951e-08,4.7113633510019e-07,6.160263697352e-08,-0.0014938085335491,0.00149429432011,-0.0015625616983721,0.0015633705798983,-0.0015626640525798,0.0015632265161797,-0.0015627011957516,0.0015631463472641,-0.0015628763118359,0.001562988609973,-0.0013325845507733,0.0013333312127254,-0.0013330333050512,0.0013329604845509,-0.0014945810459286,0.0014954953036476,-0.0014951966020558,0.0014947955012506,7.0133553656208e-06,-6.0774291198407e-06,-0.00099511977069034,0.00099604524389932,2.6751997222513e-07,6.7722683721837e-07,-0.001048085931902,0.0010532161087488,-0.0010479016242935,0.0010533536914734,-0.0010524341479788,0.001048857176123,-0.0010523139944368,0.0010489721371395,-0.0011119882907807,0.0011001534015096,-0.0010990473937907,0.0011130128486491,0.0035656443318827,0.0035869782456074,0.75893550937896,1473840,32975,0.0062053744866002,0.0062054026546546,0.004141762231107,24.156979605868,0.00010845583684694,0.00010845583684694,0.00010845583684694,1512294.8145565,0.016690494297141
29116800,0.99997464823481,0.016737301116949,0.0059111392859381,0.0059111654905122,0.0049149963404987,-0.0014940517387955,0.0014938652366092,-6.6313796523815e-06,6.4250264043197e-06,-3.617535238804e-07,2.3225407677723e-07,-0.0015654715941009,0.0015607586747461,-0.0015611519711998,0.0015650559603102,-0.0015653331965131,0.0015609288768985,-0.0015609381294663,0.0015653097327919,-0.001339114453252,0.0013261874451125,-0.0013262173019769,0.0013390746926683,5.1809701734535e-07,-7.2844603962616e-08,4.6492981674677e-07,6.8887170467522e-08,-0.0014937222208629,0.0014942089128266,-0.0015627407830727,0.0015635447583663,-0.0015628392947755,0.0015634044312066,-0.0015628787907326,0.0015633219684967,-0.001563048932895,0.0015631691820402,-0.0013322400510537,0.0013329754877966,-0.0013326743535697,0.0013326188939428,-0.0014942900266446,0.0014952019037038,-0.0014948982784371,0.0014945109391767,7.0114734675991e-06,-6.0776319499161e-06,-0.00099517467029971,0.0009960978183767,2.7317654393416e-07,6.6934230782863e-07,-0.0010479290065898,0.0010530609116749,-0.001047749701563,0.0010531941330342,-0.0010522767849832,0.0010487023141478,-0.0010521609151953,0.0010488127623624,-0.0011120939033312,0.0011002542707648,-0.0010991546053543,0.0011131113488043,0.0035653294218645,0.0035868831018841,0.75302567647154,1473840,32975,0.006205019808184,0.0062050487573386,0.0041419806890943,24.294703707809,0.00010955762966247,0.00010955762966247,0.00010955762966247,1518543.4703563,0.016689994040205
29203200,0.99997534826292,0.016737312549216,0.005911143340207,0.0059111695447824,0.004914999664227,-0.0014941165971023,0.0014939272641413,-6.6334624040817e-06,6.4241196854398e-06,-3.6063435192989e-07,2.284480537994e-07,-0.0015657195116446,0.0015610055076776,-0.0015613998152333,0.0015653028475033,-0.001565583448971,0.0015611738103057,-0.0015611874564501,0.0015655553093685,-0.0013389670971412,0.0013260330107371,-0.0013260682002288,0.0013389226469878,5.1585955056161e-07,-7.0106382277115e-08,4.6076273394511e-07,7.3813034729515e-08,-0.0014937853436767,0.0014942727479029,-0.0015629902296248,0.0015637898570066,-0.0015630853368021,0.0015636529660476,-0.0015631260591669,0.0015635688387662,-0.0015632936246652,0.0015634189933145,-0.0013320920870019,0.0013328216327812,-0.0013325188965732,0.0013324742709167,-0.0014942355078033,0.0014951463713877,-0.0014948395700708,0.0014944597242487,7.0114824070144e-06,-6.0782973596544e-06,-0.0009952770449915,0.00099619980727596,2.773279888853e-07,6.6438509138692e-07,-0.0010478688100525,0.0010530035642245,-0.0010476919220107,0.0010531336133426,-0.0010522163828593,0.0010486450539072,-0.0010521040780558,0.0010487523088258,-0.0011122813324321,0.0011004371988679,-0.0010993408452705,0.0011132945282287,0.0035655205441784,0.0035867898666094,0.75331736097777,1473840,32975,0.0062052836555867,0.0062053127532141,0.0041424026645676,24.432444001423,0.00011065955201138,0.00011065955201138,0.00011065955201138,1522468.1835208,0.01669095848721
29289600,0.99997603454086,0.016737323636319,0.0059111472743383,0.0059111734789145,0.0049150028830658,-0.0014944966104372,0.0014943036380332,-6.6380474575035e-06,6.4248591189358e-06,-3.6190649510003e-07,2.2680429772411e-07,-0.0015660934292585,0.001561375148384,-0.0015617728412254,0.0015656730816291,-0.0015659593012299,0.0015615426149754,-0.0015615598442532,0.0015659263584229,-0.0013392967915639,0.0013263501288216,-0.0013263903656307,0.0013392481763459,5.1589785492255e-07,-6.9493310239809e-08,4.6355438018462e-07,7.1732907612515e-08,-0.0014941629604262,0.0014946512017863,-0.00156336054923,0.0015641609412449,-0.0015634560386432,0.0015640241024424,-0.0015634948379591,0.0015639410157297,-0.0015636652315415,0.0015637890553384,-0.0013324118467304,0.0013331487763797,-0.0013328473949953,0.0013327967183689,-0.0014946724663314,0.001495583808601,-0.0014952786453239,0.0014948947173385,7.0114811218207e-06,-6.082981453872e-06,-0.00099544246166779,0.00099636127954353,2.7241748287845e-07,6.6432996807022e-07,-0.0010480359631277,0.0010531674262976,-0.0010478565777785,0.0010532984492903,-0.0010523849219014,0.0010488078037781,-0.0010522721664344,0.0010489166648642,-0.0011125508012932,0.0011006991884702,-0.0010996052561934,0.001113560209056,0.003566716289674,0.0035866984673053,0.74531805297452,1473840,32975,0.0062068494338066,0.0062068778731102,0.0041430837641796,24.570184944427,0.00011176147955541,0.00011176147955541,0.00011176147955541,1521193.1529691,0.016694834347612
29376000,0.99997670717577,0.016737334428272,0.0059111511051231,0.005911177309698,0.0049150060134508,-0.0014944362129153,0.0014942476603863,-6.6359970074658e-06,6.427756552287e-06,-3.5650966890604e-07,2.2502235926893e-07,-0.0015662577628251,0.0015615444759146,-0.0015619358193294,0.0015658440995391,-0.0015661239167586,0.0015617103582593,-0.0015617258744477,0.0015660939336957,-0.0013390099544438,0.0013260684070008,-0.0013261050260478,0.001338964067995,5.133881450594e-07,-6.4802716764779e-08,4.5839432329237e-07,7.8914850326124e-08,-0.001494103896467,0.0014945940129124,-0.0015635296737104,0.0015643269717797,-0.0015636224335231,0.0015641926693222,-0.0015636629144727,0.0015641085887357,-0.0015638281599984,0.0015639613155633,-0.0013321323389468,0.0013328597510888,-0.001332551792347,0.0013325199404835,-0.0014944215229611,0.0014953300390009,-0.0014950183252803,0.0014946508078561,7.013245023046e-06,-6.0826115816009e-06,-0.00099552844371947,0.00099644844602114,2.7959333480934e-07,6.5958508412138e-07,-0.0010479472945681,0.0010530834739478,-0.0010477726499171,0.0010532112087093,-0.0010522968055489,0.0010487228574985,-0.0010521868843807,0.001048827357955,-0.001112682671975,0.0011008272291338,-0.0010997359540175,0.0011136911843564,0.0035665384039973,0.0035866088785101,0.74020398273492,1473840,32975,0.0062066099393594,0.0062066386340787,0.0041434389245396,24.707926692733,0.00011286341354186,0.00011286341354186,0.00011286341354186,1527155.839616,0.016694707047455
29462400,0.99997736627812,0.016737344846441,0.0059111548061642,0.0059111810107395,0.0049150090295368,-0.0014945209960353,0.0014943339903847,-6.6359026203098e-06,6.4291772527257e-06,-3.5320600062428e-07,2.2333844941193e-07,-0.0015665106894232,0.0015618003963944,-0.0015621883995123,0.0015661001605678,-0.0015663786879657,0.0015619644546803,-0.001561979860645,0.0015663483298123,-0.0013388940291875,0.0013259503625528,-0.0013259869741901,0.0013388476217767,5.1154077102302e-07,-6.1659735904334e-08,4.5498412785021e-07,8.3281067954084e-08,-0.0014941888745008,0.0014946801950596,-0.0015637855482255,0.0015645794792932,-0.0015638755425463,0.0015644481730351,-0.0015639170559685,0.0015643629229567,-0.0015640797848378,0.0015642184713261,-0.0013320177303892,0.0013327398259567,-0.0013324299877311,0.0013324082790835,-0.0014944031722898,0.0014953106922381,-0.0014949949251334,0.0014946364548849,7.0137862539798e-06,-6.0832919865874e-06,-0.00099564857852281,0.00099656844285731,2.8328209317895e-07,6.5538761039029e-07,-0.00104791066279,0.0010530496835983,-0.0010477384376633,0.0010531747505201,-0.0010522603957805,0.0010486889665769,-0.0010521534434754,0.0010487909008974,-0.0011128912205599,0.0011010318880621,-0.0010999432392553,0.0011138966913708,0.0035668276210355,0.0035865210408001,0.72939125323335,1473840,32975,0.0062069652417316,0.0062069940336322,0.0041439354685054,24.845669198572,0.00011396535358857,0.00011396535358857,0.00011396535358857,1530769.0538889,0.016695933431456
29548800,0.9999780119615,0.016737355009482,0.0059111584172483,0.0059111846218238,0.0049150119704097,-0.0014942639665992,0.001494064744792,-6.6406843867058e-06,6.4215787928052e-06,-3.5240943219613e-07,2.1010324551947e-07,-0.0015666108305927,0.0015618926044116,-0.0015622887490339,0.0015661928509637,-0.0015664815283995,0.0015620528178489,-0.001562085639293,0.0015664354880637,-0.0013382864584976,0.0013253320291787,-0.0013253853850541,0.0013382237650914,5.0696983488039e-07,-5.2227396426154e-08,4.4778665337282e-07,9.5465333234276e-08,-0.0014939234074219,0.0014944194168382,-0.0015638858086631,0.0015646748406478,-0.0015639704672164,0.0015645479373196,-0.0015640128461503,0.001564461380757,-0.0015641686776552,0.0015643237269471,-0.0013314094437533,0.00133212098583,-0.0013317998269884,0.0013318093140072,-0.0014938357615617,0.0014947387372266,-0.0014944108262737,0.0014940800984489,7.0154519840217e-06,-6.0794028133152e-06,-0.00099573209821536,0.00099665657337234,2.956784842608e-07,6.4858684930137e-07,-0.0010476788240192,0.0010528274213297,-0.0010475138684615,0.0010529465895596,-0.0010520282150819,0.0010484672238913,-0.0010519264656631,0.0010485622974711,-0.0011130281630015,0.0011011695562559,-0.0011000818993774,0.0011140324346583,0.003566060910108,0.0035864349488159,0.72638010580167,1473840,32975,0.0062058781070214,0.0062059069636894,0.0041442846968221,24.983411086124,0.00011506728868899,0.00011506728868899,0.00011506728868899,1540261.209566,0.016694075615418
29635200,0.99997864382074,0.016737365010483,0.0059111619693159,0.0059111881738933,0.0049150148672743,-0.0014944289201546,0.0014942311914966,-6.6405733853869e-06,6.4232345906494e-06,-3.4998157740458e-07,2.0985842122183e-07,-0.0015669181895619,0.0015622035276706,-0.0015625973238896,0.0015665025271624,-0.0015667928654243,0.0015623619396155,-0.0015623939742618,0.0015667461873429,-0.0013382088145118,0.0013252487648694,-0.0013253022114487,0.0013381477132213,5.0396716350864e-07,-5.2453545567218e-08,4.4204938969643e-07,9.7412205047943e-08,-0.0014940908324007,0.0014945834082249,-0.0015641980274932,0.0015649766350821,-0.0015642772547182,0.0015648555751421,-0.0015643239549205,0.0015647677452731,-0.0015644774002349,0.0015646312715831,-0.0013313357269043,0.0013320407875101,-0.0013317227650787,0.0013317325574274,-0.001493974299101,0.0014948789053393,-0.0014945506664016,0.0014942174522068,7.0123282657084e-06,-6.0829962269108e-06,-0.00099585522362962,0.00099677508619914,2.9667795279478e-07,6.4181305037952e-07,-0.0010476247117793,0.0010527727111129,-0.0010474612585094,0.0010528883462897,-0.0010519740876533,0.0010484128129164,-0.0010518765588409,0.0010485062973995,-0.0011133206382556,0.0011014539272295,-0.0011003761720456,0.0011143171075984,0.0035665912973879,0.0035863505903706,0.73052670698877,1473840,32975,0.0062065651264354,0.0062065940094055,0.0041447864405217,25.107145614801,0.00011605716491841,0.00011605716491841,0.00011605716491841,1542224.4450202,0.016695982201886
29721600,0.99997926148902,0.016737374845635,0.0059111654611307,0.0059111916657077,0.004915017718797,-0.0014950093768,0.0014948103992971,-6.6416225631898e-06,6.4229808747087e-06,-3.5353055352588e-07,2.1228001581942e-07,-0.0015672989788778,0.0015625808428583,-0.0015629779241313,0.0015668801147832,-0.0015671717411641,0.0015627412250826,-0.0015627725768435,0.0015671257925014,-0.0013389427517579,0.0013259825059884,-0.0013260353781193,0.0013388824233242,5.0600537581833e-07,-5.6412874768693e-08,4.4489801672313e-07,9.2698858955269e-08,-0.0014946716053765,0.0014951623073996,-0.0015645758644542,0.0015653570308171,-0.0015646574845523,0.0015652334754743,-0.0015647036841083,0.0015651461594956,-0.0015648596087851,0.0015650071262802,-0.0013320678803228,0.001332776646876,-0.0013324623514187,0.0013324607423919,-0.0014947474053455,0.0014956536519115,-0.0014953297092595,0.0014949859765599,7.0096299750462e-06,-6.0865297241894e-06,-0.00099600496089229,0.00099691867961891,2.8989818325699e-07,6.4254907914317e-07,-0.0010479773050464,0.0010531169745322,-0.0010478113564186,0.0010532351135167,-0.0010523270048492,0.0010487568010362,-0.0010522269636373,0.0010488527898078,-0.0011135263556468,0.0011016550621196,-0.001100580954643,0.0011145190193819,0.0035683632845263,0.0035862679281672,0.73490037030048,1473840,32975,0.0062089644559211,0.0062089933546887,0.0041454011271386,25.216454099122,0.00011693163279297,0.00011693163279297,0.00011693163279297,1536498.5469131,0.016701487214281
29808000,0.99997986513526,0.016737384518274,0.0059111688939712,0.0059111950985478,0.0049150205257553,-0.0014955668079364,0.0014953646373095,-6.6442382646105e-06,6.4219422552481e-06,-3.5808243200647e-07,2.1387361584883e-07,-0.0015676843860696,0.0015629621978396,-0.0015633639453965,0.0015672605680927,-0.0015675573237095,0.0015631236708967,-0.0015631558052138,0.001567509702595,-0.0013396190309817,0.001326653055317,-0.0013267076739218,0.0013395573300536,5.0663117213219e-07,-6.2092373172504e-08,4.47176818584e-07,8.604701882839e-08,-0.00149522961754,0.0014957159082845,-0.0015649591596178,0.0015657397513439,-0.0015650424855419,0.0015656147339292,-0.0015650875490201,0.0015655273533344,-0.0015652475528485,0.0015653847002255,-0.0013327392784408,0.0013334520003115,-0.001333145499811,0.0013331256058969,-0.0014954931816201,0.0014963996761082,-0.0014960851174279,0.0014957238810095,7.0054613933724e-06,-6.0919389865115e-06,-0.00099615877346652,0.00099706335199782,2.8087460241096e-07,6.4191558303618e-07,-0.0010482891160501,0.0010534178512918,-0.0010481195358323,0.0010535379613083,-0.0010526395827204,0.001049057609152,-0.0010525376403956,0.0010491564155239,-0.0011137497692266,0.0011018702326314,-0.0011008027450282,0.0011147346349758,0.0035700737496312,0.0035861869281085,0.73942726577878,1473840,32975,0.0062112645525139,0.0062112933336357,0.0041460264041407,25.324899936772,0.00011779919949418,0.00011779919949418,0.00011779919949418,1531074.9470779,0.016706801112946
29894400,0.99998045495907,0.016737394030388,0.0059111722685392,0.0059111984731143,0.0049150232887344,-0.0014961003920808,0.0014959066755909,-6.6415228037434e-06,6.4277417447911e-06,-3.5621268167697e-07,2.2047976482691e-07,-0.0015680425349754,0.0015633266106845,-0.001563721265488,0.0015676256819534,-0.0015679143038591,0.0015634890844428,-0.0015635112955611,0.0015678763476057,-0.0013402817455065,0.0013273220328552,-0.0013273666842994,0.0013402305962649,5.1745755044661e-07,-5.5777793646338e-08,4.5706594360146e-07,9.3510901971192e-08,-0.0014957586328219,0.0014962622822901,-0.0015653102640334,0.0015661102051469,-0.0015653940258401,0.001565984604519,-0.0015654399162531,0.0015658965294909,-0.0015656007471894,0.0015657529633514,-0.0013333957826962,0.001334127212787,-0.0013338045852678,0.0013337981986855,-0.0014961960376006,0.0014971236561792,-0.001496793549625,0.0014964429425844,7.0019687692951e-06,-6.0984837037272e-06,-0.00099631193417579,0.00099720672883068,2.7479721013071e-07,6.383175872521e-07,-0.0010486177909079,0.0010537368349937,-0.0010484472631403,0.0010538578905846,-0.001052969128294,0.0010493757074851,-0.0010528664989677,0.001049475334902,-0.0011139592888535,0.0011020670460269,-0.0011010090050639,0.0011149353137406,0.0035717346077352,0.0035861075564105,0.74408179477171,1473840,32975,0.0062134899725749,0.0062135182704683,0.0041466474180679,25.433267564825,0.0001186661405186,0.0001186661405186,0.0001186661405186,1525982.198439,0.016711958506479
29980800,0.99998103116284,0.016737403419591,0.0059111755974477,0.0059112018020206,0.0049150260201228,-0.0014966223543971,0.0014964225007511,-6.6446333171028e-06,6.4245141992729e-06,-3.6263069218283e-07,2.2107316600596e-07,-0.0015683968991296,0.0015636724851268,-0.001564075792261,0.0015679714905134,-0.0015682664344243,0.0015638375565418,-0.001563863411057,0.0015682246725787,-0.0013409273422388,0.0013279634692122,-0.0013280124003572,0.0013408724343106,5.1503936417489e-07,-6.5210787647317e-08,4.5321951840431e-07,8.5751480874812e-08,-0.0014962834591959,0.0014967753389431,-0.001565664236446,0.0015664562775143,-0.001565749583917,0.0015663292995804,-0.0015657963232141,0.0015662400131985,-0.0015659584685295,0.0015660952164056,-0.0013340439359505,0.0013347653181952,-0.0013344570854814,0.0013344336896592,-0.0014968830572401,0.0014978040596947,-0.0014974871861918,0.0014971166248103,7.0010492579036e-06,-6.0993791543071e-06,-0.00099646249541058,0.00099735545297169,2.7171908210882e-07,6.3922403379522e-07,-0.0010489402298621,0.0010540561911164,-0.0010487683099907,0.0010541788174159,-0.0010532915667443,0.0010496951260459,-0.0010531875542404,0.0010497960426826,-0.0011141579488817,0.0011022645994266,-0.0011012070866717,0.0011151329930364,0.0035733464577337,0.0035860297894995,0.75169591822335,1473840,32975,0.0062156370811789,0.0062156655767212,0.0041472739357272,25.541628752785,0.00011953303002228,0.00011953303002228,0.00011953303002228,1521171.8046868,0.016716962975707
30067200,0.99998159394915,0.016737412542861,0.0059111788331276,0.0059112050376982,0.0049150286720349,-0.0014972537813017,0.0014970663956592,-6.6393409929637e-06,6.4321150754663e-06,-3.614569602413e-07,2.3253175215757e-07,-0.0015687747732057,0.0015640572534771,-0.0015644522468093,0.0015683578536481,-0.0015686394734423,0.0015642264944344,-0.0015642369925112,0.0015686139954835,-0.0013417639205015,0.0013288153818759,-0.0013288467458473,0.0013417243066338,5.1602599184628e-07,-7.4446715514649e-08,4.5120500913428e-07,7.9460161612915e-08,-0.0014969254211886,0.0014974087551908,-0.0015660477829689,0.0015668362562457,-0.001566134821861,0.0015667073673166,-0.0015661840050991,0.0015666169066128,-0.0015663468987648,0.0015664707735508,-0.0013348919721763,0.001335605522776,-0.0013353082369028,0.0013352700946936,-0.0014977464042115,0.0014986677096864,-0.0014983583206989,0.0014979688830314,7.0042113170112e-06,-6.0988295315585e-06,-0.00099664058405391,0.00099753657706376,2.7100345405309e-07,6.4306548907273e-07,-0.0010493804061323,0.0010544984060045,-0.0010492075322291,0.0010546229683651,-0.0010537326373001,0.0010501363433317,-0.0010536264295585,0.0010502387226696,-0.0011143770831836,0.0011024869388598,-0.0011014238983236,0.0011153588717088,0.0035753505833257,0.0035859535567256,0.74778152947463,1473840,32975,0.006218275356375,0.0062183039695555,0.0041480267497561,25.649986921026,0.00012039989536821,0.00012039989536821,0.00012039989536821,1514466.8323826,0.016723095219642
30153600,0.99998214352065,0.016737421322504,0.0059111819495846,0.0059112081541539,0.0049150312187654,-0.0014972786924582,0.0014970908266575,-6.6398025899245e-06,6.4321879307179e-06,-3.596669373163e-07,2.2968558261922e-07,-0.0015689349023047,0.0015642176881277,-0.0015646114770158,0.0015685193332825,-0.0015687999450496,0.0015643859297899,-0.001564398324309,0.0015687729073109,-0.0013416524623595,0.0013287034688248,-0.0013287374552235,0.0013416106789091,5.1441348432982e-07,-7.1532164895082e-08,4.478748063251e-07,8.3277853480064e-08,-0.0014969497579708,0.0014974339488239,-0.0015662096818164,0.0015669963032048,-0.0015662953528155,0.0015668685712259,-0.0015663452074759,0.0015667775082669,-0.0015665052078382,0.0015666343737349,-0.00133478410067,0.0013354905191615,-0.0013351905595471,0.0013351626627958,-0.0014976611061183,0.0014985795287557,-0.0014982665478774,0.0014978887424571,7.0104100099231e-06,-6.093296650778e-06,-0.00099664934678265,0.00099755704601661,2.807221681714e-07,6.4576679126192e-07,-0.001049309683701,0.0010544416734765,-0.0010491395821144,0.0010545640149007,-0.0010536618616267,0.0010500789999033,-0.0010535576991551,0.0010501790610191,-0.0011143999532802,0.0011025191964054,-0.0011014465575448,0.001115390538096,0.0035753411293788,0.0035858788047732,0.73690059434713,1473840,32975,0.0062183778425244,0.0062184068468967,0.0041480855262245,25.758344920121,0.00012126675936097,0.00012126675936097,0.00012126675936097,1517365.3009035,0.01672336290368
30240000,0.99998268007985,0.016737429850397,0.0059111849774379,0.005911211182007,0.0049150336909518,-0.001496971081208,0.0014967766153284,-6.6423491515048e-06,6.428158882155e-06,-3.5717165337213e-07,2.1985424887233e-07,-0.0015689795630195,0.0015642598894445,-0.0015646557075371,0.0015685617338419,-0.0015688475136953,0.0015644244900878,-0.0015644472025725,0.0015688102371422,-0.0013410101139017,0.0013280536253847,-0.0013280987233988,0.001340956937671,5.1115770113802e-07,-6.2599692274195e-08,4.4304131499991e-07,9.374770765122e-08,-0.0014966361356904,0.0014971258437394,-0.0015662548537339,0.0015670391080296,-0.0015663367333893,0.0015669153647037,-0.0015663869830574,0.0015668232037815,-0.0015665416790219,0.0015666858744791,-0.0013341414096019,0.0013348406596233,-0.0013345303590025,0.0013345283328114,-0.0014970568020372,0.0014979717759827,-0.0014976491751652,0.0014972964767752,7.0138509373129e-06,-6.0886509468214e-06,-0.00099662735712351,0.00099754283817843,2.9241391201188e-07,6.4242215118596e-07,-0.0010489874853195,0.0010541316349826,-0.0010488229693335,0.0010542490165261,-0.0010533391183048,0.0010497688866506,-0.00105323926929,0.0010498638456128,-0.0011144022028737,0.001102526115512,-0.0011014498274153,0.0011153949938671,0.0035743086827633,0.0035858055263868,0.73319462719972,1473840,32975,0.0062170925210837,0.0062171217248175,0.0041480032602752,25.866703635238,0.0001221336290819,0.0001221336290819,0.0001221336290819,1526063.0419773,0.016720663392312
30326400,0.99998320382908,0.016737438129594,0.0059111879177268,0.0059112141222966,0.0049150360895706,-0.0014970425617295,0.0014968476456507,-6.6427670486465e-06,6.4281751095849e-06,-3.5585685735442e-07,2.1831046570985e-07,-0.0015691703786924,0.0015644512482181,-0.0015648465062133,0.001568752766619,-0.0015690399299333,0.0015646145679322,-0.00156463874346,0.0015690007846213,-0.0013409388681187,0.0013279798446159,-0.001328026092963,0.0013408843352492,5.0831373558469e-07,-6.2667720985464e-08,4.393145591581e-07,9.4789562489461e-08,-0.0014967086306385,0.0014971956458178,-0.0015664481333714,0.0015672272877811,-0.0015665285124727,0.0015671055559482,-0.0015665787962162,0.0015670120570372,-0.0015667324914444,0.0015668762345336,-0.0013340710143961,0.0013347641381321,-0.0013344566264921,0.0013344570715398,-0.0014970509261098,0.0014979622919445,-0.0014976412753178,0.0014972889420561,7.0147322761187e-06,-6.0880874221982e-06,-0.00099669880389645,0.00099761567111322,2.9510769549962e-07,6.4047448173775e-07,-0.001048958114549,0.0010541053584435,-0.0010487947858193,0.0010542212258428,-0.0010533097937706,0.0010497427198172,-0.001053211686031,0.0010498361104522,-0.0011145279572862,0.0011026510084592,-0.0011015750886454,0.0011155208048218,0.0035745153126209,0.0035857336913286,0.72936697329416,1473840,32975,0.0062173881326195,0.0062174168934084,0.0041483014796652,25.975062444003,0.00012300049955202,0.00012300049955202,0.00012300049955202,1528676.5724506,0.016721566528346
30412800,0.99998371590787,0.016737446160413,0.0059111907709695,0.0059112169755394,0.0049150384139037,-0.0014971705741424,0.0014969708229525,-6.6459832090602e-06,6.4265808707814e-06,-3.5717833411666e-07,2.1473637173329e-07,-0.0015694252055469,0.0015647015840433,-0.0015651007685479,0.0015690034124336,-0.0015692958131932,0.0015648640314157,-0.0015648936282936,0.0015692509448093,-0.0013409181080272,0.0013279513652232,-0.0013280031277515,0.0013408577613199,5.0399387868418e-07,-6.476940935568e-08,4.3424814617818e-07,9.3913315785123e-08,-0.0014968372046342,0.0014973180402277,-0.0015667044796539,0.0015674755090034,-0.0015667837576547,0.0015673552529113,-0.0015668343168762,0.0015672607856868,-0.0015669868864992,0.0015671265132933,-0.0013340505229861,0.0013347339910128,-0.0013344323116869,0.0013344319079971,-0.0014970956878593,0.0014979995389741,-0.0014976841939577,0.0014973287449386,7.0141828027083e-06,-6.0904939557501e-06,-0.00099682704411543,0.00099774085596679,2.9554316411791e-07,6.367362430177e-07,-0.001048978427391,0.0010541245620751,-0.001048816181047,0.0010542392068677,-0.0010533306088296,0.0010497613899725,-0.0010532340496168,0.0010498531706254,-0.0011147149589596,0.0011028310943456,-0.0011017596887506,0.0011157034488251,0.0035749508758224,0.0035856632703257,0.72368409742566,1473840,32975,0.0062179087981061,0.0062179371006492,0.0041488260889739,26.114770249264,0.00012411816199411,0.00012411816199411,0.00012411816199411,1531539.0065327,0.016723157427681
30499200,0.99998421731377,0.01673745409974,0.0059111935899607,0.00591121979453,0.0049150407152491,-0.0014972418332966,0.0014970457035689,-6.6443392876646e-06,6.4285623379575e-06,-3.5251059464516e-07,2.1403915823004e-07,-0.0015697188114155,0.0015650005328089,-0.0015653950051674,0.0015693025644217,-0.0015695913025748,0.0015651611953256,-0.0015651894247574,0.0015695484789894,-0.0013407110217612,0.0013277456926498,-0.0013277954570371,0.0013406537270579,5.0623492683264e-07,-5.6902048816791e-08,4.3480059054418e-07,1.0256772255935e-07,-0.0014969056039486,0.0014973960683941,-0.0015669989218192,0.0015677734890779,-0.0015670740037457,0.0015676565925057,-0.001567127032128,0.001567562362041,-0.0015672763417435,0.0015674300598211,-0.0013338434623464,0.001334531930336,-0.0013342183356736,0.001334236044183,-0.0014970292590423,0.0014979423333346,-0.0014976121757757,0.0014972743318983,7.0078213060029e-06,-6.0967358809715e-06,-0.00099699652488555,0.00099789822864354,2.9378874865863e-07,6.2647915732689e-07,-0.001048926407169,0.0010540635149834,-0.0010487670822651,0.0010541750460653,-0.0010532788402612,0.0010497005808367,-0.0010531854837934,0.0010497899172246,-0.0011149931008289,0.0011030949159226,-0.0011020394313606,0.0011159671143884,0.0035752811730554,0.003585594276422,0.73065099934393,1473840,32975,0.0062182126831538,0.0062182415790232,0.0041495017534296,26.284240367899,0.00012547392294319,0.00012547392294319,0.00012547392294319,1536543.6340666,0.016724461707608
30585600,0.99998470815994,0.016737461889654,0.0059111963554217,0.0059112225599908,0.004915042974241,-0.0014980793026916,0.0014978878490239,-6.6420391721409e-06,6.4308186214342e-06,-3.5604747410595e-07,2.2267386466643e-07,-0.0015702774679885,0.0015655605606548,-0.0015659542101174,0.0015698614861044,-0.0015701472661717,0.0015657247600428,-0.0015657439592649,0.0015701126702097,-0.0013417566628618,0.0013287978927168,-0.0013288381572777,0.0013417083140694,5.0900395030894e-07,-6.6162877016523e-08,4.3849061255804e-07,9.3311209433838e-08,-0.0014977483284631,0.0014982328305293,-0.0015675567989662,0.0015683325211543,-0.0015676351869823,0.0015682126034868,-0.0015676880208492,0.0015681183442876,-0.0015678422916988,0.0015679811285385,-0.0013348890236335,0.0013355822687452,-0.0013352797641144,0.0013352741239672,-0.0014981462192286,0.0014990621782367,-0.0014987437867906,0.0014983799350241,7.0038747285185e-06,-6.1004408535846e-06,-0.00099728086888201,0.00099817509488279,2.8309024102775e-07,6.2854823685423e-07,-0.0010494800312737,0.0010546059159492,-0.0010493157160243,0.0010547214792762,-0.0010538325180928,0.0010502433326116,-0.0010537353259238,0.0010503368569315,-0.0011153466731163,0.0011034448186534,-0.0011023927805213,0.0011163180278786,0.0035780008123455,0.0035855266649681,0.73237072604127,1473840,32975,0.0062216878454974,0.0062217164744821,0.0041506746544654,26.455501153814,0.00012684400923051,0.00012684400923051,0.00012684400923051,1528815.0700099,0.016732722494459
30672000,0.99998518851307,0.016737469531382,0.0059111990679367,0.0059112252725045,0.0049150451909407,-0.0014985671674926,0.0014983799387222,-6.6397786332045e-06,6.4326746101662e-06,-3.5685070176337e-07,2.2755557305215e-07,-0.001570694660596,0.0015659808831148,-0.0015663715715347,0.0015702810670758,-0.0015705632672002,0.0015661465052142,-0.0015661592419581,0.0015705341294524,-0.0013422887580649,0.0013293355889446,-0.0013293698518797,0.0013422455921594,5.0985568616058e-07,-7.1177001857598e-08,4.3878604342651e-07,8.9379033349501e-08,-0.0014982400198881,0.0014987208054793,-0.0015679750651021,0.0015687514259235,-0.0015680559646694,0.0015686298998806,-0.001568108136463,0.0015685341818259,-0.0015682643801758,0.0015683961030818,-0.0013354237163738,0.0013361147123183,-0.0013358186620003,0.0013358038211738,-0.0014987151469905,0.0014996303127899,-0.0014993184997178,0.0014989438646375,7.0060215318138e-06,-6.0980235551659e-06,-0.00099750517827929,0.00099840358059609,2.8297883607968e-07,6.3259102864124e-07,-0.0010497945671416,0.0010549229661504,-0.0010496285178267,0.0010550399035175,-0.0010541466433715,0.0010505605372863,-0.001054048381065,0.0010506551161655,-0.0011156086686994,0.001103711956781,-0.0011026539298767,0.0011165850935941,0.0035796334399082,0.0035854604077464,0.73400697391167,1473840,32975,0.0062237158096846,0.0062237438431014,0.0041516174134005,26.626925625721,0.00012821540500576,0.00012821540500576,0.00012821540500576,1526623.1404725,0.016737804815392
30758400,0.99998565843962,0.016737477038771,0.0059112017320704,0.0059112279366366,0.0049150473700638,-0.0014990400815442,0.0014988627558426,-6.6347948102205e-06,6.4376347542806e-06,-3.5512995568068e-07,2.3572497699542e-07,-0.0015711085116645,0.0015664028358498,-0.0015667852649457,0.0015707023416545,-0.0015709757225757,0.0015665704273718,-0.0015665707283774,0.0015709578232908,-0.0013427874457531,0.0013298453877289,-0.0013298669120302,0.0013427551871488,5.133396908786e-07,-7.4116039607071e-08,4.4109176151217e-07,8.8163381301851e-08,-0.0014987170453678,0.0014991988791628,-0.0015683899396438,0.0015691711907585,-0.0015684726708529,0.0015690487188592,-0.0015685250733772,0.0015689512287556,-0.0015686829401124,0.0015688124673292,-0.0013359252326308,0.0013366180856081,-0.0013363240741571,0.0013363052053066,-0.0014992653907937,0.0015001857486325,-0.0014998752281878,0.001499493779653,7.0081118039707e-06,-6.0959933696824e-06,-0.000997725149304,0.00099862714587695,2.828251528716e-07,6.3583113969334e-07,-0.001050090882903,0.0010552217130147,-0.0010499233305157,0.0010553397124559,-0.0010544427851369,0.0010508593486127,-0.0010543437233815,0.0010509547299568,-0.0011158743383668,0.0011039818214534,-0.0011029187295022,0.0011168556078509,0.0035812261092935,0.0035853954802869,0.73704526271599,1473840,32975,0.0062256936875239,0.0062257204130491,0.004152540867482,26.798366305799,0.00012958693044639,0.00012958693044639,0.00012958693044639,1524670.2629556,0.016742764926551
30844800,0.99998611800984,0.016737484446085,0.0059112043592809,0.0059112305638445,0.0049150495229593,-0.0014995814740904,0.0014994187570241,-6.62768722961e-06,6.4452873593986e-06,-3.5124588453089e-07,2.4642085603038e-07,-0.0015715486732388,0.0015668549871535,-0.0015672253111061,0.0015711549246723,-0.0015714135726006,0.0015670251709028,-0.0015670087113598,0.0015714127185153,-0.0013433832646083,0.001330457778863,-0.0013304618176529,0.0013433678496798,5.2181097002529e-07,-7.2232122834318e-08,4.5104027027344e-07,8.9069357981753e-08,-0.0014992606827325,0.0014997530491753,-0.0015688287154287,0.0015696253003235,-0.0015689139839325,0.0015694998850804,-0.0015689661176224,0.0015694035570912,-0.0015691267506525,0.0015692615426339,-0.001336520922812,0.0013372314690567,-0.0013369283209226,0.0013369090852156,-0.0014999229828109,0.0015008571828687,-0.0015005394399904,0.0015001584697754,7.009581630781e-06,-6.0949130677608e-06,-0.00099795786069756,0.00099886232751085,2.7964018819279e-07,6.4159686779595e-07,-0.0010504374029526,0.0010555677413671,-0.0010502668360394,0.0010556885998784,-0.001054789494031,0.0010512052482402,-0.001054687236705,0.0010513035885224,-0.0011161601190754,0.0011042731673595,-0.0011032044633313,0.0011171473847891,0.0035830444619347,0.0035853318641598,0.7435273621563,1473840,32975,0.0062279645631944,0.006227992145064,0.0041535160110483,26.969809917042,0.00013095847933634,0.00013095847933634,0.00013095847933634,1521640.1267667,0.016748375963256
30931200,0.99998656729801,0.016737491713244,0.0059112069363371,0.0059112331408986,0.0049150516360083,-0.0015002854810754,0.0015001334254003,-6.6257409862346e-06,6.4540870454972e-06,-3.4920302382335e-07,2.5520544418267e-07,-0.0015720420758962,0.0015673535104414,-0.0015677165487107,0.001571657132807,-0.0015719032139836,0.0015675264306914,-0.0015674980341925,0.0015719165492873,-0.0013442421920533,0.0013313249639842,-0.0013313169238228,0.0013442412558601,5.2041597384492e-07,-8.0354412763288e-08,4.5407478109542e-07,7.5047622538778e-08,-0.0014999755428325,0.00150045735183,-0.0015693271639349,0.001570120452671,-0.0015694169114789,0.0015699887727954,-0.0015694671927437,0.0015698972699623,-0.0015696323198952,0.0015697488733233,-0.0013373849908093,0.0013380996011224,-0.0013378071803283,0.0013377573152902,-0.0015008378490245,0.0015017644113438,-0.0015014597141314,0.0015010574351869,7.0128297354326e-06,-6.0986704202271e-06,-0.00099823120042915,0.00099913591470295,2.7175871521138e-07,6.5122126750294e-07,-0.0010509322784979,0.0010560592143426,-0.0010507568098805,0.0010561862573988,-0.001055287090652,0.0010516940649894,-0.0010551783646678,0.0010517988265341,-0.0011164871932618,0.0011046003243695,-0.0011035260020347,0.0011174806877848,0.0035853890574641,0.0035852695220676,0.74609160502169,1473840,32975,0.0062308998510417,0.0062309284408179,0.0041546576949762,27.141253180921,0.00013233002544737,0.00013233002544737,0.00013233002544737,1516025.662317,0.016755508417514
31017600,0.99998700638245,0.016737498837856,0.005911209462493,0.0059112356670535,0.0049150537083092,-0.0015007311258042,0.0015005907266624,-6.6206276294531e-06,6.4603987324522e-06,-3.4573761124783e-07,2.6325402778474e-07,-0.0015724367775773,0.0015677586189484,-0.0015681109452269,0.0015720622597726,-0.0015722972072547,0.001567932953693,-0.0015678908465018,0.0015723230571723,-0.0013447143726973,0.0013318085147421,-0.0013317875870141,0.0013447257092517,5.3121913399255e-07,-7.4027935590471e-08,4.6784486142454e-07,7.9195464575243e-08,-0.0015004182386919,0.0015009177968323,-0.0015697158206912,0.0015705322570376,-0.0015698095057436,0.0015703972981769,-0.0015698569655419,0.0015703066843297,-0.0015700259024412,0.0015701554537545,-0.0013378495073324,0.0013385896601298,-0.0013382812235472,0.0013382381526154,-0.0015013378448863,0.0015022817890273,-0.0015019642328231,0.0015015719508121,7.0166661425323e-06,-6.0960781075229e-06,-0.00099842072758404,0.00099933176978748,2.7024071982436e-07,6.5897979248086e-07,-0.0010512142793256,0.0010563449930682,-0.0010510353654343,0.0010564746906382,-0.0010555695352229,0.0010519794216234,-0.0010554578967872,0.0010520869635128,-0.0011167003288421,0.001104821377889,-0.0011037373540773,0.0011177023600038,0.0035868737099157,0.0035852084270569,0.74836004380969,1473840,32975,0.0062327682337039,0.0062327972274573,0.0041554603942273,27.31269638064,0.00013370157104512,0.00013370157104512,0.00013370157104512,1514148.2732948,0.01676012496888
31104000,0.99998743668546,0.016737505878936,0.0059112119579092,0.0059112381624689,0.0049150557585578,-0.0015012594247359,0.0015011315291781,-6.6149464253459e-06,6.4672481516378e-06,-3.4125473405106e-07,2.712563273139e-07,-0.0015729280098581,0.0015682610763375,-0.0015686018432676,0.0015725647978495,-0.0015727876659911,0.0015684363953325,-0.0015683805515062,0.0015728269036922,-0.001345249918983,0.0013323560290005,-0.0013323213393149,0.0013452744939352,5.4040565160848e-07,-6.8206338228156e-08,4.8023210586299e-07,8.248271123879e-08,-0.0015009450535295,0.0015014599689282,-0.0015702027302075,0.0015710388687225,-0.0015702997907922,0.0015709008832752,-0.0015703448241146,0.0015708118107665,-0.0015705170319707,0.0015706577620271,-0.0013383789077397,0.0013391420646794,-0.0013388195136844,0.0013387822133991,-0.0015019101822649,0.0015028689974408,-0.0015025400251468,0.0015021562284562,7.0241896678923e-06,-6.0897452788863e-06,-0.00099867924379142,0.00099960396114198,2.7242680671617e-07,6.702940073928e-07,-0.0010515609868449,0.0010567026244432,-0.0010513787309738,0.0010568352525274,-0.0010559164303322,0.0010523366882088,-0.0010558018482031,0.0010524470582775,-0.0011169872237829,0.0011051235792895,-0.0011040224874485,0.0011180059701206,0.0035886908892132,0.0035851485704309,0.75461538031074,1473840,32975,0.0062349806339203,0.0062350093908527,0.0041565644684485,27.538146807793,0.00013550517446234,0.00013550517446234,0.00013550517446234,1512858.1853812,0.016765746780982
31190400,0.99998785864351,0.016737512844197,0.0059112144254182,0.0059112406299769,0.0049150577888017,-0.0015019887495419,0.0015018721444637,-6.6117636382945e-06,6.4755885449795e-06,-3.4203620270423e-07,2.8348520837802e-07,-0.0015735193437258,0.0015688566549444,-0.0015691913683141,0.0015731627958203,-0.0015733733038475,0.0015690366020862,-0.0015689658448793,0.0015734291892468,-0.0013460715160168,0.0013331893487184,-0.001333139446557,0.001346113279931,5.2779458673747e-07,-9.3996906365444e-08,4.654638765819e-07,5.7364270583145e-08,-0.0015016997754175,0.0015021753950296,-0.001570812289461,0.0015716164637918,-0.0015709118540187,0.0015714747704109,-0.0015709594549292,0.0015713859194307,-0.0015711341416719,0.0015712279366158,-0.0013392250185828,0.0013399543617361,-0.0013396748309877,0.0013395833217812,-0.0015027918881679,0.0015037227868945,-0.0015034337866197,0.001502995405938,7.0243547831788e-06,-6.0948266416372e-06,-0.00099900848810798,0.00099992862353238,2.6520375936096e-07,6.7370062880141e-07,-0.0010520824872197,0.001057217500176,-0.0010518974196164,0.0010573542750596,-0.0010564396448936,0.0010528497597768,-0.0010563213419193,0.0010529641195467,-0.0011173522557914,0.001105482413976,-0.0011043831718601,0.0011183702990888,0.0035911781612377,0.0035850899295219,0.76119662602193,1473840,32975,0.0062380221013809,0.0062380512875793,0.0041579269941972,27.782454380943,0.00013745963504754,0.00013745963504754,0.00013745963504754,1508963.469211,0.016773318904887
31276800,0.99998827223344,0.016737519666308,0.0059112168426099,0.005911243047168,0.0049150597765297,-0.0015026824891193,0.0015025832001963,-6.6047707633312e-06,6.4859097682063e-06,-3.3771771195269e-07,2.9636828789628e-07,-0.0015740960211506,0.0015694473658547,-0.0015697673349817,0.0015737542288266,-0.0015739480534034,0.0015696299008132,-0.0015695388995651,0.0015740237828476,-0.0013468455145478,0.001333979492802,-0.0013339098385593,0.001346907516733,5.317540948837e-07,-9.8546335403216e-08,4.7127677830168e-07,5.1674131021385e-08,-0.0015024021159905,0.0015028776349628,-0.001571392211126,0.0015722030615223,-0.0015714957012443,0.0015720577830109,-0.0015715419438842,0.0015719693806414,-0.0015717207992908,0.0015718076844041,-0.001340002904114,0.0013407407496389,-0.0013404646667657,0.0013403587362956,-0.0015036052757652,0.0015045396958648,-0.0015042561225643,0.0015038046843449,7.021069826705e-06,-6.1013151819077e-06,-0.00099931655119246,0.0010002271170244,2.5467562164457e-07,6.7438236732977e-07,-0.0010525763311084,0.0010576993786271,-0.0010523870429534,0.0010578395158418,-0.00105693448517,0.0010533306385978,-0.0010568129302877,0.0010534485074084,-0.0011176823156183,0.0011058030356134,-0.0011047098760579,0.0011186939106262,0.0035935409870995,0.0035850324616638,0.76059929430556,1473840,32975,0.0062409286289695,0.0062409573689729,0.0041591910147867,28.027956562998,0.00013942365250398,0.00013942365250398,0.00013942365250398,1505318.018558,0.016780515565623
31363200,0.99998867741107,0.016737526325969,0.0059112192028422,0.0059112454073991,0.0049150617157274,-0.0015030708934404,0.0015029491990552,-6.6154277385204e-06,6.474181088085e-06,-3.478584306824e-07,2.8411176238134e-07,-0.001574559108603,0.0015698880470499,-0.0015702300959409,0.0015741955144658,-0.0015744102895134,0.001570070495457,-0.0015700028019575,0.0015744634297692,-0.0013471518662517,0.0013342657807508,-0.0013342193391374,0.0013471907838582,5.2920623461093e-07,-9.9091945002335e-08,4.6793197842426e-07,5.0788294900056e-08,-0.001502781294808,0.0015032530037773,-0.001571847598962,0.0015726532994789,-0.0015719504025623,0.0015725081070623,-0.0015719972134139,0.0015724203604581,-0.0015721744752648,0.0015722596009841,-0.0013403025614384,0.0013410341677221,-0.0013407604153291,0.0013406544764136,-0.0015039154217883,0.0015048454088388,-0.0015045624856737,0.0015041125741302,7.0197518650472e-06,-6.1018476258455e-06,-0.00099951096007038,0.0010004196060187,2.5513583853991e-07,6.7261454104065e-07,-0.0010528062543985,0.0010579276736676,-0.0010526186213431,0.0010580674698062,-0.0010571642657141,0.0010535589151086,-0.0010570427371083,0.0010536764403463,-0.0011178683363678,0.0011059881530648,-0.0011048975168285,0.0011188775744803,0.0035948001105982,0.0035849761367823,0.75787860918253,1473840,32975,0.006242489845779,0.0062425188866277,0.004159993963677,28.273568392292,0.00014138854713834,0.00014138854713834,0.00014138854713834,1506830.2753571,0.016784506740629
31449600,0.99998907413693,0.016737532811513,0.0059112215020982,0.005911247706655,0.0049150636027601,-0.0015034295038161,0.001503278221611,-6.6305218085102e-06,6.4594364806081e-06,-3.6161091065537e-07,2.6836629295539e-07,-0.001575025015816,0.0015703251230127,-0.0015706955339594,0.0015746323099282,-0.0015748772478134,0.0015705068313194,-0.0015704688150606,0.0015748997783015,-0.0013473966461495,0.0013344793338732,-0.0013344630536655,0.0013474040667201,5.2965178001351e-07,-9.6881670103363e-08,4.6813950473547e-07,5.4241865493919e-08,-0.001503123355541,0.0015035983183361,-0.0015722976798732,0.0015731055953545,-0.001572400232275,0.0015729614981353,-0.001572446254559,0.0015728723168502,-0.0015726230406235,0.0015727132734285,-0.0013405300232847,0.0013412616139471,-0.001340984666802,0.0013408864860098,-0.0015041737644862,0.0015051046420816,-0.0015048195285754,0.0015043752351501,7.0229808346991e-06,-6.0991273414245e-06,-0.0009997401844938,0.0010006543283739,2.5926239465934e-07,6.736098001999e-07,-0.0010530076965126,0.001058135663892,-0.0010528207816579,0.0010582744067017,-0.0010573658068133,0.0010537668999069,-0.0010572452905131,0.0010538830607009,-0.0011181148417197,0.0011062384262468,-0.001105142235382,0.0011191281245189,0.0035960115512286,0.0035849209274345,0.75384295483475,1473840,32975,0.0062439134180076,0.0062439419262797,0.00416095589784,28.519191410051,0.0001433535312804,0.0001433535312804,0.0001433535312804,1509316.806243,0.016788378506174
31536000,0.99998946237857,0.016737539117623,0.0059112237385537,0.00591124994311,0.004915065435959,-0.0015037495264413,0.0015036036563048,-6.6281862917894e-06,6.462614815965e-06,-3.5700107115318e-07,2.6856541704699e-07,-0.0015754742602993,0.0015707813468289,-0.0015711442972449,0.0015750885313993,-0.0015753280718935,0.0015709613708018,-0.0015709190059518,0.0015753544033326,-0.0013475738565881,0.001334659605201,-0.0013346391173762,0.0013475848618967,5.3072572238401e-07,-9.1460349785859e-08,4.6982005285368e-07,5.9173743975372e-08,-0.0015034426953617,0.0015039242306455,-0.0015727479387207,0.001573560219885,-0.0015728499432549,0.0015734172042598,-0.001572895002832,0.0015733281390982,-0.0015730711360305,0.0015731704061433,-0.0013407057465341,0.0013414416465539,-0.0013411572497263,0.0013410705506766,-0.0015044004329961,0.0015053343934768,-0.001505042874754,0.0015046105320196,7.0306330742459e-06,-6.0926489325898e-06,-0.00099999134665873,0.0010009193452113,2.6759345271453e-07,6.7888478886223e-07,-0.0010531865037934,0.0010583296369191,-0.0010530005311075,0.001058467602444,-0.0010575448484398,0.0010539603631892,-0.0010574252261275,0.0010540754418227,-0.001118404234951,0.001106539110808,-0.001105430109536,0.0011194306090881,0.0035971962545778,0.0035848668085217,0.74907244598375,1473840,32975,0.0062452500769055,0.0062452781609866,0.0041620256803453,28.764816556707,0.00014531853245366,0.00014531853245366,0.00014531853245366,1512463.6802453,0.016792183118218
31622400,0.99998984211083,0.016737545241978,0.0059112259114027,0.0059112521159583,0.0049150672146168,-0.0015040458559163,0.0015039184391389,-6.6188527498449e-06,6.4716979226187e-06,-3.4535539914088e-07,2.7466682636058e-07,-0.0015759126773527,0.0015712405703202,-0.0015715823801099,0.0015755475182224,-0.0015757683928556,0.0015714184487366,-0.001571359094843,0.001575811252486,-0.0013477126099095,0.001334815114499,-0.0013347776473385,0.001347739554929,5.297991534157e-07,-8.7015016975814e-08,4.6891156678783e-07,6.329667141921e-08,-0.0015037461499026,0.0015042311916797,-0.0015731958653799,0.0015740089710762,-0.0015732969723413,0.0015738675508925,-0.0015733411632823,0.0015737780154178,-0.0015735160529415,0.0015736223679391,-0.001340851673724,0.0013415872651804,-0.0013412984470366,0.0013412217575212,-0.0015046021396481,0.0015055356118846,-0.0015052402204124,0.0015048185870316,7.0302369374733e-06,-6.0929019704977e-06,-0.0010002654114711,0.0010011922276975,2.6951940952299e-07,6.7563486347217e-07,-0.0010533642604385,0.001058507946157,-0.0010531804638749,0.0010586440862401,-0.0010577224496556,0.0010541386502304,-0.0010576047750887,0.0010542518650273,-0.0011187252093693,0.0011068571951704,-0.0011057508814906,0.001119749072942,0.003598352057593,0.0035848137562876,0.74386085148859,1473840,32975,0.0062465158626872,0.0062465425052553,0.0041631589241605,29.010442510379,0.00014728354008303,0.00014728354008303,0.00014728354008303,1516063.4082521,0.016795906997873
31708800,0.99999021321686,0.016737551182224,0.0059112280197999,0.0059112542243541,0.0049150689380702,-0.0015043182805328,0.0015042085869946,-6.6106452619599e-06,6.4813493129189e-06,-3.3404506672598e-07,2.8088510045694e-07,-0.0015763440568409,0.0015716906310201,-0.0015720129196896,0.0015759981467813,-0.0015762012786559,0.0015718670978335,-0.0015717915327039,0.0015762600481618,-0.0013478057152434,0.0013349234576793,-0.0013348696523125,0.0013478484515018,5.2952487648197e-07,-8.2008941137641e-08,4.701875665048e-07,6.6942015053729e-08,-0.0015040250963312,0.0015045150782015,-0.0015736354053329,0.0015744513826495,-0.0015737360229766,0.0015743105616767,-0.0015737789227185,0.0015742218156314,-0.0015739533130283,0.0015740671075789,-0.0013409498629475,0.0013416896265864,-0.00134139437969,0.001341326829112,-0.0015047734329656,0.0015057068912798,-0.0015054064521054,0.0015049953736068,7.0350513933546e-06,-6.0896379068931e-06,-0.0010005365283517,0.0010014712076143,2.7465710492798e-07,6.7823100811705e-07,-0.0010535122849271,0.0010586653324629,-0.0010533294693021,0.0010588005589757,-0.0010578710953746,0.0010542951984436,-0.0010577539629599,0.001054407704617,-0.0011190562388527,0.0011071941547818,-0.0011060806545894,0.001120087240879,0.0035994419007222,0.0035847617473644,0.73835135094456,1473840,32975,0.0062476813575331,0.0062477085399769,0.0041642984399361,29.251379781287,0.0001492110382503,0.0001492110382503,0.0001492110382503,1520035.2646503,0.016799435256155
31795200,0.9999905711379,0.016737556856418,0.0059112300348506,0.0059112562394039,0.0049150705821632,-0.0015041497420424,0.0015040232726343,-6.6189952943099e-06,6.4726900899332e-06,-3.4036409946578e-07,2.7065044891073e-07,-0.0015763479508421,0.0015716779906532,-0.0015720171824723,0.0015759870255568,-0.0015762045006769,0.0015718540642709,-0.0015717974056605,0.0015762470497033,-0.0013474478592944,0.0013345498370869,-0.0013345156774366,0.0013474744318093,5.2483808645163e-07,-8.2652368794897e-08,4.630879122098e-07,6.792246168689e-08,-0.0015038517165116,0.0015043356126208,-0.0015736375650836,0.0015744431616144,-0.0015737347723275,0.0015743038320213,-0.0015737808847387,0.0015742156792241,-0.0015739509298053,0.0015740629713191,-0.0013405938105156,0.0013413207976168,-0.0013410275809214,0.0013409639718629,-0.0015044760320247,0.0015054023275789,-0.00150510263911,0.0015046942939724,7.0395909045878e-06,-6.0849470789273e-06,-0.001000448150014,0.0010013929119854,2.842608283894e-07,6.8008976597625e-07,-0.0010532750286032,0.0010584401726618,-0.0010530956441287,0.00105857324845,-0.0010576340045833,0.0010540701466342,-0.0010575185622322,0.001054180571397,-0.0011190170165997,0.0011071633826648,-0.001106042592889,0.001120054855968,0.0035987491300474,0.0035847107329731,0.73133570326295,1473840,32975,0.0062469498571026,0.0062469791250338,0.0041639499778018,29.269661567426,0.00014935729253941,0.00014935729253941,0.00014935729253941,1523671.4805188,0.016797594348994
31881600,0.99999091607147,0.016737562449073,0.0059112320180802,0.0059112582226339,0.0049150722083591,-0.0015038758347824,0.0015037148025153,-6.6363817711762e-06,6.4557610427862e-06,-3.5291219473596e-07,2.4966971457782e-07,-0.0015763282897126,0.001571626757933,-0.0015719981924414,0.0015759351591113,-0.0015761890416145,0.0015717994445376,-0.0015717807171511,0.0015761931416657,-0.0013468686811138,0.0013339314655941,-0.0013339342186428,0.0013468585665977,5.1792617923384e-07,-8.1113895410968e-08,4.5086926865024e-07,7.423181686567e-08,-0.0015035633089533,0.0015040414858942,-0.0015736097484062,0.0015743987476792,-0.0015736993703156,0.0015742670373693,-0.0015737497083848,0.0015741755719545,-0.0015739136140362,0.0015740284250997,-0.0013400057233482,0.0013407135427352,-0.0013404238876556,0.001340373797489,-0.0015040325104674,0.0015049536378178,-0.0015046506137753,0.0015042501720966,7.0229923685216e-06,-6.1010769642343e-06,-0.0010003591666402,0.0010012717602074,2.7723377195298e-07,6.5424830327881e-07,-0.0010529123301336,0.0010580520168386,-0.0010527382399182,0.0010581783098547,-0.0010572712123875,0.0010536825169688,-0.0010571631448087,0.001053786609274,-0.0011190387677943,0.0011071470182954,-0.0011060660038332,0.0011200383667922,0.0035976958455476,0.0035846607404376,0.74789611743787,1473840,32975,0.0062457459562411,0.0062457748959598,0.0041635102538506,29.274871145845,0.00014939896916676,0.00014939896916676,0.00014939896916676,1528826.2858736,0.016794697108496
31968000,0.99999124846239,0.016737567854685,0.005911233934651,0.0059112601392046,0.004915073780829,-0.0015048875057243,0.0015047437407407,-6.6312781545336e-06,6.4681723394418e-06,-3.5239947554295e-07,2.6732786117806e-07,-0.0015767556258287,0.0015720648597065,-0.0015724248320012,0.0015763735504038,-0.0015766138554083,0.0015722422579635,-0.0015722005547911,0.0015766393257066,-0.0013483530657262,0.0013354286030651,-0.0013354058532187,0.0013483662739406,5.2279947368558e-07,-9.2921135490006e-08,4.6074297871797e-07,5.7706056140993e-08,-0.0015045868755139,0.0015050584770591,-0.0015740383415047,0.0015748322924925,-0.0015741338768614,0.0015746945215837,-0.0015741821361807,0.0015746057792168,-0.0015743558654012,0.0015744483207353,-0.0013414877401654,0.0013422133715612,-0.0013419377459196,0.0013418446792861,-0.0015056199235881,0.0015065459987494,-0.0015062591418127,0.0015058215619778,7.012808657885e-06,-6.1178207079604e-06,-0.0010005499070938,0.0010014356492053,2.502333769871e-07,6.5324532293814e-07,-0.0010535968216104,0.001058704093835,-0.0010534128654181,0.001058837772893,-0.0010579583616567,0.0010543325910735,-0.0010578428310258,0.0010544454376236,-0.0011193355824484,0.0011074194582761,-0.001106357755713,0.0011203181449225,0.0036008572380725,0.0035846117216425,0.75022052945549,1473840,32975,0.0062499666805241,0.0062499955082512,0.0041642622637346,29.278884316589,0.00014943107453271,0.00014943107453271,0.00014943107453271,1512555.9914725,0.016804049361157
32054400,0.99999156876179,0.016737573083439,0.005911235788207,0.005911261992759,0.0049150753024732,-0.0015049900743803,0.0015048384935804,-6.6356261512671e-06,6.4642370514254e-06,-3.5670894762677e-07,2.6354853134426e-07,-0.0015767906328703,0.001572090694097,-0.0015724586324024,0.001576400978996,-0.0015766467799505,0.0015722688293287,-0.0015722348640847,0.0015766656557694,-0.0013485278636312,0.0013355971352222,-0.0013355836035504,0.0013485328023241,5.2479907564614e-07,-9.1809929543408e-08,4.633029036884e-07,5.8012997478381e-08,-0.0015046840322176,0.0015051586177528,-0.0015740669074871,0.001574866634168,-0.001574164853047,0.0015747265025429,-0.0015742118189939,0.0015746384279517,-0.0015743856984782,0.0015744809930606,-0.001341657846681,0.0013423865633657,-0.0013421068740973,0.0013420165897001,-0.001505751046348,0.0015066785504598,-0.0015063884390103,0.0015059548933899,7.0197530604836e-06,-6.1119037200494e-06,-0.0010004566588632,0.0010013552504771,2.5588063229891e-07,6.6131367240302e-07,-0.001053627063382,0.0010587462654356,-0.0010534432269387,0.0010588815252185,-0.0010579890255164,0.0010543741476761,-0.001057871544644,0.0010544878770717,-0.0011192214617638,0.0011073184137186,-0.0011062419564674,0.0011202169926794,0.0036009753120753,0.0035845636591976,0.75282612496022,1473840,32975,0.0062503742047522,0.006250402985495,0.0041639041270705,29.282779722703,0.00014946223778162,0.00014946223778162,0.00014946223778162,1510388.3191347,0.01680451442683
32140800,0.99999187740673,0.016737578144242,0.0059112375818026,0.0059112637863538,0.0049150767760851,-0.0015051186754359,0.0015049151081535,-6.6617669235952e-06,6.438484601956e-06,-3.4447445833731e-07,1.9860768461708e-07,-0.0015768478610883,0.001572120966527,-0.0015725150466054,0.0015764319071075,-0.0015767281801022,0.0015722736202565,-0.0015723170572845,0.0015766701305705,-0.0013487242547994,0.0013357163063981,-0.0013357814164296,0.0013486515933643,4.9940962543833e-07,-4.0282023891056e-08,4.2021188050352e-07,1.2682920722294e-07,-0.0015047739028709,0.0015052740567578,-0.0015741290248661,0.0015748925296685,-0.0015741912237002,0.001574788725583,-0.001574249272292,0.0015746892664042,-0.0015743859616944,0.0015745698695707,-0.0013418455718935,0.0013425138330204,-0.0013421828886536,0.0013422559236278,-0.001505899878947,0.0015068130992589,-0.0015064602789582,0.0015061674894036,7.0123989843249e-06,-6.1198580570837e-06,-0.0010003693308453,0.0010012524788789,3.0373624295621e-07,5.9774309108752e-07,-0.0010536290361089,0.0010587698274366,-0.001053482607657,0.0010588685442669,-0.0010579907984899,0.0010543976517938,-0.0010579103455888,0.0010544741098698,-0.0011191429261354,0.0011071859450013,-0.0011061617745452,0.0011200853962997,0.0036010945456424,0.0035845165355441,0.75611978035085,1473840,32975,0.0062507980845775,0.0062508270618984,0.0041635120562333,29.286663341433,0.00014949330673146,0.00014949330673146,0.00014949330673146,1508193.5782138,0.016804978516518
32227200,0.99999217481874,0.016737583044696,0.0059112393181409,0.005911265522692,0.0049150782038632,-0.0015052376502873,0.0015050343907413,-6.6620312573378e-06,6.4390536599625e-06,-3.4554971758541e-07,2.000098086457e-07,-0.0015769071573675,0.001572179475231,-0.0015725741345015,0.0015764907496922,-0.0015767866785924,0.0015723329642095,-0.0015723753163596,0.0015767297918949,-0.0013488850521462,0.0013358773958069,-0.0013359414856249,0.0013488136442565,5.0024815480308e-07,-4.1925363568745e-08,4.2049638779329e-07,1.2575741462806e-07,-0.0015048934247506,0.0015053927913928,-0.0015741877593614,0.0015749517153008,-0.0015742503324808,0.0015748474627048,-0.0015743088181911,0.0015747476186712,-0.0015744458796828,0.0015746277770183,-0.0013420067226924,0.0013426747092643,-0.0013423453582746,0.0013424154596057,-0.0015060721699361,0.0015069865776925,-0.0015066350051073,0.001506338522169,7.0044220352924e-06,-6.1286523677446e-06,-0.0010002816360241,0.0010011481450429,2.9483770166963e-07,5.900410918599e-07,-0.0010536446677491,0.0010587687595711,-0.0010534978458583,0.0010588678758648,-0.0010580066936179,0.0010543963302779,-0.0010579258505536,0.0010544731762917,-0.0011190610358927,0.0011070868929951,-0.0011060790631885,0.0011199871715707,0.003601262231622,0.0035844703332709,0.75977560789153,1473840,32975,0.0062512903135392,0.0062513192888812,0.0041631164779741,29.29054578122,0.00014952436624976,0.00014952436624976,0.00014952436624976,1505662.8325202,0.016805577936664
32313600,0.99999246140422,0.016737587791651,0.0059112409996575,0.0059112672042084,0.0049150795877854,-0.001505355705236,0.0015051555302362,-6.6604673500696e-06,6.4405763733333e-06,-3.4542280684212e-07,2.0298069182667e-07,-0.0015769635054919,0.001572237983458,-0.0015726304808373,0.0015765492049386,-0.0015768420944022,0.0015723924131066,-0.0015724307259048,0.0015767892093007,-0.0013490484607322,0.0013360448581104,-0.0013361048472882,0.0013489810057823,5.0121740361625e-07,-4.3788883271733e-08,4.2108952833537e-07,1.2428630103702e-07,-0.0015050134628355,0.001505511952135,-0.0015742447904169,0.0015750095234552,-0.0015743080757868,0.0015749045757996,-0.0015743667834893,0.0015748044769028,-0.0015745045644227,0.0015746839384647,-0.0013421720292333,0.0013428402115252,-0.0013425126681559,0.0013425789332693,-0.0015062441073622,0.0015071597224403,-0.0015068097226473,0.0015065088569359,7.008536578729e-06,-6.1245349015966e-06,-0.0010001736267663,0.0010010483019748,2.9786438055143e-07,5.9518202313951e-07,-0.0010536497260318,0.0010587812383935,-0.0010535021896923,0.0010588810715439,-0.0010580117554263,0.0010544087969946,-0.0010579302102194,0.0010544863504553,-0.0011189534895219,0.0011069882611209,-0.0011059714951752,0.0011198885545442,0.0036014219132324,0.0035844250351354,0.76373518249435,1473840,32975,0.0062517844000775,0.0062518133845085,0.0041626881850882,29.294428109767,0.00014955542487813,0.00014955542487813,0.00014955542487813,1503036.6331142,0.016806147909712
32400000,0.99999273755496,0.016737592391206,0.0059112426285273,0.0059112688330781,0.0049150809296005,-0.0015054744312772,0.0015052759715496,-6.6591937244086e-06,6.4410129135038e-06,-3.4607862970048e-07,2.0537524846346e-07,-0.0015770190871737,0.0015722945498219,-0.0015726863305382,0.0015766054642282,-0.0015768966756823,0.0015724499907672,-0.0015724855698989,0.0015768464966527,-0.0013492152053589,0.0013362151215586,-0.0013362723337551,0.0013491504161256,5.0221792615061e-07,-4.5835730721948e-08,4.2153954298832e-07,1.2280647291837e-07,-0.0015051335625285,0.0015056310239168,-0.0015743005391567,0.0015750659166401,-0.0015743644840999,0.0015749603191503,-0.0015744235305102,0.0015748598492302,-0.0015745619759957,0.0015747386616209,-0.0013423405916553,0.0013430086267505,-0.0013426830986797,0.0013427454370474,-0.0015064150120959,0.0015073319377551,-0.0015069836075503,0.0015066780422865,7.0109923728957e-06,-6.1212544704385e-06,-0.0010000599815294,0.0010009403457218,2.9973658595975e-07,5.9900675006967e-07,-0.0010536571849886,0.0010587934280332,-0.0010535089993016,0.0010588939185102,-0.0010580189418267,0.0010544212607462,-0.0010579367509023,0.0010544994658435,-0.001118836240373,0.001106878180465,-0.0011058550228337,0.0011197776761999,0.0036015734414071,0.003584380624056,0.76793666355368,1473840,32975,0.0062522783637705,0.0062523073567823,0.004162231465551,29.298310433803,0.00014958648347042,0.00014958648347042,0.00014958648347042,1500338.4490794,0.016806688748515
32486400,0.99999300363099,0.016737596795744,0.0059112441889313,0.005911270393482,0.0049150822133311,-0.0015055892352316,0.0015053939626155,-6.6568162943447e-06,6.4417270720877e-06,-3.4596995160373e-07,2.0858447456694e-07,-0.0015770751657894,0.0015723535711994,-0.001572743126592,0.00157666372292,-0.001576952093386,0.0015725099309019,-0.001572541239036,0.0015769059529349,-0.0013493680856126,0.0013363736052652,-0.0013364264274708,0.0013493074314409,5.033982184619e-07,-4.7696830067405e-08,4.2263088111469e-07,1.2087850943236e-07,-0.0015052502822959,0.0015057471151902,-0.0015743573116419,0.0015751237787171,-0.0015744218850392,0.0015750175510452,-0.0015744810771375,0.0015749169964173,-0.0015746206283907,0.0015747945769737,-0.0013424954089125,0.0013431654647578,-0.0013428416583394,0.0013428983831338,-0.0015065839470121,0.0015075028403955,-0.0015071560188275,0.0015068453828961,7.0122386386231e-06,-6.1182119268784e-06,-0.00099994000257104,0.0010008247437382,3.0041407440447e-07,6.026703447858e-07,-0.0010536543888532,0.0010587935646247,-0.0010535051699679,0.0010588948566683,-0.0010580157358158,0.0010544219384144,-0.0010579325724754,0.0010545012786657,-0.0011187179569433,0.0011067674241004,-0.0011057390018498,0.0011196646915475,0.0036017074576765,0.0035843370688291,0.76322615725305,1473840,32975,0.0062527591256753,0.00625278815111,0.0041617458732282,29.301025396192,0.00014960820316954,0.00014960820316954,0.00014960820316954,1497598.9045082,0.016807173414408
32572800,0.9999932596123,0.016737600994452,0.0059112456771446,0.0059112718816951,0.0049150834356125,-0.0015053102181069,0.0015051118413656,-6.6570351629572e-06,6.4384292121818e-06,-3.456105783178e-07,2.0493175134564e-07,-0.0015769381283691,0.0015722145974569,-0.0015726060200978,0.0015765249271687,-0.0015768143691668,0.0015723703289431,-0.0015724060328515,0.0015767647333552,-0.0013489667173861,0.0013359728127553,-0.0013360310981512,0.001348901180389,4.9739914937987e-07,-4.9886917859344e-08,4.1499004984348e-07,1.1985186260819e-07,-0.0015049739797251,0.0015054623093855,-0.0015742254010058,0.0015749811691634,-0.0015742887765082,0.0015748758926211,-0.0015743485940993,0.0015747747005169,-0.0015744852563659,0.0015746549225436,-0.0013421022252715,0.0013427570943138,-0.0013424390588775,0.0013424968205879,-0.0015061667051585,0.0015070742576042,-0.0015067327413307,0.0015064215501936,7.0138492726462e-06,-6.1141697535084e-06,-0.00099970099822714,0.0010005912830582,3.066497171374e-07,6.0277173136484e-07,-0.001053356177602,0.0010585016195278,-0.0010532098885275,0.0010586015056303,-0.0010577170918159,0.0010541306358292,-0.0010576345425148,0.001054208150302,-0.0011184537631847,0.001106510021136,-0.0011054770709077,0.0011194037313577,0.0036005174395799,0.0035842943478417,0.75626098221693,1473840,32975,0.0062515978203446,0.0062516269099683,0.0041607626121923,29.277237617085,0.00014941790093668,0.00014941790093668,0.00014941790093668,1500566.4514259,0.016803810809591
32659200,0.99999350587258,0.016737604990678,0.0059112470943683,0.0059112732989189,0.0049150845973911,-0.0015049870051007,0.0015047747986147,-6.6628661886211e-06,6.4304817209924e-06,-3.4969316857027e-07,1.946390321407e-07,-0.0015768071066569,0.0015720721756736,-0.0015724751817673,0.0015763822781536,-0.0015766844579777,0.0015722259303662,-0.0015722776289429,0.0015766196150585,-0.0013484641216286,0.0013354572963841,-0.0013355318822986,0.0013483830014173,4.9977432763209e-07,-4.1449097243413e-08,4.1551131508022e-07,1.3030960531637e-07,-0.0015046385674512,0.0015051377018317,-0.0015740860631437,0.0015748481364072,-0.0015741469484631,0.0015747453707756,-0.0015742077423471,0.0015746430712979,-0.0015743409420685,0.0015745270477308,-0.0013415917911169,0.0013422489609189,-0.0013419179966673,0.0013419997024671,-0.0015056696537995,0.0015065836874762,-0.0015062290291348,0.0015059391162964,7.0162473692578e-06,-6.1096678595429e-06,-0.00099949715043775,0.0010003939574231,3.1490199586674e-07,6.0127767884488e-07,-0.0010530000783109,0.0010581544599425,-0.001052857396801,0.0010582513643071,-0.0010573603853784,0.0010537838936533,-0.0010572808374607,0.001053858260116,-0.0011182601875198,0.0011063212566153,-0.0011052845342728,0.0011192130988422,0.0035992294906171,0.003584252444175,0.74829748629317,1473840,32975,0.0062502320506506,0.0062502616302656,0.0041599262070246,29.251893401502,0.00014921514721202,0.00014921514721202,0.00014921514721202,1504797.1892855,0.016800181810747
32745600,0.99999374279194,0.016737608790855,0.0059112484428654,0.0059112746474167,0.0049150857005724,-0.0015046212331026,0.0015044067899659,-6.6638620524824e-06,6.42971406263e-06,-3.4612573652496e-07,1.8931037192738e-07,-0.0015767018050815,0.0015719687471449,-0.0015723711066575,0.0015762775105159,-0.0015765845529244,0.0015721188729853,-0.0015721756907121,0.0015765131225288,-0.0013478011525876,0.0013347865755021,-0.0013348650373244,0.0013477151119121,4.9674089676464e-07,-3.5338185983469e-08,4.0949370613175e-07,1.3970083818282e-07,-0.001504269913692,0.0015047722632974,-0.0015739838662681,0.0015747392533815,-0.0015740384085687,0.0015746432903002,-0.0015741016399592,0.0015745385196654,-0.0015742305577198,0.0015744270431957,-0.0013409283677985,0.0013415780577507,-0.001341242554294,0.0013413435124724,-0.0015051380267083,0.0015060536879929,-0.0015056908009605,0.0015054158809965,7.0070851943438e-06,-6.1184794292189e-06,-0.0009993284931038,0.0010002076675834,3.1347877152586e-07,5.8387397495015e-07,-0.0010525576999052,0.0010577001740172,-0.0010524191695888,0.0010577910458229,-0.0010569172449029,0.0010533302514691,-0.0010568446487393,0.0010533988672176,-0.0011181844338282,0.0011062223438933,-0.0011052100623145,0.001119115147469,0.0035978662633866,0.0035842113421915,0.73975107595297,1473840,32975,0.0062487147503434,0.0062487436821995,0.0041591854663493,29.226406525998,0.00014901125220798,0.00014901125220798,0.00014901125220798,1509951.1592497,0.016796340590969
32832000,0.99999397073697,0.016737612405003,0.0059112497260982,0.0059112759306493,0.0049150867482552,-0.0015042179171662,0.0015040045642772,-6.6627802442387e-06,6.4297691868423e-06,-3.4142564460598e-07,1.8558644060593e-07,-0.0015765569092986,0.0015718280563215,-0.0015722265207667,0.0015761365056692,-0.0015764423808421,0.001571975387521,-0.0015720338925163,0.0015763692798468,-0.0013471308926219,0.0013341157627627,-0.0013341959322152,0.0013470432513719,4.9397983933446e-07,-2.9649176906527e-08,4.0317637319043e-07,1.4886436517512e-07,-0.0015038657091107,0.0015043709184246,-0.0015738435421975,0.0015745938684108,-0.0015738930167508,0.0015745030729742,-0.0015739586010061,0.0015743959530444,-0.0015740824093658,0.0015742896659916,-0.0013402626013123,0.0013409027457582,-0.0013405616874486,0.0013406834688481,-0.0015045385984007,0.0015054539804674,-0.0015050830781263,0.0015048246346376,7.0035990821662e-06,-6.1209237111917e-06,-0.00099916862687436,0.001000041889328,3.1819987789239e-07,5.7313428618968e-07,-0.0010521417620779,0.0010572831689487,-0.0010520083916729,0.0010573688828241,-0.0010565009310433,0.00105291357174,-0.001056433476758,0.0010529770609137,-0.0011180849422208,0.0011061128634441,-0.0011051117583523,0.0011190046341421,0.003596421427969,0.003584171027597,0.73135292626062,1473840,32975,0.0062470489584438,0.0062470778740948,0.004158504758741,29.200905491411,0.00014880724393129,0.00014880724393129,0.00014880724393129,1515790.0877329,0.016792259004116
32918400,0.99999419005955,0.016737615931003,0.005911250976917,0.0059112771814681,0.0049150877726183,-0.0015038048913864,0.0015035874047259,-6.6637441904217e-06,6.4262911650233e-06,-3.3921821419223e-07,1.7893793763566e-07,-0.0015763935369331,0.0015716636418344,-0.0015720632616214,0.0015759721875854,-0.0015762804914122,0.0015718086392568,-0.0015718741557503,0.0015762012071809,-0.0013464832805054,0.0013334652022047,-0.0013335535659513,0.0013463881806275,4.9240179082755e-07,-2.2318710446187e-08,3.9888188603465e-07,1.5884009385011e-07,-0.0015034479330487,0.0015039587974112,-0.0015736810199309,0.0015744305812341,-0.0015737267196634,0.001574343208479,-0.0015737936302512,0.0015742344115432,-0.0015739122546604,0.0015741335244431,-0.0013396169449164,0.0013402500576126,-0.0013398997675029,0.0013400456600204,-0.0015039103821163,0.0015048253626301,-0.0015044440881608,0.0015042073473912,7.0039180149476e-06,-6.1184077253604e-06,-0.00099901879001045,0.00099989464031987,3.2677951677172e-07,5.6780095773591e-07,-0.0010517551480377,0.0010569026201264,-0.0010516271421766,0.0010569840743803,-0.001056113485534,0.001052533610294,-0.001056049892336,0.0010525923637892,-0.0011179677920124,0.0011059960944622,-0.0011049962084993,0.0011188843892606,0.0035949639063674,0.0035841315099394,0.74157907788897,1473840,32975,0.0062453321092868,0.0062453616240872,0.0041578830217249,29.175403088737,0.0001486032247099,0.0001486032247099,0.0001486032247099,1521852.8568346,0.016788134231749
33004800,0.99999440109735,0.016737619329693,0.0059112521823739,0.0059112783869254,0.0049150887603939,-0.0015044098445791,0.0015042113881753,-6.6553546971788e-06,6.4373179315993e-06,-3.3705614271744e-07,1.9687424223266e-07,-0.0015766341525972,0.0015719189993954,-0.0015723050331741,0.001576226017479,-0.0015765196621763,0.0015720677844336,-0.0015721091843121,0.0015764624985635,-0.0013473561043473,0.0013343554404269,-0.0013344175487444,0.0013472864987292,4.9448489943531e-07,-3.5887806612436e-08,4.0013161418532e-07,1.4626713091688e-07,-0.0015040676676226,0.0015045674318489,-0.0015739292185465,0.0015746744192023,-0.0015739769754919,0.0015745857348743,-0.0015740454798935,0.0015744759920859,-0.0015741699158683,0.0015743686752317,-0.0013404975960079,0.0013411322943416,-0.0013408005352964,0.001340911957157,-0.0015049001509718,0.0015058196986649,-0.0015054538807546,0.00150517987873,6.9971077037555e-06,-6.127091749601e-06,-0.0009990334048738,0.00099989423633755,3.1185721342802e-07,5.6596935758003e-07,-0.0010520823151063,0.0010572118043764,-0.0010519482341795,0.0010572969433873,-0.0010564415942181,0.0010528427613277,-0.0010563750543542,0.0010529063659507,-0.0011180786006285,0.0011060937621106,-0.0011051065826164,0.0011189860942432,0.0035967215333438,0.0035840927625618,0.74293812025016,1473840,32975,0.0062478737636528,0.0062479020987182,0.0041579234198333,29.149900462003,0.00014839920369602,0.00014839920369602,0.00014839920369602,1510871.11485,0.016793345556261
33091200,0.99999460417436,0.016737622645562,0.0059112533574943,0.0059112795620451,0.0049150897260226,-0.0015044826416639,0.0015042795003234,-6.6572725518956e-06,6.4344593986244e-06,-3.4200493703317e-07,1.9649895015043e-07,-0.00157663045725,0.0015719083000233,-0.0015723004307692,0.0015762164220907,-0.0015765122324689,0.0015720594219452,-0.0015721039681728,0.0015764531130071,-0.0013475006428723,0.0013345001318085,-0.0013345662463703,0.0013474270281069,4.9758936051206e-07,-3.7506034759295e-08,4.0293118231155e-07,1.4497334384239e-07,-0.0015041376253996,0.0015046386747484,-0.0015739200543568,0.0015746711883035,-0.0015739706228692,0.0015745792412957,-0.001574038824508,0.0015744694898197,-0.0015741638831334,0.0015743619083756,-0.001340641759319,0.0013412778105931,-0.0013409446641592,0.0013410546757369,-0.0015050214425236,0.0015059429796144,-0.0015055773685275,0.0015053018372145,7.0022786318447e-06,-6.1214714673813e-06,-0.00099893549820421,0.00099980691154719,3.1547626156497e-07,5.7403817085244e-07,-0.0010520863505816,0.0010572244770884,-0.0010519517733766,0.001057311381369,-0.0010564452882126,0.001052855103791,-0.001056376619934,0.0010529198058417,-0.0011179831925247,0.0011060111440982,-0.0011050106590341,0.0011189022799612,0.0035967619187491,0.0035840547814066,0.75302743658377,1473840,32975,0.0062481647856608,0.0062481937262279,0.0041575412924301,29.124397281099,0.00014819517824879,0.00014819517824879,0.00014819517824879,1508550.3139147,0.016793549936791
33177600,0.99999479960151,0.016737625849034,0.0059112544925572,0.0059112806971078,0.0049150906593694,-0.0015049603252144,0.0015047617947525,-6.6576086607906e-06,6.4393745255312e-06,-3.4536174353509e-07,2.0454829821993e-07,-0.001576787826158,0.0015720647782765,-0.0015724560891595,0.0015763746203779,-0.0015766658784887,0.001572219709612,-0.0015722558602592,0.0015766151234218,-0.0013482579667464,0.0013352605514695,-0.001335318324033,0.0013481926297518,5.0162966926976e-07,-4.4875871391933e-08,4.0969075246579e-07,1.3499486249289e-07,-0.0015046192434186,0.0015051170532024,-0.0015740740181393,0.0015748312782501,-0.0015741300942312,0.0015747337113641,-0.0015741965233908,0.0015746257315629,-0.0015743270772486,0.0015745125804533,-0.0013413959776743,0.0013420412958695,-0.0013417150625892,0.0013418018102039,-0.0015057857221858,0.0015067094640893,-0.0015063527780762,0.0015060571676172,7.0075548719871e-06,-6.1214960917104e-06,-0.00099893795092096,0.00099981460248563,3.0979853940663e-07,5.8507471512183e-07,-0.0010523973389266,0.0010575368312879,-0.0010522571672663,0.0010576293357766,-0.0010567580293609,0.0010531657210555,-0.0010566838208397,0.0010532359615664,-0.0011180141538079,0.0011060476161419,-0.0011050361957394,0.0011189439342635,0.0035981371527055,0.003584017543213,0.7559395193327,1473840,32975,0.0062501497981071,0.0062501787768492,0.0041575712920479,29.098894377397,0.00014799115501917,0.00014799115501917,0.00014799115501917,1499585.4467933,0.016797619757467
33264000,0.99999498777804,0.016737628946925,0.0059112555899797,0.0059112817945302,0.004915091562415,-0.0015050221677998,0.0015048234876666,-6.6576682602797e-06,6.439275356002e-06,-3.4657670209062e-07,2.0563724285891e-07,-0.0015767991278574,0.0015720751834601,-0.0015724674079868,0.001576385005866,-0.0015766764285201,0.0015722308789932,-0.0015722664197565,0.0015766262789079,-0.001348353971216,0.0013353571872764,-0.0013354143356631,0.0013482892235228,5.0239867219581e-07,-4.6416286327167e-08,4.105688255737e-07,1.3335291018829e-07,-0.0015046813924055,0.0015051784420192,-0.001574084461507,0.0015748425652987,-0.0015741413682573,0.0015747441544235,-0.0015742077175053,0.0015746362448785,-0.0015743391012921,0.0015745222524371,-0.0013414918313003,0.0013421380811819,-0.0013418133616798,0.0013418961172493,-0.0015058927357832,0.0015068171395253,-0.0015064620430321,0.001506162555622,7.0079711266185e-06,-6.1210522717663e-06,-0.00099880798956255,0.00099968549376577,3.0897104384811e-07,5.8677288011249e-07,-0.0010523585172944,0.0010574980004675,-0.0010522175048148,0.0010575913532133,-0.0010567192046228,0.0010531269070737,-0.0010566441564549,0.0010531979869743,-0.0011178872856434,0.0011059224680046,-0.0011049093275955,0.0011188187585417,0.0035981060351975,0.0035839810346344,0.75905495138523,1473840,32975,0.0062504046094462,0.0062504335929713,0.0041570362244062,29.082801549486,0.00014786241239589,0.00014786241239589,0.00014786241239589,1497290.5520605,0.016797594460019
33350400,0.99999517041236,0.016737631966866,0.0059112566595453,0.0059112828640958,0.0049150924432252,-0.001505357854465,0.0015051632265777,-6.6569236529997e-06,6.4425946215259e-06,-3.4569482716206e-07,2.0880949996983e-07,-0.0015770840897376,0.0015723625850589,-0.0015727515275914,0.0015766732539577,-0.0015769606485216,0.0015725190441135,-0.0015725497789269,0.0015769152996717,-0.0013487176350195,0.001335723116158,-0.0013357754170318,0.0013486576864483,5.0318451743801e-07,-4.7905713416839e-08,4.1244233572093e-07,1.3079984278279e-07,-0.001505019448821,0.0015055158140799,-0.0015743698808745,0.0015751295349034,-0.0015744282405202,0.001575029646718,-0.0015744938955155,0.0015749224502343,-0.0015746267395896,0.0015748069766527,-0.0013418551431295,0.0013425043004532,-0.001342180999235,0.0013422579863858,-0.0015062797119615,0.0015072041869504,-0.0015068512730975,0.0015065473469655,7.0100797050346e-06,-6.1215420489698e-06,-0.00099889903390351,0.00099977814815872,3.0757712485302e-07,5.8980109173186e-07,-0.0010525485419781,0.0010576890176293,-0.001052406052924,0.0010577838444693,-0.0010569100865515,0.0010533170479493,-0.0010568335731917,0.0010533895991269,-0.0011179947120288,0.0011060304199897,-0.0011050141912764,0.00111892930189,0.0035991573437327,0.0035839452495086,0.76237033927066,1473840,32975,0.0062518018759628,0.0062518308653727,0.004157420289915,29.205065075203,0.00014884052060162,0.00014884052060162,0.00014884052060162,1495395.0083168,0.016800827037305
33436800,0.99999534770199,0.016737634912,0.0059112577024032,0.0059112839069536,0.0049150933026428,-0.001505705281759,0.0015055200244045,-6.6532903676873e-06,6.4482179705525e-06,-3.4317980169563e-07,2.1548618146494e-07,-0.0015773897039368,0.0015726764933049,-0.0015730568767339,0.0015769870510458,-0.0015772660632905,0.0015728337661195,-0.0015728533316098,0.0015772309602262,-0.0013490832961256,0.0013360961178406,-0.0013361375265663,0.0013490336876458,5.0733980894235e-07,-4.7865661987647e-08,4.1771119572764e-07,1.3011954325836e-07,-0.0015053694031693,0.0015058703331269,-0.0015746753768352,0.0015754428098279,-0.0015747357530793,0.0015753414925674,-0.0015748002190813,0.0015752343119726,-0.0015749357085395,0.0015751169005903,-0.0013422193787317,0.0013428781056548,-0.001342552515184,0.0013426259277288,-0.0015066764977009,0.0015076073776064,-0.0015072539036122,0.0015069472799622,7.0107424338784e-06,-6.1227208628492e-06,-0.00099900138128575,0.00099988000424517,3.0424805429284e-07,5.921837314672e-07,-0.0010527474667272,0.0010578863259408,-0.0010526024984459,0.0010579828506054,-0.0010571096266585,0.0010535139380921,-0.0010570317091317,0.0010535881614277,-0.0011181150744484,0.0011061499347173,-0.0011051322810353,0.0011190507712753,0.0036002649547731,0.0035839101739067,0.76586128730433,1473840,32975,0.0062532587457844,0.0062532882484336,0.0041578470368868,29.335454883266,0.00014988363906613,0.00014988363906613,0.00014988363906613,1493484.3085445,0.016804224773391
33523200,0.99999551976072,0.016737637783959,0.0059112587191395,0.0059112849236897,0.0049150941411298,-0.0015060531942772,0.0015058812956496,-6.6482413214564e-06,6.4564467137378e-06,-3.3883115919005e-07,2.2450773698227e-07,-0.0015776919334279,0.0015729897078474,-0.001573358063889,0.0015773012139162,-0.0015775671507231,0.001573148360047,-0.0015731530687588,0.0015775468383232,-0.001349455851521,0.0013364800572158,-0.0013365065084832,0.0013494210126074,5.1268672792981e-07,-4.7145745635568e-08,4.2388005368985e-07,1.3025854504827e-07,-0.0015057208153751,0.0015062279877398,-0.0015749780249914,0.0015757552425875,-0.0015750404083984,0.0015756522095945,-0.0015751043448984,0.0015755452033781,-0.0015752419802769,0.0015754256605473,-0.0013425919322808,0.0013432615095812,-0.0013429313771203,0.0013430030832014,-0.0015070724172284,0.0015080122561453,-0.0015076548098584,0.0015073472265281,7.0118530875844e-06,-6.1247539005243e-06,-0.00099909884892397,0.00099997649525344,3.0069989830537e-07,5.9464064155328e-07,-0.0010529551632444,0.0010580921995363,-0.0010528080735266,0.0010581905150222,-0.0010573184448216,0.0010537187689865,-0.0010572386191769,0.0010537949704239,-0.0011182255284876,0.0011062584598157,-0.0011052395828949,0.0011191622476048,0.0036013731143501,0.0035838757936876,0.76950070437792,1473840,32975,0.0062547258167856,0.006254755077077,0.0041582525945077,29.466588246592,0.00015093270597274,0.00015093270597274,0.00015093270597274,1491560.160727,0.016807620964937
33609600,0.99999568669453,0.016737640566538,0.0059112597043684,0.0059112859089183,0.004915094953251,-0.0015064119889518,0.0015062343809291,-6.6515893647985e-06,6.4543144887902e-06,-3.4316238880119e-07,2.2332854156253e-07,-0.0015779958697755,0.0015732852907981,-0.0015736612489587,0.0015775980916893,-0.0015778685453083,0.0015734457414989,-0.0015734555464029,0.0015778441445739,-0.0013498543775579,0.001336874545658,-0.0013369058363236,0.001349815455563,5.1162938476961e-07,-5.1314964778344e-08,4.2348820583118e-07,1.2495056450591e-07,-0.0015060795353306,0.0015065810248133,-0.0015752798823154,0.0015760541748351,-0.0015753437515098,0.0015759486530353,-0.0015754078221486,0.0015758431301791,-0.0015755462171397,0.0015757219907443,-0.0013429903272968,0.0013436573536265,-0.0013433327095976,0.0013433943239615,-0.0015074714746804,0.0015084071146528,-0.0015080547141091,0.0015077384771963,7.0125574838298e-06,-6.1254993488891e-06,-0.00099918928713782,0.0010000669732549,2.9850631253358e-07,5.97561321982e-07,-0.0010531781966508,0.0010583137786808,-0.0010530300648149,0.0010584141774279,-0.0010575418433886,0.0010539396228578,-0.0010574597213418,0.001054017754218,-0.0011183150042362,0.0011063485232194,-0.0011053281550038,0.0011192537758539,0.0036024768622533,0.0035838420902026,0.76843337296866,1473840,32975,0.0062561983767636,0.0062562273831885,0.0041586310995475,29.59779141014,0.00015198233128112,0.00015198233128112,0.00015198233128112,1489620.4763856,0.016811000822697
33696000,0.99999584860831,0.016737643288337,0.0059112606676449,0.0059112868721947,0.0049150957484977,-0.0015065806383214,0.0015064096859995,-6.6487282654014e-06,6.4581384503006e-06,-3.4062214936874e-07,2.2734041871011e-07,-0.0015782371425048,0.0015735324166341,-0.0015739021966543,0.0015778455328317,-0.0015781092422156,0.0015736934270123,-0.001573695998534,0.0015780920722718,-0.0013499408791809,0.0013369673577348,-0.0013369914172619,0.0013499090579882,5.0803951486671e-07,-5.6381609463856e-08,4.1848762842854e-07,1.2125418199485e-07,-0.0015062558546518,0.0015067486929547,-0.0015755283586984,0.0015762941368397,-0.0015755918075894,0.001576189012996,-0.0015756568639628,0.0015760825975075,-0.0015757947958825,0.0015759619211688,-0.0013430851552677,0.0013437414724592,-0.0013434262011332,0.00134347998137,-0.0015075925861704,0.0015085212287301,-0.001508177302744,0.0015078515016091,7.013959224745e-06,-6.125102367873e-06,-0.00099923731964555,0.0010001167407862,2.9999827537473e-07,5.9776810364687e-07,-0.0010532268346112,0.0010583648779413,-0.0010530791807498,0.0010584649252262,-0.0010575907587403,0.0010539903757389,-0.0010575090391265,0.0010540681225043,-0.0011183749418255,0.0011064089022326,-0.0011053871468704,0.0011193151098043,0.0036029818298342,0.0035838090569631,0.77489376173463,1473840,32975,0.0062569101947672,0.0062569392697107,0.004158834056033,29.72900756248,0.00015303206049984,0.00015303206049984,0.00015303206049984,1490735.0100907,0.016812654383089
33782400,0.99999600560626,0.016737645930094,0.0059112616026223,0.0059112878071721,0.0049150965202996,-0.001507080842154,0.0015069077568325,-6.6517985965844e-06,6.4590394509597e-06,-3.4515314338748e-07,2.298880750016e-07,-0.001578601920115,0.0015738913510471,-0.0015742656835692,0.0015782058046164,-0.0015784717458721,0.0015740546801192,-0.0015740571113253,0.0015784547334344,-0.0013505471905042,0.0013375698838607,-0.0013375938574083,0.0013505156829929,5.1016939436159e-07,-6.1348921854431e-08,4.1978585172768e-07,1.1710978678305e-07,-0.0015067563938715,0.0015072464145075,-0.0015758895911494,0.0015766566804674,-0.0015759548018652,0.0015765497797203,-0.0015760203579276,0.001576442751157,-0.0015761600807692,0.0015763202501693,-0.0013436896391816,0.0013443462781549,-0.0013440360012226,0.0013440792151149,-0.0015082115054108,0.0015091426251732,-0.0015088030475419,0.0015084656021958,7.013588432687e-06,-6.129446693796e-06,-0.00099939248621715,0.0010002672914986,2.950213166184e-07,5.9820289398224e-07,-0.0010535690016046,0.0010587020029114,-0.0010534195266405,0.0010588038188665,-0.0010579343158351,0.0010543261901397,-0.0010578508527542,0.0010544057168015,-0.0011185542080694,0.0011065812970907,-0.0011055624755007,0.0011194914332607,0.0036045923799153,0.0035837766752189,0.77568242499411,1473840,32975,0.0062589752674658,0.0062590043131665,0.0041594738789229,29.860220097165,0.00015408176077732,0.00015408176077732,0.00015408176077732,1486629.3982394,0.016817505878254
33868800,0.99999615779199,0.016737648469734,0.0059112625018997,0.0059112887064494,0.0049150972613851,-0.0015073034184238,0.0015071436566934,-6.645976099918e-06,6.4664675820292e-06,-3.4017842614656e-07,2.3805166271564e-07,-0.0015788562360548,0.0015741577313124,-0.0015745194283065,0.0015784723813806,-0.0015787253191114,0.0015743219280239,-0.0015743096727017,0.0015787225684432,-0.0013507296468449,0.0013377647533089,-0.0013377740793473,0.0013507118618135,5.1296441145162e-07,-6.1744838329131e-08,4.2198411587104e-07,1.1755034151129e-07,-0.0015069843148161,0.0015074769529482,-0.0015761475100883,0.0015769190895448,-0.001576213536504,0.0015768118244892,-0.0015762791931851,0.001576703896112,-0.0015764199016851,0.0015765808586253,-0.0013438760724072,0.0013445359255156,-0.0013442245743107,0.0013442670725253,-0.0015084126275188,0.0015093487120609,-0.0015090081224617,0.001508669023554,7.0172765918199e-06,-6.1274642926154e-06,-0.00099944024570307,0.0010003204959825,2.9672951910855e-07,6.0170129024975e-07,-0.0010536694751487,0.0010588079234396,-0.0010535192162098,0.0010589102371284,-0.0010580353807043,0.0010544314444191,-0.0010579513456691,0.0010545115058933,-0.0011186064766488,0.0011066381898699,-0.0011056127956728,0.0011195497805792,0.0036052698208196,0.0035837449254709,0.76926643158587,1473840,32975,0.0062599237758367,0.0062599527869938,0.0041596845221354,29.991427782625,0.000155131422261,0.000155131422261,0.000155131422261,1486646.4631853,0.016819648848926
33955200,0.99999630526859,0.016737650924405,0.0059112633712039,0.0059112895757535,0.0049150979774477,-0.0015072963560363,0.0015071352373038,-6.6452880104616e-06,6.4645032505195e-06,-3.3908659252471e-07,2.3512174603852e-07,-0.0015790251973669,0.0015743269790484,-0.0015746884705866,0.0015786412382904,-0.0015788944843204,0.0015744900726444,-0.0015744804905776,0.0015788893948219,-0.0013505590901785,0.0013375951624297,-0.0013376075654015,0.0013505382303689,5.1533111566211e-07,-5.5420898795113e-08,4.2361985518797e-07,1.2505548587844e-07,-0.0015069721877698,0.001507473684586,-0.0015763137266389,0.0015770920685727,-0.00157637898158,0.0015769858701823,-0.0015764443904936,0.0015768772013538,-0.0015765832397626,0.0015767566881129,-0.0013437030623058,0.0013443666832618,-0.0013440443981159,0.0013441044167078,-0.0015082424747094,0.0015091839718075,-0.0015088338063584,0.0015085099530352,7.0228139965668e-06,-6.1197931341021e-06,-0.000999464421802,0.0010003576018612,3.0602961257176e-07,6.0557954447228e-07,-0.0010535955861235,0.001058747952496,-0.0010534476403936,0.001058848577148,-0.0010579606979476,0.0010543718053498,-0.0010578776373189,0.0010544498672578,-0.0011186329093993,0.0011066777868405,-0.0011056408994193,0.0011195874787368,0.0036052199643801,0.0035837137989819,0.76728902767904,1473840,32975,0.0062598924737168,0.0062599216664664,0.0041598083106714,30.122638791507,0.00015618111033206,0.00015618111033206,0.00015618111033206,1490960.1384417,0.016819709686885
34041600,0.99999644823379,0.016737653297125,0.0059112642116127,0.0059112904161625,0.0049150986693494,-0.0015075257860703,0.0015073671584711,-6.6441412794669e-06,6.4657674266627e-06,-3.3760918559471e-07,2.3624251599856e-07,-0.0015793241602211,0.0015746293064174,-0.0015749875072251,0.0015789425364759,-0.0015791947544074,0.0015747919931218,-0.0015747794654846,0.0015791911239973,-0.001350697194171,0.0013377340871939,-0.0013377434888115,0.0013506773752866,5.1106208953256e-07,-5.9400602529249e-08,4.195318554582e-07,1.2120902546371e-07,-0.0015072066845383,0.0015077003246496,-0.0015766177743908,0.0015773880157696,-0.0015766831456421,0.0015772826166313,-0.0015767478640034,0.0015771732940535,-0.0015768873794753,0.0015770528527316,-0.0013438440867517,0.0013444997908014,-0.0013441870182416,0.0013442384179617,-0.0015084442595475,0.0015093777809518,-0.0015090360077781,0.0015087037492263,7.0214635192153e-06,-6.1210911031461e-06,-0.00099959459466171,0.0010004846389984,3.043606863211e-07,6.033772692506e-07,-0.0010536866649431,0.0010588361490597,-0.0010535383101861,0.0010589362410314,-0.0010580516322857,0.0010544601460283,-0.0010579693413805,0.0010545380177534,-0.001118813788725,0.0011068552864143,-0.0011058211244715,0.0011197645991665,0.0036060017799976,0.0035836832836787,0.76515348894129,1473840,32975,0.0062608477435354,0.0062608764921653,0.0041603422786352,30.265686499728,0.00015732549199782,0.00015732549199782,0.00015732549199782,1492053.1472129,0.016822194413638
34128000,0.99999658777465,0.016737655605929,0.0059112650295066,0.0059112912340563,0.004915099342366,-0.0015080104507926,0.001507853435022,-6.6437947388396e-06,6.4670946881274e-06,-3.3649053578411e-07,2.3664301874516e-07,-0.0015798720134948,0.0015751792560952,-0.0015755349203089,0.0015794919702161,-0.0015797439580651,0.0015753415997196,-0.0015753270288505,0.0015797407329129,-0.0013510898289507,0.0013381259207139,-0.0013381330203699,0.0013510697016211,5.1065558448958e-07,-5.9115130017209e-08,4.1956924675528e-07,1.2200515733249e-07,-0.0015076917667301,0.0015081860079418,-0.001577165733935,0.0015779364915238,-0.0015772318529256,0.001577832079867,-0.0015772951525105,0.001577721751539,-0.001577435538339,0.001577601872916,-0.0013442341163097,0.0013448899879867,-0.0013445781682545,0.0013446305564349,-0.0015089013753012,0.0015098343661636,-0.0015094934304443,0.001509161453063,7.022761594261e-06,-6.1207168711083e-06,-0.0009999389069005,0.001000829892655,3.0481583367681e-07,6.0287416295409e-07,-0.0010540013906928,0.0010591527407552,-0.001053852699325,0.0010592518305878,-0.0010583664868653,0.001054776329477,-0.0010582850027007,0.0010548536097107,-0.001119221276313,0.0011072623877824,-0.0011062267213424,0.0011201727781656,0.0036077996678322,0.0035836533727297,0.76284114704818,1473840,32975,0.0062628579365332,0.0062628863216304,0.0041617736147043,30.535932996928,0.00015948746397542,0.00015948746397542,0.00015948746397542,1493598.389701,0.016827737054355
34214400,0.99999672394158,0.01673765784551,0.0059112658231418,0.0059112920276912,0.0049150999946773,-0.0015085216405468,0.0015083415651109,-6.6571004868933e-06,6.4573005851703e-06,-3.474221558105e-07,2.2480364825189e-07,-0.0015804524028019,0.0015757355807219,-0.001576114366867,0.0015800498075132,-0.0015803246824128,0.0015758975677739,-0.0015759067894844,0.0015802983872945,-0.0013514978936657,0.0013385070376596,-0.0013385380371763,0.0013514549959348,5.1248670581705e-07,-5.6526621993117e-08,4.2187719172694e-07,1.2437770252318e-07,-0.0015081893091276,0.0015086880155096,-0.0015777323220812,0.0015785071647669,-0.0015777982433437,0.0015784027226119,-0.001577861459244,0.0015782926426536,-0.0015780016703183,0.0015781726537559,-0.001344626861542,0.0013452871298837,-0.0013449706374074,0.0013450283780529,-0.0015093695993767,0.0015103059850839,-0.0015099607359239,0.0015096336393043,7.0229686066458e-06,-6.1238597366916e-06,-0.0010003003287517,0.0010011886403363,3.0350453960074e-07,6.0142643637303e-07,-0.001054328288843,0.001059478141755,-0.0010541795971152,0.0010595773453134,-0.0010586945064852,0.0010551007581113,-0.0010586129907867,0.0010551779251144,-0.0011196528618445,0.0011076881135913,-0.0011066550433272,0.0011206016746076,0.0036096601489234,0.003583624052237,0.75834974948085,1473840,32975,0.0062649269224141,0.0062649557836843,0.0041632684261463,30.813677648833,0.00016170942119066,0.00016170942119066,0.00016170942119066,1495303.7300546,0.016833464704238
34300800,0.99999685673069,0.016737660013627,0.0059112665917601,0.0059112927963094,0.0049151006255573,-0.0015089360063255,0.0015087437046188,-6.6657850715988e-06,6.4540735600545e-06,-3.5255943226517e-07,2.1778642726207e-07,-0.0015809890575934,0.0015762583621768,-0.0015766493129683,0.0015805747519412,-0.0015808614826105,0.0015764195223657,-0.0015764422183235,0.0015808227307089,-0.0013517683155654,0.001338759324679,-0.0013388041264881,0.0013517140935237,5.1298056241157e-07,-5.4341409131988e-08,4.2328224777391e-07,1.2539774203515e-07,-0.0015085968904886,0.0015090979712848,-0.0015782620645524,0.0015790391958965,-0.0015783282120568,0.0015789341142815,-0.0015783907031412,0.0015788245573576,-0.0015785309011316,0.0015787045268804,-0.0013448874889722,0.0013455506280345,-0.0013452309315043,0.0013452922376775,-0.0015096957248085,0.0015106323605941,-0.0015102851820067,0.0015099621894872,7.0251909973216e-06,-6.1271777383358e-06,-0.001000651825261,0.001001539209579,3.0308877294248e-07,6.0134377819506e-07,-0.0010545962526493,0.001059746683669,-0.0010544475008773,0.0010598465358593,-0.0010589644315079,0.0010553675896866,-0.0010588826795689,0.0010554448012279,-0.0011200691985767,0.0011080968908688,-0.0011070651411503,0.001121016977485,0.0036112414424565,0.0035835953093031,0.75287681596601,1473840,32975,0.0062666178649996,0.0062666488634785,0.0041647240351265,31.092111199718,0.00016393688959774,0.00016393688959774,0.00016393688959774,1498576.7195007,0.016838384917402
34387200,0.99999698613665,0.016737662132683,0.0059112673428488,0.0059112935473984,0.0049151012424357,-0.0015093117236738,0.0015091046677262,-6.6733560502453e-06,6.4474314170001e-06,-3.5942163443499e-07,2.0979752050671e-07,-0.0015815196347732,0.0015767738675643,-0.0015771796100435,0.0015810906451649,-0.0015813924513387,0.0015769350703305,-0.0015769729524771,0.0015813384006039,-0.0013519624000454,0.001338937523275,-0.0013389967225956,0.0013518928536633,5.1008762036747e-07,-5.5979073616403e-08,4.1950879938511e-07,1.2512481124329e-07,-0.0015089669472246,0.0015094636644702,-0.0015787877769399,0.0015795589643696,-0.0015788526503313,0.0015794546349712,-0.0015789163498599,0.0015793447079876,-0.001579054811226,0.0015792261516035,-0.001345076981832,0.0013457322680219,-0.0013454155311772,0.0013454772966145,-0.0015099630551762,0.0015108948518697,-0.0015105512794893,0.0015102267204968,7.0237861391614e-06,-6.1299164717237e-06,-0.0010010069409956,0.0010018903017961,3.0274678396756e-07,5.9788423861165e-07,-0.0010548251501074,0.0010599727804631,-0.0010546775311952,0.0010600718631422,-0.001059192964543,0.0010555929687668,-0.0010591123992007,0.0010556689889829,-0.0011204982812587,0.0011085191151685,-0.0011074930065842,0.0011214418650972,0.003612707897561,0.0035835671378717,0.75509890197452,1473840,32975,0.0062681438473892,0.0062681729198728,0.0041661875486047,31.370616220396,0.00016616492976317,0.00016616492976317,0.00016616492976317,1502642.1039303,0.016842973374109
34473600,0.9999971121572,0.016737664203688,0.0059112680767566,0.0059112942813062,0.0049151018456256,-0.0015100408839272,0.0015098416610421,-6.6725603029317e-06,6.4540390715731e-06,-3.5464322735422e-07,2.1316110623567e-07,-0.0015821924959885,0.0015774544351723,-0.0015778505830139,0.0015817716562303,-0.0015820678842127,0.0015776143098186,-0.0015776443353244,0.0015820195469323,-0.0013526840026044,0.0013396589197293,-0.0013397101828001,0.0013526212291447,5.1747380724232e-07,-4.7193890300576e-08,4.2933428206612e-07,1.3184937692694e-07,-0.001509691180217,0.0015102044820615,-0.0015794548248906,0.001580241749338,-0.0015795201415241,0.0015801382124687,-0.0015795814271689,0.0015800284586279,-0.0015797223606169,0.0015799090072455,-0.00134578541582,0.0013464628472404,-0.0013461328240639,0.0013462070351816,-0.0015107960355995,0.0015117431581029,-0.0015113846141259,0.0015110746848971,7.0236158079169e-06,-6.1352755480129e-06,-0.0010014351695169,0.0010023128037564,2.9767845832376e-07,5.9530103182623e-07,-0.0010553044619312,0.0010604483051563,-0.0010551550516844,0.0010605472162414,-0.0010596746694815,0.0010560673736964,-0.0010595940139317,0.0010561443647941,-0.0011210293257201,0.001109041002914,-0.0011080199744455,0.0011219676726686,0.0036153429443234,0.0035835395264496,0.7578306445209,1473840,32975,0.0062711784296728,0.0062712052151919,0.0041679570356392,31.649129238705,0.00016839303390964,0.00016839303390964,0.00016839303390964,1500611.6672843,0.016850942509397
34560000,0.99999723479368,0.016737666228403,0.0059112687940901,0.005911294998639,0.0049151024356741,-0.0015107704349695,0.0015105857531837,-6.666942242056e-06,6.4626797945197e-06,-3.5027321032542e-07,2.234173145518e-07,-0.0015828376995683,0.0015781103411763,-0.0015784953077015,0.0015824301104983,-0.001582708996813,0.0015782729076707,-0.0015782869557267,0.0015826794172029,-0.0013534317320704,0.0013404221613299,-0.0013404570220507,0.0013533874071298,5.1607077073693e-07,-5.4153139648109e-08,4.2732061495436e-07,1.2402951683434e-07,-0.0015104332649163,0.0015109370143906,-0.0015801098913173,0.0015808899872257,-0.0015801751602767,0.0015807835805171,-0.00158023962823,0.0015806766849468,-0.0015803802454925,0.0015805538844102,-0.0013465481124132,0.001347220297053,-0.0013468973646624,0.0013469544903055,-0.0015116377412967,0.0015125807595076,-0.0015122305605954,0.001511905130965,7.0269963211997e-06,-6.1348997554418e-06,-0.0010018459394943,0.0010027282793142,2.9784381759247e-07,6.0171130709186e-07,-0.0010558243616006,0.0010609710168083,-0.0010556739787862,0.0010610730563596,-0.0010601958533617,0.0010565893148226,-0.0010601122692494,0.0010566688649526,-0.0011215209203015,0.0011095369932604,-0.0011085096812355,0.001122466697978,0.0036179763583631,0.0035835124640268,0.76127756361038,1473840,32975,0.0062742282571253,0.0062742570572673,0.0041696758233762,31.92764480226,0.00017062115841808,0.00017062115841808,0.00017062115841808,1498591.3592045,0.016858895640237
34646400,0.99999735405105,0.016737668208829,0.0059112694955388,0.0059112957000875,0.0049151030132032,-0.0015114886428315,0.0015113239331048,-6.6604380360271e-06,6.4765189961293e-06,-3.4214248616596e-07,2.350912188604e-07,-0.001583476093424,0.0015787659900211,-0.0015791313878853,0.0015830868602363,-0.0015833486105771,0.0015789293405541,-0.0015789216118397,0.001583338471288,-0.0013541941611502,0.0013411960741533,-0.0013412099609363,0.0013541691516127,5.2629373646785e-07,-4.7329915845265e-08,4.4213377195526e-07,1.2773513432028e-07,-0.0015111531815697,0.0015116750119403,-0.0015807458798146,0.0015815497868803,-0.0015808157464654,0.0015814402148871,-0.0015808758058098,0.0015813340116095,-0.0015810223218877,0.0015812079634671,-0.0013472997602252,0.001348001308451,-0.0013476642436,0.0013477264790241,-0.0015124544657909,0.001513415214927,-0.0015130541042362,0.0015127367653316,7.0187294962177e-06,-6.1500716113386e-06,-0.0010022674843498,0.0010031262060393,2.8062309124022e-07,5.9470213822198e-07,-0.0010563540490538,0.0010614767369262,-0.0010561988968218,0.0010615809668138,-0.0010607280388725,0.0010570925661391,-0.0010606420442142,0.0010571752520681,-0.0011219985687177,0.001109987112262,-0.0011089795336437,0.0011229226290252,0.0036205834423665,0.0035834859399015,0.76566257665913,1473840,32975,0.0062772421977226,0.0062772741584108,0.0041713804849877,32.206162758598,0.00017284930206878,0.00017284930206878,0.00017284930206878,1496244.5949958,0.016866762705274
34732800,0.99999747068894,0.016737670159317,0.0059112701861585,0.0059112963907074,0.0049151035824512,-0.0015124566724337,0.0015122967622028,-6.6631851266863e-06,6.4837207839094e-06,-3.4458649670073e-07,2.4251185173241e-07,-0.0015843431756456,0.0015796297245694,-0.0015799949495236,0.0015839561871083,-0.0015842091099983,0.0015797970574776,-0.0015797824069029,0.0015842091469487,-0.001355215270326,0.0013422198124546,-0.0013422262804377,0.001355200977522,5.1405783811707e-07,-6.9478505918071e-08,4.2940539442272e-07,1.0343998786655e-07,-0.0015121408669295,0.0015126267752252,-0.0015816256165815,0.0015824003263934,-0.0015816984853392,0.0015822856727606,-0.0015817603547031,0.0015821823880768,-0.0015819077498722,0.00158205207701,-0.001348340916336,0.0013490124590859,-0.0013487102497796,0.0013487225622381,-0.0015135389820367,0.0015144700016108,-0.0015141425208939,0.0015137810432922,7.0371474320042e-06,-6.1421716359287e-06,-0.0010028287729226,0.0010037143509658,2.8881253648364e-07,6.1524152836686e-07,-0.0010570805707371,0.0010622286629382,-0.0010569233709924,0.001062338204139,-0.001061457933462,0.0010578407352905,-0.0010613667444822,0.0010579279945905,-0.0011226134651027,0.0011106236519215,-0.0011095863784776,0.0011235695582334,0.0036241009604116,0.0035834599476893,0.77095579759593,1473840,32975,0.0062812587318937,0.0062812877712268,0.0041737704086958,32.601645047834,0.00017601316038267,0.00017601316038267,0.00017601316038267,1494156.4990922,0.016877359626904
34819200,0.99999758494398,0.016737672066387,0.0059112708615397,0.0059112970660886,0.0049151041387584,-0.0015135105688977,0.001513369369584,-6.6583518613232e-06,6.4976942366577e-06,-3.3660869367376e-07,2.5319667714015e-07,-0.0015853023777373,0.0015806037605529,-0.0015809512435643,0.0015849331624287,-0.0015851675507641,0.0015807719355417,-0.0015807377158216,0.0015851871452405,-0.0013563230189214,0.0013433378907487,-0.0013433246263928,0.0013563283570631,5.1717884620243e-07,-6.8928424904669e-08,4.347248086513e-07,1.019223480163e-07,-0.0015132022528208,0.0015136919052898,-0.0015825888956597,0.0015833704099107,-0.001582663923559,0.0015832535681181,-0.0015827244722127,0.0015831516811984,-0.0015828741733027,0.0015830190285039,-0.0013494487987571,0.0013501301270433,-0.0013498249725087,0.0013498334377579,-0.001514699104218,0.0015156343830465,-0.0015153056947654,0.0015149425345269,7.0410171286176e-06,-6.1475564429549e-06,-0.0010034677088511,0.0010043517693813,2.8462907801622e-07,6.1790690102376e-07,-0.001057889032198,0.001063036394973,-0.0010577294784772,0.0010631482300388,-0.0010622694084652,0.0010586453358429,-0.0010621759450127,0.0010587348417384,-0.0011233001108168,0.0011113017522603,-0.001110263746061,0.0011242571155303,0.0036279711683655,0.0035834344732165,0.76949567477228,1473840,32975,0.0062856593833362,0.0062856884474889,0.004176424042227,33.045192846945,0.00017956154277556,0.00017956154277556,0.00017956154277556,1491968.0519936,0.016889009119931
34905600,0.99999769674496,0.016737673929383,0.0059112715214138,0.0059112977259626,0.0049151046820066,-0.0015143084443051,0.0015141444288129,-6.6746084752963e-06,6.491479043153e-06,-3.4702151743629e-07,2.3982144238241e-07,-0.0015861765663055,0.0015814548588415,-0.0015818214857277,0.0015857852275308,-0.0015860456590102,0.001581620894197,-0.0015816087473259,0.001586039253429,-0.001357042260136,0.0013440207194229,-0.0013440292121862,0.001357019647295,5.3011312918395e-07,-5.3721626184225e-08,4.5255000933121e-07,1.1588497642509e-07,-0.0015139756672268,0.0015144957183987,-0.001583437780113,0.0015842520221731,-0.0015835167610563,0.0015841351423908,-0.0015835704784951,0.0015840313626537,-0.0015837250928286,0.0015838984473997,-0.0013501261645285,0.0013508440794463,-0.0013505112866405,0.0013505476099428,-0.0015154153553776,0.0015163753151019,-0.0015160256999272,0.0015156886276277,7.0458074347062e-06,-6.1532481490658e-06,-0.0010040454597089,0.00100492682076,2.8064507672455e-07,6.1734952171376e-07,-0.0010584862691898,0.001063634530147,-0.0010583244317112,0.0010637455419578,-0.0010628703635758,0.0010592389317072,-0.0010627764248,0.0010593291067835,-0.0011239035680065,0.0011118945221454,-0.0011108553543103,0.0011248595028892,0.0036309446411586,0.0035834095055272,0.76818882150955,1473840,32975,0.0062889152303845,0.0062889531863606,0.0041788164611616,33.491812263946,0.00018313449811156,0.00018313449811156,0.00018313449811156,1494256.6335947,0.016898072241528
34992000,0.99999780600689,0.016737675739988,0.005911272162952,0.0059112983675021,0.0049151052095336,-0.0015151552142117,0.0015149801164188,-6.6835546492571e-06,6.4889575723692e-06,-3.5144660382358e-07,2.3414990990002e-07,-0.0015870985004504,0.0015823623423576,-0.0015827417453497,0.001586696438609,-0.0015869653953659,0.0015825288711709,-0.0015825292441082,0.001586949655589,-0.001357767950761,0.001344729509336,-0.0013447504795852,0.0013577361510954,5.1994406794092e-07,-6.2108470413303e-08,4.4252238275617e-07,1.0485923377184e-07,-0.0015148247693159,0.0015153244536184,-0.0015843610957595,0.0015851525409277,-0.001584437626158,0.0015850344206471,-0.0015844948775156,0.0015849352344998,-0.0015846465984295,0.001584800959557,-0.0013508554878162,0.0013515532520701,-0.0013512375943385,0.0013512537319634,-0.0015162419976893,0.0015171811682753,-0.0015168470701821,0.0015164940438367,7.0547521265024e-06,-6.150387385963e-06,-0.0010046369942006,0.0010055313171607,2.8683737097421e-07,6.2517562810667e-07,-0.00105906526259,0.0010642261268202,-0.0010589035876102,0.001064340236339,-0.0010634508851089,0.0010598301840791,-0.0010633555237808,0.0010599211373929,-0.0011245725698309,0.0011125701407666,-0.0011115180751982,0.0011255420964071,0.0036340990374051,0.0035833850318115,0.76399331786501,1473840,32975,0.0062923980165959,0.0062924264053388,0.0041812993361875,33.93871522855,0.0001867097218284,0.0001867097218284,0.0001867097218284,1496351.4466047,0.016907670358081
35078400,0.99999791264873,0.016737677499361,0.0059112727865107,0.0059112989910607,0.00491510572179,-0.0015158824712744,0.0015157333948349,-6.6755525966339e-06,6.5070567226171e-06,-3.3948784910424e-07,2.4815298996483e-07,-0.0015879622654079,0.0015832477449862,-0.0015836021203804,0.0015875856440011,-0.0015878279644918,0.0015834151794921,-0.0015833892860223,0.0015878391370479,-0.0013583234720492,0.0013453029172433,-0.0013452975200875,0.0013583190679972,5.2030382829669e-07,-6.3586437213637e-08,4.3845312479065e-07,1.0715813342771e-07,-0.0015155657542587,0.0015160640021661,-0.0015852371715577,0.0015860258471153,-0.0015853115601424,0.0015859094507062,-0.0015853722262663,0.0015858080318887,-0.0015855211389628,0.0015856759543257,-0.0013514260797575,0.0013521145753487,-0.001351800512791,0.001351820979664,-0.001516903304228,0.0015178447734196,-0.0015175081144636,0.0015171558451249,7.0611870554971e-06,-6.1541003442997e-06,-0.0010052429713205,0.0010061401482729,2.9168331925805e-07,6.2363673362799e-07,-0.0010595872899421,0.0010647563123117,-0.0010594280061076,0.001064868447236,-0.0010639762086571,0.0010603569756318,-0.0010638828824718,0.0010604458269434,-0.0011252637775279,0.0011132522101912,-0.0011122000889765,0.0011262340454599,0.0036369727866917,0.0035833610420344,0.76065624436908,1473840,32975,0.0062954634014231,0.0062954917843616,0.0041838193157694,34.385650168872,0.00019028520135097,0.00019028520135097,0.00019028520135097,1500112.2452996,0.01691646650594
35164800,0.99999801659521,0.016737679205991,0.0059112733915516,0.0059112995961015,0.0049151062183375,-0.0015166629169879,0.0015165299226564,-6.6725178373741e-06,6.5196083384657e-06,-3.3234685867986e-07,2.5655289989262e-07,-0.0015888321618184,0.0015841320558587,-0.0015844696250495,0.0015884715947081,-0.0015886995039139,0.0015842990954927,-0.0015842551531299,0.0015887257392139,-0.0013589984873533,0.0013459821210029,-0.0013459614551793,0.0013590079338874,5.3546314201793e-07,-4.9490695474813e-08,4.5202926526047e-07,1.248151169005e-07,-0.0015163408800997,0.0015168692476509,-0.0015861016952905,0.001586921436731,-0.0015861777630973,0.0015868060571146,-0.0015862353929182,0.0015867002371667,-0.0015863861900872,0.0015865706420611,-0.0013520864577095,0.0013528015062991,-0.0013524618267411,0.0013525170791247,-0.0015176213800483,0.0015185931144319,-0.0015182294090593,0.0015179054966186,7.0600690176091e-06,-6.1651953225132e-06,-0.001005889145229,0.0010067734494994,2.8671107799084e-07,6.1399215552184e-07,-0.0010601950820889,0.0010653578254875,-0.0010600361837712,0.001065466659798,-0.0010645875666094,0.001060954640259,-0.0010644972193314,0.0010610408901794,-0.0011259755770774,0.0011139384291289,-0.001112898375218,0.0011269286740255,0.0036400360538315,0.0035833375256719,0.75704957657149,1473840,32975,0.0062987281763169,0.0062987635974755,0.0041864740915429,34.832588943226,0.0001938607115458,0.0001938607115458,0.0001938607115458,1503021.7785229,0.01692581277429
35251200,0.99999811777733,0.016737680858809,0.0059112739776884,0.0059113001822393,0.0049151066988813,-0.0015174526483959,0.0015173154081632,-6.6795711370054e-06,6.5222799372732e-06,-3.3174081625248e-07,2.5148712459972e-07,-0.0015897243792376,0.0015850192333281,-0.0015853584421161,0.0015893615643398,-0.0015895938652494,0.001585183922623,-0.0015851457817922,0.0015896137289339,-0.0013596553347687,0.0013466221349985,-0.0013466078918271,0.001359657368979,5.3669584137069e-07,-4.2655233276432e-08,4.567006159402e-07,1.2845799107508e-07,-0.0015171249059611,0.0015176613025656,-0.0015869887393215,0.0015878151282105,-0.0015870657152248,0.0015876994229835,-0.001587120432312,0.001587595677572,-0.0015872722035402,0.0015874658279379,-0.001352728065962,0.0013534541936234,-0.0013531053836606,0.0013531700807722,-0.0015183541147592,0.0015193282129613,-0.0015189581089346,0.0015186463456904,7.0574711850013e-06,-6.1775095690076e-06,-0.0010065378872334,0.0010074069438152,2.784237539659e-07,6.0665158008594e-07,-0.0010607808724484,0.0010659310116007,-0.0010606213253979,0.0010660403084834,-0.0010651764581705,0.0010615248251952,-0.0010650857044934,0.0010616113555263,-0.0011267079853253,0.0011146466301789,-0.0011136202052165,0.0011276458028436,0.0036430967343409,0.0035833144725398,0.75326371181612,1473840,32975,0.0063019894611252,0.006302026672637,0.004189134547379,35.27952873949,0.00019743622991592,0.00019743622991592,0.00019743622991592,1506185.519179,0.016935152436725
35337600,0.99999821580094,0.016737682451616,0.0059112745427186,0.0059113007472707,0.004915107161627,-0.0015181036850835,0.0015179826504565,-6.6775113722807e-06,6.5372130915894e-06,-3.2492010933516e-07,2.6097567541498e-07,-0.0015904907569471,0.0015857951353136,-0.0015861197347548,0.001590142184724,-0.0015903582842422,0.0015859614415272,-0.0015859064079374,0.0015903954540909,-0.0013601545178203,0.0013471277986753,-0.0013470946234021,0.0013601745474683,5.2415633861696e-07,-5.7737015715626e-08,4.395394328573e-07,1.1738896491574e-07,-0.0015177970338683,0.0015183055741315,-0.0015877731488029,0.0015885698376637,-0.001587847028722,0.0015884567252272,-0.0015879061111184,0.001588350074225,-0.0015880549464228,0.0015882223606445,-0.0013532479181497,0.0013539391635014,-0.0013536182140412,0.0013536596944317,-0.0015189692972298,0.001519920552766,-0.0015195748358605,0.0015192357258885,7.0745126516999e-06,-6.1730662085666e-06,-0.001007068827312,0.0010079591344251,2.919334320811e-07,6.1475165940761e-07,-0.0010612274513434,0.0010664042684103,-0.0010610703434121,0.0010665123717469,-0.0010656270319936,0.0010619936866471,-0.0010655376182143,0.0010620788381711,-0.0011273330306623,0.0011152800380099,-0.0011142353430915,0.0011282925734798,0.0036456568668628,0.0035832918709415,0.74935533129865,1473840,32975,0.0063047189766937,0.0063047522948131,0.0041913816824359,35.663507963626,0.00020050806370901,0.00020050806370901,0.00020050806370901,1509331.9556265,0.016942984502246
35424000,0.99999831014136,0.016737683976313,0.0059112750837546,0.0059113012883074,0.0049151076042512,-0.0015185641221428,0.0015184259429587,-6.690673332052e-06,6.5334188272228e-06,-3.3394151991753e-07,2.5293594359197e-07,-0.0015910661012169,0.0015863491595709,-0.0015866914240388,0.0015906999501367,-0.0015909327532156,0.0015865162526929,-0.0015864784328903,0.0015909532062386,-0.0013604671917719,0.0013474166327888,-0.0013473997072021,0.0013604716236609,5.2852270069284e-07,-5.447946891715e-08,4.4059978108042e-07,1.238298079354e-07,-0.0015182444960554,0.0015187606583717,-0.0015883337346128,0.0015891363767425,-0.0015884054828827,0.0015890251809057,-0.0015884672982327,0.0015889164316444,-0.0015886136745025,0.0015887905548116,-0.0013535487935795,0.0013542420152911,-0.0013539123738818,0.001353966178121,-0.0015193553802351,0.001520317119376,-0.0015199607565753,0.0015196308662608,7.0833970430255e-06,-6.1735591772825e-06,-0.0010074470989169,0.0010083460063882,2.9909741540403e-07,6.1672953804963e-07,-0.0010615136029925,0.0010667038152403,-0.0010613587538375,0.001066810242366,-0.0010659165704008,0.0010622900363515,-0.0010658284739962,0.001062373681918,-0.0011277947946736,0.0011157400815741,-0.0011146896925593,0.0011287618359102,0.0036474150098925,0.0035832697087305,0.74536382705401,1473840,32975,0.0063065903946955,0.0063066212603274,0.0041929686503738,35.946772126375,0.00020277417701099,0.00020277417701099,0.00020277417701099,1512250.4697088,0.01694840142943
35510400,0.99999840082718,0.016737685451164,0.0059112756069048,0.0059113018114578,0.0049151080328011,-0.0015190112641492,0.0015188498606781,-6.7056191532232e-06,6.5246904386133e-06,-3.4464793021942e-07,2.4095527794111e-07,-0.0015916435077981,0.0015869012413589,-0.0015872673869336,0.0015912555766269,-0.0015915098671242,0.0015870681607585,-0.0015870555231227,0.0015915079349117,-0.0013607168341058,0.0013476379696459,-0.0013476464797397,0.0013607005647667,5.1669821645257e-07,-6.5270797704492e-08,4.2365953317851e-07,1.1601565941928e-07,-0.0015186912607319,0.0015191840026844,-0.0015889113973234,0.0015896864046038,-0.0015889783896173,0.0015895777846134,-0.0015890457336506,0.0015894689884434,-0.0015891870405314,0.0015893448749019,-0.0013538061186293,0.0013544667313866,-0.0013541572542976,0.0013541951093098,-0.0015197487591131,0.0015206908472664,-0.0015203503420283,0.0015200039440204,7.08013095788e-06,-6.1828877901056e-06,-0.0010078284107937,0.0010087161808447,2.9900812705549e-07,6.0716301934794e-07,-0.0010617628396617,0.0010669470217769,-0.001061611725435,0.0010670504634536,-0.0010661680057562,0.0010625312234864,-0.0010660828855802,0.0010626124085472,-0.0011282980780976,0.0011162227017855,-0.0011151893623143,0.0011292502709254,0.0036491176064164,0.0035832479815725,0.75005021117302,1473840,32975,0.0063083943674803,0.0063084232587521,0.0041945273808195,36.223902358407,0.00020499121886726,0.00020499121886726,0.00020499121886726,1515318.9543242,0.016953652940834
35596800,0.99999848792125,0.016737686836892,0.0059112760990402,0.0059113023035931,0.0049151084342584,-0.0015198756359287,0.0015196991998394,-6.7201377067686e-06,6.5240208334973e-06,-3.594541461654e-07,2.4112685045657e-07,-0.0015923511880205,0.0015875851740391,-0.0015879707512589,0.0015919427842282,-0.0015922139275047,0.0015877561848151,-0.0015877526711632,0.0015922009368744,-0.001361691897075,0.0013485857762199,-0.0013486041769538,0.0013616635969089,5.2345748565443e-07,-7.3610564777686e-08,4.2620540800396e-07,1.1213483108647e-07,-0.0015195492127485,0.00152004040114,-0.0015896045313322,0.0015903845231506,-0.0015896734851902,0.001590274722644,-0.0015897430442461,0.0015901621374925,-0.0015898875422228,0.0015900356561173,-0.0013547652765011,0.0013554262842697,-0.0013551256301003,0.0013551496299236,-0.0015207732820901,0.0015217279284007,-0.0015213923877996,0.0015210247727338,7.0951703942653e-06,-6.1816331393344e-06,-0.0010082688825889,0.0010091728494053,3.033743222757e-07,6.1786025057196e-07,-0.0010623687855788,0.0010675722389006,-0.0010622147954993,0.0010676775806013,-0.0010667782438594,0.0010631518596643,-0.0010666922807172,0.0010632351543706,-0.0011288137335996,0.0011167423113951,-0.0011156894216352,0.0011297834847837,0.0036521569958452,0.0035832266699729,0.73390814541882,1473840,32975,0.0063119405332914,0.0063119707486764,0.0041963950316255,36.500455512132,0.00020720364409706,0.00020720364409706,0.00020720364409706,1511155.0659393,0.016962767673685
35683200,0.99999857149188,0.016737688174702,0.0059112765739829,0.0059113027785359,0.0049151088221827,-0.0015196952757398,0.0015195140762387,-6.7200129959121e-06,6.5191872148238e-06,-3.5602261113182e-07,2.3260888130458e-07,-0.0015926806364892,0.0015879145566361,-0.0015883014153289,0.0015922718916449,-0.0015925459118253,0.0015880825216926,-0.0015880885670745,0.0015925252377129,-0.0013609867348629,0.0013478805375291,-0.0013479079431023,0.0013609516452002,5.139840373189e-07,-7.118477695828e-08,4.0912179712946e-07,1.218412904032e-07,-0.0015193697162974,0.0015198537880491,-0.0015899437642184,0.0015907044161554,-0.0015900041328495,0.0015906026133928,-0.0015900790724711,0.0015904858947745,-0.0015902137260277,0.0015903686371979,-0.0013540772914779,0.0013547081176443,-0.0013544085703993,0.0013544566233565,-0.0015201982622659,0.0015211414856703,-0.0015208028510798,0.001520451653487,7.0828193603674e-06,-6.1890878143213e-06,-0.0010085719295296,0.0010094561918503,3.0732704457004e-07,5.9517761650424e-07,-0.0010621670905083,0.0010673575565458,-0.0010620227744676,0.0010674542503605,-0.0010665753210943,0.0010629388541629,-0.001066496948734,0.0010630133268561,-0.0011292155316416,0.001117121406175,-0.0011160982502824,0.0011301573113531,0.0036519397384444,0.0035832057761865,0.73830500893475,1473840,32975,0.006311187568915,0.0063112164878161,0.0041976009105029,36.776952102369,0.00020941561681895,0.00020941561681895,0.00020941561681895,1524598.6942496,0.016962457437219
35769600,0.99999865161005,0.016737689464585,0.0059112770317433,0.0059113032362962,0.0049151091965458,-0.0015205632988593,0.0015203982263475,-6.7158551013994e-06,6.5302023135829e-06,-3.5359066315037e-07,2.4656268988494e-07,-0.0015933879230198,0.0015886345308951,-0.0015890073921737,0.0015929917059518,-0.0015932520391486,0.0015888045609054,-0.0015887881163391,0.0015932485328182,-0.0013619654040768,0.0013488662829641,-0.0013488747068889,0.0013619453439536,5.3842725548162e-07,-5.8435600300022e-08,4.3150006098895e-07,1.3709082067783e-07,-0.0015202286753199,0.0015207501988797,-0.0015906366657224,0.001591440994832,-0.0015907006670058,0.0015913385275798,-0.0015907739123527,0.001591216814361,-0.0015909140372682,0.0015910980456125,-0.0013550354115678,0.0013557073250579,-0.0013553809033611,0.0013554535055576,-0.0015212406920718,0.0015222318920348,-0.001521860676772,0.0015215293863261,7.0901808123326e-06,-6.1881824076834e-06,-0.0010090193162557,0.0010099117703258,3.0705925436473e-07,6.01342966749e-07,-0.0010627694272025,0.001067969988002,-0.0010626206505961,0.0010680676887593,-0.0010671801345204,0.0010635484319661,-0.0010671016923299,0.0010636253891942,-0.0011297410849843,0.0011176496221667,-0.001116613482597,0.0011306897847779,0.0036550391659699,0.0035831852915788,0.74267456711832,1473840,32975,0.0063148133444387,0.0063148488824522,0.0041994807836726,37.053443920939,0.00021162755136751,0.00021162755136751,0.00021162755136751,1519978.7394573,0.016971751963414
35856000,0.99999872834903,0.016737690708221,0.0059112774729285,0.005911303677482,0.0049151095578104,-0.0015214024963072,0.0015212475615088,-6.7157773162425e-06,6.5407604643843e-06,-3.5302544333262e-07,2.5616753776427e-07,-0.0015940680791198,0.0015893177752597,-0.0015896836727344,0.001593678208129,-0.001593929617924,0.0015894910976475,-0.0015894614466553,0.0015939391527924,-0.0013629164463502,0.0013498196261326,-0.0013498128539964,0.0013629092563751,5.3450574065276e-07,-7.109165677392e-08,4.2613326000127e-07,1.2623452366382e-07,-0.0015210799591724,0.0015215851335889,-0.0015913223100299,0.0015921148447059,-0.0015913881068657,0.0015920110134334,-0.0015914627199712,0.0015918883742124,-0.0015916047065261,0.0015917679207313,-0.0013559924112687,0.0013566501973414,-0.0013563442206192,0.0013563929495519,-0.0015222545309885,0.0015232364408588,-0.0015228840045536,0.0015225250318295,7.0971009839211e-06,-6.191656243267e-06,-0.0010094569166174,0.0010103522867841,3.0532513433173e-07,6.0512933249621e-07,-0.0010633837646571,0.0010685885290861,-0.0010632333002303,0.0010686884950605,-0.0010677975373171,0.0010641640477846,-0.001067717158084,0.0010642424984163,-0.0011302412230255,0.0011181447498152,-0.0011171031458164,0.0011311967084465,0.0036580279229564,0.0035831652082053,0.74747643130152,1473840,32975,0.0063183073349164,0.006318338081118,0.0042013086622046,37.329937160125,0.000213839497281,0.000213839497281,0.000213839497281,1516057.4657775,0.016980714006494
35942400,0.99999880178416,0.016737691907705,0.0059112778982755,0.0059113041028289,0.0049151099066002,-0.0015222276962157,0.0015220736225369,-6.7204446154893e-06,6.5469017802759e-06,-3.5568351012456e-07,2.5981876616422e-07,-0.0015947459134699,0.0015899905916457,-0.0015903577847314,0.001594354220794,-0.0015946066238481,0.0015901662867161,-0.0015901338110663,0.0015946182921056,-0.0013638458571404,0.0013507419769042,-0.0013507307232634,0.0013638434588907,5.3725725670695e-07,-7.4416448308174e-08,4.3139042252903e-07,1.2172704160646e-07,-0.0015219053538278,0.0015224110519169,-0.0015919938916738,0.0015927923817235,-0.0015920632333108,0.0015926859399273,-0.0015921351238803,0.0015925633567101,-0.0015922813329136,0.0015924399548151,-0.0013569135971177,0.0013575804384555,-0.0013572758097598,0.0013573147693123,-0.001523236422569,0.0015242206977747,-0.001523872142594,0.0015235026189507,7.0964688316191e-06,-6.202856916721e-06,-0.0010099007847496,0.001010784258943,2.9450086643357e-07,6.0383597027089e-07,-0.0010639942302014,0.001069187848333,-0.0010638409613653,0.0010692907635898,-0.0010684118123937,0.0010647601011009,-0.0010683285096267,0.0010648413816034,-0.0011307409683204,0.0011186249258312,-0.001117594061166,0.0011316890052241,0.0036609657403145,0.0035831455184069,0.7532801704587,1473840,32975,0.0063217241485018,0.0063217549985286,0.0042031316807631,37.60643337693,0.00021605146701544,0.00021605146701544,0.00021605146701544,1512218.3916284,0.016989519212613
36028800,0.99999887199264,0.016737693062757,0.0059112783077315,0.0059113045122848,0.0049151102427412,-0.0015230484944224,0.0015228917078078,-6.7302401989059e-06,6.5538220370045e-06,-3.6124572777398e-07,2.6279744554575e-07,-0.0015954153513832,0.0015906485159909,-0.0015910217909935,0.0015950184904289,-0.0015952726345705,0.001590827054909,-0.0015907952876083,0.0015952856966476,-0.0013647788425861,0.0013516590738551,-0.0013516486702546,0.0013647788126877,5.3594468885299e-07,-8.4351681842815e-08,4.3028281720253e-07,1.1200987169739e-07,-0.00152273081861,0.0015232255937351,-0.0015926613280314,0.0015934544246461,-0.0015927323395995,0.0015933445215003,-0.001592805807201,0.0015932233853412,-0.0015929536470377,0.0015930960415324,-0.0013578438065457,0.0013585054788402,-0.0013582117827599,0.0013582286653581,-0.0015242089450157,0.0015251875580842,-0.0015248532879081,0.0015244605407881,7.1060386547476e-06,-6.2101371846007e-06,-0.0010103158574441,0.0010112021624573,2.9198405087826e-07,6.1016115570764e-07,-0.0010646005252402,0.0010697992141435,-0.0010644443488063,0.00106990522146,-0.0010690236556989,0.0010653660301203,-0.0010689370436047,0.0010654500939513,-0.0011312022697067,0.0011190746848147,-0.001118039188314,0.001132156018353,0.0036638602659649,0.0035831262140833,0.75863256238192,1473840,32975,0.0063251151211568,0.0063251482951046,0.0042048659571365,37.882931512198,0.00021826345209758,0.00021826345209758,0.00021826345209758,1508347.3025751,0.016998184044298
36115200,0.99999893847672,0.016737694151323,0.0059112786937482,0.0059113048983015,0.0049151105592731,-0.0015234617419695,0.0015232961357211,-6.7389460895276e-06,6.5536347721386e-06,-3.6375600816826e-07,2.5625180540502e-07,-0.0015957057823142,0.001590927133788,-0.0015913089262497,0.0015953021350191,-0.0015955608412575,0.0015911054966758,-0.0015910856007941,0.0015955660768454,-0.001365303297475,0.0013521703133674,-0.0013521717814323,0.0013652941168026,5.2425571319846e-07,-9.2266088539505e-08,4.1557609309056e-07,1.0477104401191e-07,-0.0015231493160307,0.0015236227687145,-0.0015929589643266,0.0015937271898513,-0.0015930269375397,0.0015936175795394,-0.0015931044547714,0.0015934981883704,-0.0015932469146859,0.0015933729918802,-0.0013583795516798,0.0013590126032788,-0.0013587338911672,0.0013587376323019,-0.0015247145122101,0.0015256702762642,-0.0015253499746627,0.0015249489085983,7.1107720676171e-06,-6.2147852794648e-06,-0.0010104119061027,0.0010112984549106,2.9682415023696e-07,6.0816054303954e-07,-0.0010648959984473,0.0010700987864755,-0.0010647438441547,0.0010702033365222,-0.0010693221544874,0.0010656622074752,-0.0010692359955354,0.0010657444639234,-0.0011312857000457,0.0011191488682822,-0.0011181154626327,0.0011322374211926,0.0036651488834523,0.0035831072807974,0.75497879059265,1473840,32975,0.0063268061312252,0.0063268351598322,0.0042052694182746,37.994745961458,0.00021915796769166,0.00021915796769166,0.00021915796769166,1504958.3871046,0.017002030876354
36201600,0.99999900061703,0.016737695167032,0.0059112790539641,0.0059113052585175,0.0049151108545502,-0.0015230299647007,0.0015228562695233,-6.7391112108604e-06,6.5457237417548e-06,-3.6350159079595e-07,2.4779527801573e-07,-0.0015954023981343,0.0015906211082604,-0.0015910080738303,0.0015949936339562,-0.0015952602165104,0.0015907966583199,-0.0015907876795978,0.0015952545446751,-0.0013647457186066,0.0013516097072434,-0.0013516223003349,0.001364725597333,5.2043079079677e-07,-8.7430783894831e-08,4.1078296710215e-07,1.1038312295582e-07,-0.0015227130548127,0.0015231873943832,-0.0015926570434168,0.0015934198669387,-0.0015927216360704,0.0015933136685243,-0.0015927997287657,0.0015931936508836,-0.0015929386767997,0.0015930720595627,-0.0013578238337314,0.0013584501040509,-0.0013581677666653,0.0013581854755444,-0.0015241744819345,0.0015251258077315,-0.0015248011230388,0.0015244136406774,7.1034130433961e-06,-6.2143902206519e-06,-0.0010100510110248,0.0010109306257469,2.9855599404791e-07,5.9949426430873e-07,-0.0010644472416072,0.0010696439842977,-0.0010642985828834,0.0010697450775359,-0.0010688708068757,0.001065209974534,-0.0010687881048335,0.0010652888067608,-0.0011309139340668,0.0011187744735765,-0.0011177515207846,0.0011318551014817,0.0036633782355789,0.003583088708304,0.75364861373907,1473840,32975,0.006325002186487,0.0063250312321353,0.0042037549487052,37.864844020907,0.00021811875216725,0.00021811875216725,0.00021811875216725,1506914.1161015,0.016996820513075
36288000,0.99999905867605,0.016737696114216,0.0059112793898973,0.0059113055944506,0.0049151111298677,-0.0015226999501604,0.0015225191981801,-6.7399458355489e-06,6.5394637719293e-06,-3.6375873231883e-07,2.4099532576093e-07,-0.001595114122668,0.0015903297734579,-0.001590721601714,0.0015947005023178,-0.0015949741030901,0.0015905031137934,-0.0015905033567095,0.0015949592277329,-0.0013643649936837,0.0013512250413942,-0.0013512469436009,0.0013643356901105,5.1812375870433e-07,-8.3229676858503e-08,4.0880226372816e-07,1.1419511788876e-07,-0.0015223786305395,0.0015228548164139,-0.0015923683315218,0.0015931288932163,-0.0015924310082818,0.0015930246541129,-0.0015925088417255,0.0015929048718668,-0.0015926459128547,0.0015927851880982,-0.0013574421383619,0.0013580668131291,-0.001357780485895,0.0013578077781334,-0.0015238117024774,0.0015247605732655,-0.0015244320247968,0.0015240546513565,7.0996437695435e-06,-6.2127065215602e-06,-0.0010097194533585,0.0010105970238176,3.0040553069083e-07,5.9556186075105e-07,-0.0010640841879921,0.0010692790601433,-0.0010639374724356,0.0010693782008346,-0.0010685059801319,0.0010648468507453,-0.0010684252004949,0.0010649237703195,-0.0011305889840696,0.0011184508684467,-0.0011174319318901,0.0011315261302578,0.0036619533234396,0.0035830704903153,0.7522473534553,1473840,32975,0.0063236213335224,0.0063236505523366,0.0042023744060456,37.720089122243,0.00021696071297794,0.00021696071297794,0.00021696071297794,1506835.9130105,0.016992607730094
36374400,0.99999911294279,0.016737696997619,0.0059112797032303,0.0059113059077836,0.0049151113866055,-0.0015223742531976,0.0015221872313187,-6.7406292740612e-06,6.5338611020468e-06,-3.6362737258834e-07,2.3459264113054e-07,-0.0015948262854322,0.0015900395319153,-0.0015904353994505,0.0015944085250316,-0.0015946884900381,0.0015902106137051,-0.0015902192911429,0.0015946651485798,-0.0013639914798807,0.0013508476664186,-0.001350877911425,0.0013639536650841,5.1708000206532e-07,-7.7765155387324e-08,4.0880914533267e-07,1.1868535425263e-07,-0.0015220475149189,0.0015225281500805,-0.0015920787878376,0.0015928400934922,-0.0015921399866704,0.0015927373887658,-0.0015922171140463,0.0015926183462769,-0.001592352768694,0.0015925000859008,-0.0013570653001021,0.0013576923856912,-0.0013573994351739,0.001357437812689,-0.0015234573008307,0.001524405887239,-0.001524071523355,0.0015237060914315,7.0988210456177e-06,-6.2085803659628e-06,-0.0010093923152763,0.0010102731286604,3.042238298473e-07,5.9490202440086e-07,-0.0010637230570909,0.0010689209847253,-0.0010635778015787,0.0010690186612307,-0.0010681432029682,0.0010644904957683,-0.001068063912328,0.00106456589246,-0.001130272835799,0.0011181412503374,-0.0011171204830335,0.0011312118436495,0.0036605518824111,0.003583052620861,0.75063320389375,1473840,32975,0.0063222600258853,0.0063222890005644,0.0042010232308439,37.573935924264,0.00021579148739411,0.00021579148739411,0.00021579148739411,1506702.4890057,0.016988464175929
36460800,0.99999916368804,0.016737697821739,0.0059112799955573,0.0059113062001105,0.0049151116260712,-0.0015220471442353,0.0015218506026567,-6.7429183829147e-06,6.5266028702493e-06,-3.656425315882e-07,2.270935211039e-07,-0.0015945398174173,0.0015897470247838,-0.001590150554805,0.0015941143671181,-0.0015944038301463,0.0015899162744487,-0.0015899362718824,0.0015943691477459,-0.0013636136374396,0.0013504633405094,-0.0013505049361244,0.0013635644365694,5.1569939278961e-07,-7.3706991833641e-08,4.0904897356414e-07,1.2109895642907e-07,-0.0015217143199077,0.0015221976060108,-0.0015917892221684,0.0015925506313822,-0.0015918497277907,0.001592448652569,-0.0015919257241739,0.0015923307102509,-0.0015920606841596,0.0015922131798841,-0.0013566830320994,0.0013573124557891,-0.0013570150498046,0.0013570600196946,-0.0015230994534754,0.0015240461066677,-0.0015237083585201,0.0015233516551683,7.0970309100879e-06,-6.2053647453227e-06,-0.0010090703890012,0.0010099526057736,3.0599838484827e-07,5.9451532149599e-07,-0.0010633614837121,0.0010685598532197,-0.0010632169477812,0.0010686568098979,-0.0010677799838719,0.0010641310584275,-0.0010677014011406,0.0010642057370767,-0.0011299637146325,0.0011178377482802,-0.0011168162532701,0.0011309033850027,0.003659147622657,0.0035830350940367,0.74886367857774,1473840,32975,0.0063208862038997,0.0063209151758671,0.0041996897677578,37.42764160262,0.00021462113282096,0.00021462113282096,0.00021462113282096,1506665.3868404,0.016984313415791
36547200,0.99999921116205,0.016737698581,0.0059112802650924,0.0059113064696456,0.0049151118462624,-0.0015217229071392,0.0015215066016275,-6.7497515829765e-06,6.513546552169e-06,-3.7275823871724e-07,2.1445549805189e-07,-0.001594258115215,0.0015894495294424,-0.0015898708971179,0.0015938148200904,-0.0015941239280016,0.0015896169443671,-0.0015896584430186,0.0015940677255202,-0.0013632356008462,0.0013500697410461,-0.0013501330764518,0.0013631647010129,5.1381405724673e-07,-7.0171854438897e-08,4.0883351621063e-07,1.2290508514425e-07,-0.0015213794047751,0.0015218642925395,-0.0015915000955446,0.0015922605888134,-0.0015915599453248,0.0015921592756299,-0.0015916347408232,0.0015920424863343,-0.0015917690366354,0.0015919256460664,-0.0013562965427062,0.001356927355338,-0.0013566265543667,0.0013566769014547,-0.0015227389388253,0.0015236825552642,-0.0015233425227392,0.0015229935123456,7.0938057357487e-06,-6.2023330241412e-06,-0.0010087527597689,0.0010096347882512,3.0690850274173e-07,5.9341018977389e-07,-0.0010629995549602,0.0010681963355599,-0.0010628557002833,0.0010682926183297,-0.0010674160369518,0.0010637696732245,-0.0010673381197302,0.0010638436766533,-0.0011296603321402,0.0011175396402575,-0.0011165188955573,0.0011305989653806,0.0036577418041341,0.0035830179013623,0.73751413196464,1473840,32975,0.0063195031102248,0.0063195321023097,0.0041983707574516,37.281333984521,0.00021345067187616,0.00021345067187616,0.00021345067187616,1506704.7924199,0.016980158516825
36633600,0.99999925559597,0.016737699287865,0.0059112805160802,0.0059113067206334,0.0049151120511509,-0.001520952788182,0.0015207268967232,-6.7504962910961e-06,6.504888898673e-06,-3.7293432858475e-07,2.0408385469714e-07,-0.001593792152137,0.0015889786213213,-0.0015894062353465,0.0015933428351783,-0.0015936582231733,0.0015891436861639,-0.0015891988008885,0.0015935909757189,-0.0013621992909067,0.0013490329108736,-0.0013491098406679,0.0013621164137869,5.0965050066216e-07,-6.4173959991867e-08,4.0139668036483e-07,1.3181921059745e-07,-0.001520603439369,0.0015210897673674,-0.0015910349610203,0.001591789526418,-0.0015910905084162,0.0015916918884794,-0.0015911679120477,0.0015915741540722,-0.0015912949167714,0.0015914630627784,-0.0013552673181255,0.0013558856489967,-0.0013555753394914,0.0013556488974462,-0.0015216855040772,0.001522623513672,-0.0015222756343596,0.0015219474910869,7.0979490676041e-06,-6.1913512411946e-06,-0.0010083690340937,0.0010092654510272,3.2291148284485e-07,5.9359149261986e-07,-0.001062324463996,0.0010675369733526,-0.0010621880408294,0.0010676289342107,-0.0010667385034365,0.0010631126993771,-0.001066663917523,0.0010631810646118,-0.0011292674845205,0.0011171641687726,-0.001116133763893,0.0011302157920008,0.0036549623954383,0.0035830010393145,0.73361141430291,1473840,32975,0.0063162971166455,0.0063163247319306,0.0041968000097103,37.135023667222,0.00021228018933777,0.00021228018933777,0.00021228018933777,1514297.9407304,0.016972036203037
36720000,0.99999929720332,0.016737699953471,0.0059112807523188,0.0059113069568721,0.0049151122442804,-0.0015205269361756,0.0015203262739362,-6.7355828292857e-06,6.5152106038177e-06,-3.5548795964473e-07,2.1256590152163e-07,-0.0015934983896207,0.001588715883961,-0.0015891152928617,0.0015930770343919,-0.0015933704081535,0.001588876921415,-0.0015889091673945,0.0015933235196092,-0.0013615957629279,0.0013484517561284,-0.001348505653529,0.0013615343777728,5.0724492491385e-07,-5.7427931298913e-08,3.9798976959796e-07,1.3978089023203e-07,-0.0015201882142177,0.001520679153512,-0.0015907579979021,0.0015915090040839,-0.0015908087919604,0.001591416943693,-0.0015908864702521,0.0015912973494273,-0.001591011607146,0.0015911897966401,-0.0013546749419802,0.0013552909637516,-0.0013549778814186,0.0013550679460303,-0.0015212152166061,0.0015221550911497,-0.0015217998388896,0.0015214853424625,7.0828615856128e-06,-6.2007433734636e-06,-0.0010080770293311,0.0010089497032269,3.1597806419915e-07,5.7479363995459e-07,-0.0010618490726547,0.001067041584454,-0.0010617144569568,0.0010671286526376,-0.0010662612727426,0.0010626190357714,-0.0010661925708531,0.0010626838535663,-0.0011290608310608,0.001116933926571,-0.0011159320187924,0.0011299811495228,0.0036533438678778,0.0035829845041381,0.73780772398281,1473840,32975,0.0063145873045692,0.00631461623338,0.0041955373360359,36.9887128111,0.00021110970248879,0.00021110970248879,0.00021110970248879,1515976.6627042,0.016967274975409
36806400,0.99999933618142,0.016737700568376,0.0059112809707169,0.0059113071752702,0.0049151124223889,-0.0015205247555143,0.0015203307600658,-6.7307497370523e-06,6.5170457773676e-06,-3.5358108918293e-07,2.1738121147881e-07,-0.0015933232389283,0.0015885474325055,-0.001588941193486,0.0015929075701034,-0.0015931943378462,0.001588709412312,-0.0015887340665703,0.0015931550536294,-0.0013617393283619,0.001348605792246,-0.0013486520435516,0.0013616856061191,5.0820059071139e-07,-5.935864468365e-08,4.00648319415e-07,1.3618940884759e-07,-0.0015201898527605,0.001520679845069,-0.0015905851710213,0.0015913382533665,-0.0015906379557058,0.0015912441196086,-0.0015907145860652,0.0015911256376482,-0.0015908417830392,0.0015910159444521,-0.0013548217015298,0.0013554421289804,-0.0013551308352159,0.0013552127421528,-0.0015213726719844,0.0015223125346665,-0.001521960217162,0.0015216396165226,7.0810746308307e-06,-6.1995406799924e-06,-0.0010078330865947,0.0010087052084131,3.1262166822369e-07,5.7766312722152e-07,-0.0010617657139465,0.0010669546264044,-0.0010616290416308,0.0010670437609978,-0.0010661769229769,0.001062533038985,-0.0010661061445325,0.0010625999273565,-0.0011288314736146,0.0011167089395795,-0.0011157055421183,0.001129753332327,0.0036530206437427,0.003582968286712,0.72764533796306,1473840,32975,0.0063145908570316,0.0063146198368106,0.0041945286236984,36.842402295132,0.00020993921836106,0.00020993921836106,0.00020993921836106,1510557.9858363,0.016966257729506
36892800,0.99999937294323,0.016737701151852,0.0059112811778634,0.0059113073824166,0.0049151125915717,-0.0015200293162028,0.0015197966155226,-6.7479017564762e-06,6.4953533265337e-06,-3.6512663449815e-07,1.902061199415e-07,-0.0015931471880978,0.001588339399342,-0.0015887665309645,0.00159269808878,-0.0015930233519943,0.0015884961886396,-0.0015885646299565,0.0015929402930421,-0.0013609206393949,0.0013477477201706,-0.0013478379655804,0.0013608229068807,5.0307441784707e-07,-4.9072403084917e-08,3.9420534539314e-07,1.476612151298e-07,-0.0015196725180917,0.0015201675607293,-0.0015903961084112,0.001591143111983,-0.0015904430898632,0.0015910549453918,-0.001590520364088,0.0015909356776401,-0.0015906416566277,0.0015908320274422,-0.0013539868879103,0.0013545997625744,-0.0013542784844176,0.0013543882737036,-0.0015206110990445,0.0015215467140133,-0.0015211834324207,0.0015208893134118,7.0770661066313e-06,-6.1989170049737e-06,-0.001007673179184,0.0010085418793794,3.1976323134466e-07,5.6693995760499e-07,-0.0010612629739967,0.0010664528796986,-0.0010611322706154,0.0010665360835923,-0.0010656727197571,0.0010620329606346,-0.0010656078721447,0.0010620938950645,-0.0011287290254275,0.0011166018051159,-0.001115607640874,0.0011296414215134,0.0036512772976795,0.0035829523859501,0.73199880901834,1473840,32975,0.0063124618859624,0.0063124907934458,0.0041938508303234,36.814520771801,0.00020971616617441,0.00020971616617441,0.00020971616617441,1518242.6150578,0.016961235775033
36979200,0.99999940791285,0.016737701710361,0.0059112813760585,0.0059113075806116,0.0049151127536912,-0.0015205876861352,0.0015203849679463,-6.7337057324746e-06,6.5107846615023e-06,-3.5548200707528e-07,2.1072686649964e-07,-0.0015935408378434,0.0015887606685243,-0.0015891606213976,0.0015931178365133,-0.0015934155660718,0.0015889201628383,-0.0015889536010328,0.0015933644754265,-0.0013615934612015,0.0013484489126357,-0.0013485053613383,0.0013615275712106,5.0592188664066e-07,-5.7039865227712e-08,3.9608626873852e-07,1.4125947281522e-07,-0.0015202484157108,0.0015207389281803,-0.0015908021861209,0.0015915506495502,-0.0015908517879238,0.001591461110547,-0.0015909291516993,0.0015913396927217,-0.0015910549066475,0.0015912332405585,-0.0013546715169151,0.0013552851806304,-0.0013549758286198,0.0013550678039862,-0.0015213641951254,0.001522304442585,-0.0015219502084884,0.0015216347728539,7.0778617760517e-06,-6.1988408396041e-06,-0.001007883692219,0.0010087534854189,3.1559140833358e-07,5.7061879914117e-07,-0.0010616206848727,0.0010668102552915,-0.0010614861101431,0.0010668956256191,-0.0010660304943726,0.0010623900757385,-0.0010659642276349,0.001062453785521,-0.0011289995577859,0.0011168740892,-0.0011158757052714,0.0011299145735184,0.0036531944461058,0.0035829367974765,0.73667733430576,1473840,32975,0.0063148344151063,0.0063148644453818,0.0041947323904513,36.946332336072,0.00021077065868857,0.00021077065868857,0.00021077065868857,1513407.8648923,0.016966960340353
37065600,0.99999944118099,0.016737702245455,0.0059112815658659,0.005911307770419,0.0049151129091699,-0.0015211535698693,0.0015209731516823,-6.7244510625503e-06,6.5241340389027e-06,-3.4652406441184e-07,2.2433491262798e-07,-0.0015939416720728,0.0015891807007668,-0.0015895597703358,0.001593538849667,-0.0015938155972443,0.0015893418792458,-0.0015893515564196,0.0015937876990572,-0.0013622815949477,0.0013491567996633,-0.0013491882447792,0.0013622397685594,5.1222831051266e-07,-5.5270666678013e-08,4.0488132935307e-07,1.4150538844743e-07,-0.0015208207260805,0.0015213199840304,-0.001591205070216,0.0015919665403125,-0.0015912575915823,0.001591874688761,-0.0015913329217168,0.0015917539108615,-0.0015914621613144,0.0015916448321152,-0.0013553609481265,0.0013559910594321,-0.0013556746334928,0.0013557658142536,-0.0015221031707273,0.0015230534852237,-0.0015226938832994,0.0015223783828319,7.0776167666582e-06,-6.2031323830621e-06,-0.0010081096895979,0.0010089747167371,3.0882558948693e-07,5.7231326979493e-07,-0.0010620178264448,0.0010672014698679,-0.0010618804989461,0.0010672894224724,-0.0010664290617157,0.001062779933954,-0.0010663602244062,0.0010628462262767,-0.0011292688596125,0.0011171373938533,-0.0011161415121538,0.0011301828400113,0.0036551408282558,0.0035829215154096,0.74179140765705,1473840,32975,0.0063172220533892,0.0063172506294039,0.004195665921054,37.087948331113,0.0002119035866489,0.0002119035866489,0.0002119035866489,1508877.2522439,0.016972765967776
37152000,0.99999947281759,0.016737702758673,0.0059112817478295,0.0059113079523826,0.004915113058461,-0.0015217138980054,0.0015215384037024,-6.7270485530337e-06,6.531586588838e-06,-3.4614829247577e-07,2.2884644062109e-07,-0.0015943424904939,0.0015895819372295,-0.0015899580573546,0.0015939440801121,-0.0015942153318802,0.0015897439925707,-0.0015897480710336,0.0015941945532452,-0.0013629658918929,0.0013498366494771,-0.0013498632757944,0.0013629319783238,5.1004141639614e-07,-6.1531347540775e-08,4.048753212315e-07,1.3324524236091e-07,-0.0015213884531984,0.0015218793944105,-0.0015916100234215,0.0015923669596487,-0.0015916641862722,0.0015922720643289,-0.0015917393271186,0.0015921535296883,-0.0015918703959893,0.0015920405813022,-0.0013560462836559,0.0013566753387942,-0.0013563662372973,0.0013564394761456,-0.0015228259912008,0.001523769982129,-0.0015234217210116,0.0015230898636456,7.0808816810359e-06,-6.2097953778238e-06,-0.0010083307761641,0.0010091931412843,3.037801008965e-07,5.7565283213165e-07,-0.0010624126951867,0.0010675938928705,-0.0010622723589109,0.001067684641514,-0.0010668270635031,0.001063169080267,-0.0010667553467985,0.0010632380858246,-0.0011295269472973,0.0011173851588387,-0.0011163898569312,0.0011304405390722,0.0036570448257418,0.0035829065339739,0.74806139944724,1473840,32975,0.0063195506670941,0.0063195824670298,0.0041965833411127,37.230486970595,0.00021304389576476,0.00021304389576476,0.00021304389576476,1504513.4831207,0.016978439982158
37238400,0.99999950288894,0.016737703251863,0.0059112819225977,0.0059113081271508,0.0049151132021147,-0.0015222668250632,0.0015220979450185,-6.7273916920477e-06,6.5388806293424e-06,-3.4525761608215e-07,2.3423215840971e-07,-0.0015947183854086,0.001589958710959,-0.0015903303073735,0.001594324900969,-0.0015945867668081,0.0015901234695195,-0.0015901202650086,0.0015945753422573,-0.0013636764718924,0.0013505524174381,-0.0013505705923748,0.0013636506673496,5.1129375150263e-07,-6.4660166054135e-08,4.0671971344791e-07,1.2805130834784e-07,-0.0015219455671648,0.0015224334541508,-0.0015919856679885,0.0015927441638453,-0.0015920430505778,0.001592645333642,-0.0015921178600537,0.0015925287683072,-0.0015922498001091,0.0015924142500892,-0.0013567589640276,0.0013573886540589,-0.0013570821014014,0.0013571451264714,-0.0015235238192222,0.0015244653137985,-0.0015241198892178,0.0015237836065643,7.0918222513099e-06,-6.2073970979082e-06,-0.0010085205472507,0.0010093955508906,3.070158896259e-07,5.8624418154214e-07,-0.00106283192459,0.0010680251612654,-0.0010626905029236,0.0010681190300747,-0.001067249274867,0.0010635973108794,-0.0010671737977376,0.0010636688978457,-0.0011297160065709,0.0011175826327795,-0.0011165716211326,0.0011306456218057,0.0036588989351216,0.0035828918476097,0.75619173444381,1473840,32975,0.0063218517979555,0.0063218809193473,0.0041974026226805,37.373121001499,0.00021418496801199,0.00021418496801199,0.00021418496801199,1500008.3568818,0.016983952439774
37324800,0.99999953145922,0.01673770371752,0.0059112820876777,0.0059113082922308,0.0049151133376119,-0.0015228200195944,0.0015226478871255,-6.7307723832454e-06,6.5389006008022e-06,-3.4917698636125e-07,2.3497911180758e-07,-0.0015951150058181,0.0015903503634572,-0.0015907264660527,0.0015947169593193,-0.0015949831340269,0.0015905159837464,-0.001590514236605,0.0015949695545561,-0.0013643487770945,0.0013512177213652,-0.0013512375799542,0.0013643215214236,5.1803337979507e-07,-6.2607312758217e-08,4.1848639702433e-07,1.2519157711768e-07,-0.0015224931301036,0.0015229900732406,-0.0015923728164884,0.0015931462840862,-0.0015924344346199,0.0015930433832197,-0.0015925058443954,0.0015929296579837,-0.0015926432758096,0.0015928098550044,-0.0013574167476495,0.0013580684716781,-0.0013577559386815,0.0013578107065117,-0.0015242174661083,0.0015251687993754,-0.0015248205570917,0.0015244814944126,7.0930691423157e-06,-6.2093625016939e-06,-0.0010086801611875,0.0010095549283822,2.9955950233389e-07,5.9309025292406e-07,-0.0010632046720937,0.00106839455241,-0.0010630579534944,0.0010684928845956,-0.0010676232252791,0.0010639657996479,-0.0010675438249037,0.0010640421884063,-0.0011298858977886,0.0011177529479771,-0.0011167378648639,0.0011308196195593,0.0036606950740855,0.0035828774483408,0.751458036201,1473840,32975,0.0063241334105047,0.0063241646956969,0.0041980707040762,37.515755260718,0.00021532604208574,0.00021532604208574,0.00021532604208574,1495137.8101095,0.016989276531092
37411200,0.99999955859066,0.01673770415479,0.0059112822427901,0.0059113084473431,0.0049151134646572,-0.001522871669923,0.0015226842138059,-6.7388303954147e-06,6.5316722626538e-06,-3.5349534395104e-07,2.2388816417175e-07,-0.0015953241760509,0.00159054526102,-0.0015909346498812,0.0015949129042936,-0.0015951932338957,0.0015907093578638,-0.0015907253615034,0.0015951625774367,-0.0013642521333786,0.0013511047681054,-0.0013511422842147,0.0013642069443056,5.1091177344564e-07,-6.3051249772658e-08,4.1120191662227e-07,1.2474038648291e-07,-0.0015225405066843,0.0015230295834924,-0.001592580375478,0.001593341970102,-0.0015926403665317,0.0015932404969991,-0.0015927118821752,0.0015931272108929,-0.0015928463376414,0.0015930101601342,-0.001357318195123,0.0013579571347305,-0.0013576488051347,0.0013577062150745,-0.0015241304469225,0.0015250683079794,-0.001524724355288,0.0015243890254019,7.095581288099e-06,-6.2078893354438e-06,-0.0010087266809136,0.0010096049294526,3.0475329120209e-07,5.9177752003009e-07,-0.0010631659794611,0.0010683612468076,-0.001063021947567,0.0010684577294066,-0.0010675847853898,0.00106393205039,-0.0010675067310338,0.0010640062347623,-0.001129926637421,0.001117795076941,-0.0011167781108698,0.0011308619890692,0.0036608396882339,0.0035828633300567,0.74304622811977,1473840,32975,0.0063243159452665,0.0063243449739662,0.0041982679763744,37.658391170585,0.00021646712936468,0.00021646712936468,0.00021646712936468,1498870.1212001,0.016989844840673
37497600,0.99999958434362,0.01673770456738,0.0059112823891913,0.0059113085937443,0.0049151135844442,-0.0015228080328504,0.0015226178683803,-6.740601523213e-06,6.5307377487693e-06,-3.5093247116007e-07,2.1799008823432e-07,-0.0015954872023542,0.0015907077323434,-0.0015910968252217,0.0015950758901085,-0.0015953577056805,0.0015908692775542,-0.0015908901808371,0.0015953220144536,-0.0013639841730937,0.0013508318956756,-0.0013508748478072,0.0013639324957654,5.1160962774082e-07,-5.3716427207727e-08,4.1211586543611e-07,1.3448318324395e-07,-0.0015224711184036,0.0015229699680713,-0.0015927421777651,0.0015935084056802,-0.0015928005787152,0.0015934092767022,-0.0015928706442695,0.001593295091158,-0.0015930026868643,0.0015931817261414,-0.0013570441460097,0.0013576875277725,-0.0013573655608044,0.0013574457116289,-0.0015238640013725,0.0015248046197585,-0.0015244491941318,0.0015241361175643,7.0982460519187e-06,-6.2068307233547e-06,-0.0010088130739189,0.0010096940964705,3.1043993738277e-07,5.8911124775353e-07,-0.0010630698351463,0.0010682705275027,-0.0010629293157276,0.0010683644574394,-0.0010674892729431,0.001063840663986,-0.0010674127575146,0.0010639117629452,-0.0011300210838023,0.001117889281347,-0.0011168705817903,0.0011309569645776,0.003660718172224,0.003582849488001,0.7387063868564,1473840,32975,0.0063240482314332,0.0063240792906318,0.0041986269815701,37.801029446375,0.000217608235571,0.000217608235571,0.000217608235571,1504907.7721285,0.016989665506155
37584000,0.99999960877655,0.016737704956673,0.0059112825273636,0.0059113087319167,0.0049151136973926,-0.0015229375844048,0.0015227551340397,-6.7378558253422e-06,6.5357541890388e-06,-3.4533281468232e-07,2.2035010421578e-07,-0.0015957493719474,0.0015909782466294,-0.0015913586385291,0.0015953466209557,-0.0015956215630355,0.0015911385911647,-0.001591152732824,0.0015955921468044,-0.0013639612184905,0.0013508123305297,-0.0013508485546509,0.0013639160049823,5.0902676661585e-07,-5.2909981446503e-08,4.0875321989695e-07,1.3644558483104e-07,-0.0015226055806276,0.0015231030042662,-0.0015930112305671,0.0015937729278737,-0.0015930676347031,0.0015936759074411,-0.0015931381299999,0.0015935608778514,-0.0015932687251489,0.001593449224849,-0.0013570251820245,0.0013576632157598,-0.0013573423359836,0.0013574273134368,-0.0015239195208148,0.0015248569225121,-0.0015245017699547,0.0015241914744799,7.0983597428518e-06,-6.2087925849347e-06,-0.0010089612703587,0.0010098405240916,3.1210679768498e-07,5.8527590973888e-07,-0.0010630888839392,0.0010682905236483,-0.0010629498279377,0.0010683825253448,-0.0010675088280693,0.0010638600524109,-0.0010674346842805,0.0010639293077903,-0.0011302283912343,0.0011180903887406,-0.001117075554039,0.0011311603288296,0.0036612608123279,0.0035828359169229,0.73474882861397,1473840,32975,0.006324601367219,0.0063246338367256,0.004199236571567,37.943668114108,0.00021874934491287,0.00021874934491287,0.00021874934491287,1507881.8388162,0.01699141102722
37670400,0.99999963181642,0.016737705321713,0.0059112826569646,0.0059113088615179,0.0049151138032305,-0.0015228834761715,0.0015226921961082,-6.7422106275626e-06,6.5311866177393e-06,-3.477668865251e-07,2.1385507888546e-07,-0.0015958076451346,0.0015910289527081,-0.0015914164546869,0.0015953975632074,-0.0015956809700655,0.0015911879447795,-0.0015912125137925,0.0015956414906043,-0.0013637786472552,0.0013506203195818,-0.0013506668113955,0.0013637234034606,5.0775176560518e-07,-5.04844294236e-08,4.0691300685816e-07,1.3881683997222e-07,-0.0015225458386118,0.001523044132713,-0.0015930651320077,0.0015938252009406,-0.0015931200482889,0.0015937293833695,-0.0015931915019804,0.0015936146159451,-0.0015933200700641,0.0015935042879076,-0.0013568394550149,0.0013574747286093,-0.0013571513607686,0.0013572424447441,-0.001523787051335,0.0015247234444462,-0.0015243651749824,0.0015240615077983,7.0971124989036e-06,-6.2096021018307e-06,-0.0010089448294252,0.001009822040243,3.1329266918977e-07,5.822972034049e-07,-0.0010629651678335,0.0010681657496058,-0.0010628276757114,0.0010682565349988,-0.0010673849529972,0.0010637355336269,-0.0010673119754809,0.0010638034096651,-0.0011302560040104,0.0011181153182459,-0.0011171039987941,0.0011311846084345,0.0036610378597408,0.0035828226109274,0.73067326867195,1473840,32975,0.0063243598108409,0.0063243890340234,0.0041991624466,37.979340116565,0.00021903472093252,0.00021903472093252,0.00021903472093252,1510228.8377542,0.016990840223608
37756800,0.99999965338923,0.016737705661548,0.0059112827776501,0.0059113089822035,0.0049151139016942,-0.0015225552391244,0.0015223607479768,-6.7397539073625e-06,6.5255716758166e-06,-3.4813159197633e-07,2.1076307573581e-07,-0.0015955935483841,0.0015908151306949,-0.0015912053970368,0.0015951816726249,-0.0015954670443497,0.001590973290466,-0.0015910026945524,0.0015954244370583,-0.0013633197918339,0.0013501662232898,-0.0013502174753407,0.0013632619345824,5.0443228549519e-07,-5.1078611971054e-08,4.0110099588078e-07,1.3940869210221e-07,-0.0015222181375358,0.0015227119306155,-0.0015928549432695,0.0015936071974712,-0.001592907033699,0.0015935133655914,-0.0015929813714238,0.0015933985846318,-0.0015931067517713,0.0015932899722119,-0.0013563901621262,0.0013570149262089,-0.0013566941578878,0.001356786939628,-0.0015233790841951,0.0015243114914561,-0.0015239540409968,0.0015236520354413,7.0923296816481e-06,-6.2063448730613e-06,-0.0010087144483302,0.0010095905199134,3.162041325978e-07,5.7887662948077e-07,-0.001062614416259,0.0010678127543595,-0.0010624796363283,0.001067901974227,-0.0010670313990592,0.0010633854377664,-0.0010669601782076,0.0010634515658817,-0.0011300582340819,0.0011179220441885,-0.0011169148543109,0.0011309835582448,0.0036597574539571,0.0035828095642293,0.7265102186587,1473840,32975,0.0063229950601262,0.0063230238318938,0.0041982019606777,37.88229497256,0.00021825835978047,0.00021825835978047,0.00021825835978047,1512287.6668589,0.016987086260915
37843200,0.99999967358598,0.016737705978346,0.0059112828901729,0.0059113090947262,0.0049151139934472,-0.0015222010348469,0.0015220065717068,-6.7378624754039e-06,6.5238667432517e-06,-3.4540041941981e-07,2.0806319042963e-07,-0.0015953584828246,0.0015905831215804,-0.0015909717044713,0.0015949485034462,-0.0015952340768986,0.0015907394059631,-0.0015907707356618,0.0015951894849395,-0.0013628322764021,0.0013496804981504,-0.0013497339368078,0.0013627734890779,5.0090799155841e-07,-4.91812388805e-08,3.9817062480111e-07,1.4070187167737e-07,-0.0015218648153247,0.0015223569883898,-0.0015926239215652,0.0015933713392177,-0.001592674590045,0.0015932788811323,-0.0015927482926898,0.0015931645250433,-0.0015928725829257,0.00159305716235,-0.0013559057159893,0.0013565268550506,-0.0013562059482424,0.0013563028207745,-0.0015229466680483,0.0015238738743915,-0.0015235165932289,0.0015232194643404,7.089288319334e-06,-6.2057073398629e-06,-0.0010084764141622,0.001009350423571,3.1736592089014e-07,5.757036961672e-07,-0.0010622389032626,0.0010674357512075,-0.0010621054740717,0.0010675233078321,-0.0010666546581954,0.0010630094889261,-0.0010665851039496,0.0010630742080575,-0.0011298604207538,0.0011177237854292,-0.0011167212405259,0.0011307819366695,0.0036583968141746,0.0035827967721583,0.72344189015394,1473840,32975,0.0063215295849574,0.0063215585968013,0.0041972076606331,37.77705700643,0.00021741645605144,0.00021741645605144,0.00021741645605144,1514419.9677836,0.01698309371279
37929600,0.99999969250006,0.016737706276987,0.005911282996197,0.0059113092007504,0.0049151140800392,-0.0015219044263275,0.0015217041259617,-6.7384656428203e-06,6.5185280809873e-06,-3.4573131306253e-07,2.0301156709248e-07,-0.0015951534800473,0.0015903756775573,-0.0015907683220008,0.0015947389133363,-0.0015950318412284,0.0015905302579553,-0.0015905685395193,0.0015949789225361,-0.0013624110765817,0.0013492549952995,-0.0013493148735174,0.0013623436795688,5.0273290591238e-07,-4.258439858606e-08,4.0202538918162e-07,1.4596900118993e-07,-0.0015215607866127,0.0015220619413739,-0.001592413837718,0.0015931679188196,-0.0015924639282295,0.0015930765872115,-0.0015925360224693,0.0015929627274665,-0.0015926604517217,0.0015928558902916,-0.0013554769362922,0.0013561075454774,-0.0013557778406931,0.0013558866311583,-0.0015226007053146,0.0015235326281568,-0.0015231664583865,0.0015228819783202,7.0850809587072e-06,-6.2048037891837e-06,-0.0010082471282526,0.0010091179585418,3.1612678970181e-07,5.727829942822e-07,-0.0010618891526562,0.0010670826419,-0.001061755277289,0.0010671689823866,-0.0010663034005865,0.001062657963431,-0.001066235422683,0.0010627220840666,-0.0011296896049672,0.0011175540814025,-0.0011165548213571,0.0011306074880646,0.0036572078355859,0.0035827842308796,0.72823084390529,1473840,32975,0.0063202902352163,0.0063203192008837,0.0041962483793006,37.671046816111,0.00021656837452889,0.00021656837452889,0.00021656837452889,1515652.3854577,0.016979596715502
38016000,0.99999971021885,0.016737706557351,0.0059112830957141,0.0059113093002674,0.0049151141613698,-0.0015220185491639,0.0015218237480526,-6.7348871359268e-06,6.5200465205718e-06,-3.4616640043661e-07,2.0956836223934e-07,-0.0015950903396344,0.0015903169047951,-0.0015907063751328,0.0015946790916688,-0.0015949675187695,0.0015904734761404,-0.0015905040633374,0.0015949219551061,-0.0013626568057792,0.0013495087290792,-0.0013495611637971,0.0013625976830417,5.0314912295301e-07,-4.9151250319688e-08,4.028439943757e-07,1.3822925485244e-07,-0.0015216803906773,0.0015221754722106,-0.0015923526639101,0.00159310533123,-0.0015924046223187,0.0015930116338868,-0.0015924771638162,0.0015928988172786,-0.0015926040518986,0.0015927883929024,-0.001355728209338,0.0013563581591634,-0.0013560379038007,0.001356128499007,-0.0015229041529298,0.0015238352714472,-0.0015234767228925,0.0015231756424528,7.0876180522318e-06,-6.1994282636536e-06,-0.0010080675407429,0.0010089471552445,3.1620711137374e-07,5.8120252594293e-07,-0.0010618610946774,0.0010670599101917,-0.0010617237358825,0.0010671491072753,-0.0010662743442072,0.0010626366627387,-0.0010662044655939,0.0010627039427054,-0.0011295475984637,0.0011174252678408,-0.0011164151913162,0.0011304758311056,0.0036573128065795,0.0035827719353263,0.7297938145031,1473840,32975,0.0063207728170903,0.0063208005170153,0.0041955268177581,37.564958536584,0.00021571966829267,0.00021571966829267,0.00021571966829267,1509770.5629361,0.016979844633692
38102400,0.99999972682349,0.016737706820261,0.0059112831890279,0.0059113093935812,0.0049151142376522,-0.0015219376798029,0.0015217392658279,-6.7341547086726e-06,6.5160524823005e-06,-3.4941840817051e-07,2.087369282162e-07,-0.0015949222459047,0.0015901454691095,-0.0015905394105069,0.0015945064220146,-0.0015947975553279,0.0015903031581697,-0.0015903364735981,0.0015947496271426,-0.0013626580406164,0.0013495134223975,-0.001349568354932,0.0013625956674818,5.0411088413687e-07,-5.0645455347427e-08,4.0517728499866e-07,1.3616849671442e-07,-0.0015215982953443,0.0015220928231668,-0.0015921827362365,0.0015929375993266,-0.0015922370095076,0.0015928419616826,-0.0015923079434673,0.0015927292662037,-0.0015924366563629,0.001592618049232,-0.0013557283562301,0.001356361990435,-0.0013560419242632,0.0013561281042319,-0.0015228836647269,0.0015238140967913,-0.001523458717607,0.0015231537622483,7.0828512832784e-06,-6.2002566968757e-06,-0.0010078604667465,0.0010087336628813,3.1090691937338e-07,5.804911450044e-07,-0.0010617547425666,0.0010669440485485,-0.0010616165691506,0.0010670346988577,-0.0010661667831498,0.0010625216196628,-0.0010660945019951,0.0010625900279794,-0.0011293286440812,0.001117206274385,-0.0011162003224451,0.0011302531347714,0.0036567895962824,0.0035827598807785,0.7301993819843,1473840,32975,0.0063204298329037,0.0063204587928246,0.0041946562935514,37.458862252465,0.00021487089801972,0.00021487089801972,0.00021487089801972,1507098.9844286,0.01697826357687
38188800,0.99999974238924,0.016737707066853,0.0059112832765425,0.0059113094810957,0.0049151143092148,-0.0015217884452847,0.001521587717217,-6.732802920588e-06,6.5123394104041e-06,-3.5070233905865e-07,2.0770291610531e-07,-0.0015947477550388,0.0015899702780014,-0.0015903666326102,0.0015943296091604,-0.001594622945454,0.0015901280865318,-0.0015901636284957,0.0015945728427299,-0.0013625173780058,0.0013493755441187,-0.0013494328174848,0.0013624527764124,5.0364670897805e-07,-5.1384978390094e-08,4.0549085378455e-07,1.3449233645798e-07,-0.0015214485703596,0.0015219418298272,-0.0015920081635497,0.0015927625286356,-0.0015920630856237,0.0015926662000459,-0.001592133483556,0.0015925541031127,-0.0015922627935312,0.0015924422425275,-0.0013555890178763,0.0013562230135897,-0.0013559044081906,0.0013559871667227,-0.0015227665244447,0.0015236952746192,-0.0015233416527733,0.0015230347846368,7.0770202889602e-06,-6.2010262403358e-06,-0.0010076387196862,0.0010085053656983,3.0669065785951e-07,5.78213508835e-07,-0.0010615549117384,0.0010667353604377,-0.0010614161111821,0.0010668266359845,-0.0010659652700776,0.0010623146002311,-0.0010658923612889,0.0010623836689112,-0.0011291185557486,0.0011169952325865,-0.0011159952082378,0.0011300370288867,0.0036560478594443,0.0035827480626904,0.73055188611876,1473840,32975,0.0063198069042255,0.0063198359984836,0.0041937236502294,37.352765137456,0.00021402212109965,0.00021402212109965,0.00021402212109965,1505563.6440672,0.016976048469288
38275200,0.99999975698597,0.016737707298233,0.005911283358651,0.0059113095632042,0.0049151143763773,-0.0015216310627076,0.0015214313264167,-6.7301837775403e-06,6.5107270256519e-06,-3.5037012550584e-07,2.0835770246579e-07,-0.0015945688515942,0.0015897936560292,-0.0015901891388809,0.0015941515760388,-0.0015944439209496,0.0015899515743117,-0.0015899860150486,0.0015943949139898,-0.0013623660180672,0.0013492294728572,-0.0013492855958146,0.0013623025229053,5.0331507092804e-07,-5.2036293052349e-08,4.0572497862002e-07,1.332498022304e-07,-0.0015212921893056,0.0015217844562935,-0.001591830600788,0.0015925845807835,-0.0015918860136842,0.0015924877576823,-0.001591956033585,0.0015923760409627,-0.0015920858297076,0.001592263696379,-0.0013554401438133,0.001356074440095,-0.0013557569639882,0.0013558371517407,-0.0015226386011239,0.0015235661761912,-0.001523214020934,0.0015229054040669,7.0754296683516e-06,-6.198379511164e-06,-0.0010074108174988,0.0010082785123898,3.0648210184017e-07,5.7948521952291e-07,-0.0010613466043565,0.0010665261888219,-0.0010612073209096,0.0010666179645279,-0.0010657555516003,0.0010621068424951,-0.0010656821565777,0.0010621764028137,-0.0011289016652739,0.0011167840521568,-0.0011157824994574,0.0011298217249193,0.0036552842264914,0.0035827364766018,0.73097098278987,1473840,32975,0.006319157097414,0.0063191862308441,0.0041927811384422,37.246667917896,0.00021317334334317,0.00021317334334317,0.00021317334334317,1504117.33972,0.016973768538499
38361600,0.9999997707196,0.016737707517366,0.0059112834363796,0.0059113096409329,0.0049151144400532,-0.0015215857959058,0.0015213886938871,-6.7277750824083e-06,6.5107817114915e-06,-3.4927680438794e-07,2.0996580922407e-07,-0.0015945029901593,0.0015897311595738,-0.0015901241199158,0.0015940881908071,-0.001594377902446,0.0015898892109732,-0.0015899208017663,0.0015943317443518,-0.0013623245963955,0.0013491929913925,-0.0013492462758075,0.0013622638712616,5.028522904693e-07,-5.2990642067553e-08,4.0585320219079e-07,1.3126759941862e-07,-0.0015212488399365,0.0015217395612124,-0.001591766530056,0.0015925197358894,-0.0015918224526674,0.0015924222420825,-0.0015918922566378,0.0015923112454009,-0.001592022436538,0.0015921980812586,-0.0013554013180096,0.0013560354845755,-0.0013557197822723,0.001355795890336,-0.0015226259553022,0.0015235520796515,-0.0015232015917877,0.0015228904707632,7.0741495255245e-06,-6.1972023344333e-06,-0.0010072751892806,0.0010081428803196,3.0542725729706e-07,5.8058516456275e-07,-0.0010612300719859,0.0010664078687215,-0.0010610900785218,0.0010665006640547,-0.0010656380863448,0.0010619895729983,-0.0010655640053246,0.0010620599382415,-0.001128782666009,0.0011166682283918,-0.0011156658867464,0.0011297033779913,0.0036549649474994,0.0035827251186808,0.73575587889928,1473840,32975,0.0063189748430513,0.0063190032619891,0.004192219504985,37.197141760781,0.00021277713408625,0.00021277713408625,0.00021277713408625,1502831.3560972,0.016972826166137
38448000,0.99999978367489,0.016737707726303,0.0059112835104456,0.0059113097149988,0.0049151145008581,-0.0015218445609591,0.0015216368036363,-6.7338984312069e-06,6.5063782612163e-06,-3.5621312412278e-07,2.0627231276683e-07,-0.001594606616296,0.0015898224495734,-0.0015902271307259,0.0015941800599339,-0.0015944805601767,0.0015899815539315,-0.0015900227710295,0.001594424707992,-0.0013627095699195,0.0013495665646073,-0.0013496294155245,0.0013626391220124,5.05743363903e-07,-5.3460148159494e-08,4.1126802473059e-07,1.2898482344939e-07,-0.0015215010722172,0.0015219944754624,-0.0015918611344982,0.0015926207158856,-0.0015919197601211,0.0015925206398144,-0.0015919877364689,0.0015924109090076,-0.001592120811759,0.0015922952508484,-0.0013557753365079,0.0013564194364601,-0.0013561018533627,0.0013561725428579,-0.0015230206033675,0.0015239497990247,-0.0015236000771525,0.0015232850221288,7.0796277911504e-06,-6.1935491726512e-06,-0.0010072517402168,0.0010081283825002,3.0604373260352e-07,5.8887981570668e-07,-0.0010613668200368,0.0010665517798264,-0.001061224232581,0.0010666468876934,-0.0010657755764318,0.0010621327344364,-0.0010656989024704,0.0010622055361097,-0.0011287764265198,0.0011166715802327,-0.0011156575972418,0.0011297087150639,0.0036556692302627,0.0035827139849342,0.74362259015142,1473840,32975,0.0063200228280665,0.006320051810021,0.0041921455424612,37.193945946003,0.00021275156756802,0.00021275156756802,0.00021275156756802,1498274.8109541,0.01697488439986
38534400,0.99999979589796,0.016737707924043,0.0059112835805336,0.0059113097850869,0.0049151145584222,-0.0015221548146898,0.0015219900334541,-6.7145207496063e-06,6.530175492624e-06,-3.4075261332771e-07,2.3373785725121e-07,-0.001594712373446,0.0015899656325563,-0.0015903314874073,0.0015943246571237,-0.0015945823714718,0.0015901287681375,-0.0015901230994992,0.0015945733779057,-0.0013631986176387,0.0013500983091759,-0.0013501139849292,0.0013631752350096,5.0982156799719e-07,-6.1100415410721e-08,4.1391608613681e-07,1.2284999833758e-07,-0.0015218345763182,0.0015223244855137,-0.0015919839385981,0.001592746938532,-0.0015920454345642,0.0015926439353849,-0.00159211453334,0.0015925331673143,-0.0015922505204594,0.0015924145665204,-0.0013562851059666,0.0013569304140044,-0.0013566202099058,0.0013566748727668,-0.0015235284777998,0.0015244627184422,-0.0015241194451561,0.0015237863757732,7.0833240517859e-06,-6.1943485280872e-06,-0.0010072310484057,0.0010081105703479,3.0312104476751e-07,5.9473411858227e-07,-0.0010615778540308,0.0010667642429654,-0.0010614323073126,0.0010668622613552,-0.0010659879806024,0.0010623435675955,-0.0010659084162237,0.0010624193042045,-0.0011287565834996,0.0011166530733503,-0.0011156334318806,0.001129694883831,0.0036566068266976,0.0035827030706107,0.74587014801296,1473840,32975,0.0063213944003961,0.0063214234455283,0.0041920720190807,37.193642550244,0.00021274914040195,0.00021274914040195,0.00021274914040195,1492228.1594715,0.016977601309596
38620800,0.99999980743036,0.016737708111113,0.005911283646832,0.0059113098513852,0.0049151146128963,-0.0015222007302613,0.0015220177965613,-6.7226001452007e-06,6.5199925475441e-06,-3.4990006007855e-07,2.2478643808813e-07,-0.0015947380345526,0.0015899738245701,-0.0015903578179824,0.001594332155889,-0.0015946079599663,0.0015901370219102,-0.0015901493959829,0.0015945809301528,-0.0013632560371387,0.0013501396349446,-0.0013501734870425,0.0013632144745377,5.0996911213615e-07,-6.1257250367697e-08,4.1121962016441e-07,1.2555295970506e-07,-0.0015218714147207,0.0015223613253147,-0.0015920017353914,0.00159276300663,-0.0015920614718778,0.0015926618014568,-0.0015921323584972,0.0015925491537971,-0.0015922665681036,0.0015924323668027,-0.0013563371040466,0.0013569770216163,-0.0013566669293189,0.0013567268633573,-0.0015235791280879,0.0015245154039876,-0.0015241703683409,0.0015238388165437,7.0816327578581e-06,-6.1939221767215e-06,-0.0010071130734529,0.0010079913217276,3.0515526095307e-07,5.9138343867321e-07,-0.001061532011223,0.0010667182243354,-0.0010613882687178,0.0010668144606186,-0.0010659414974167,0.0010622983198811,-0.001065863714838,0.0010623722514609,-0.0011286256787118,0.0011165211945211,-0.0011155045031256,0.0011295608076464,0.003656542370915,0.0035826923714378,0.74780414612919,1473840,32975,0.006321546104744,0.0063215751491092,0.0041915813938608,37.193611904292,0.00021274889523433,0.00021274889523433,0.00021274889523433,1490794.3066611,0.016977411248624
38707200,0.99999981831115,0.016737708288014,0.0059112837095193,0.0059113099140725,0.0049151146644223,-0.0015222336228295,0.0015220501834042,-6.723074041121e-06,6.5197627649249e-06,-3.5043514805022e-07,2.2490589046409e-07,-0.001594758230526,0.0015899933519615,-0.0015903779631616,0.0015943516798346,-0.0015946281039246,0.0015901566173313,-0.0015901691440355,0.0015946007242625,-0.0013632902164818,0.001350173067408,-0.0013502071462592,0.0013632482374568,5.1056810969904e-07,-6.1296137974972e-08,4.1237944691626e-07,1.2465260004309e-07,-0.0015219039748351,0.0015223944333668,-0.0015920209977966,0.0015927836843372,-0.0015920813213036,0.0015926819727408,-0.0015921517310524,0.001592569674916,-0.0015922865975497,0.0015924521561452,-0.0013563701154526,0.0013570120622564,-0.0013567020997032,0.00135675977018,-0.0015236254058095,0.0015245624829635,-0.0015242173125372,0.0015238849624566,7.0799902158751e-06,-6.1956485771273e-06,-0.0010070032219996,0.0010078782459909,3.0248145829932e-07,5.9071564255948e-07,-0.0010614811890408,0.0010666635723172,-0.0010613366851964,0.0010667605511208,-0.0010658907381325,0.0010622437156847,-0.0010658123967017,0.0010623183947576,-0.0011285125442025,0.0011164056588539,-0.001115391468197,0.0011294450554463,0.0036564750011355,0.0035826818832212,0.74948450430263,1473840,32975,0.0063216805385442,0.006321710387219,0.0041911203652023,37.193608761607,0.00021274887009286,0.00021274887009286,0.00021274887009286,1489493.5206052,0.016977216919495
38793600,0.99999982857714,0.01673770845525,0.0059112837687762,0.0059113099733295,0.0049151147131444,-0.0015222648666217,0.0015220801571698,-6.7236340557778e-06,6.519028627441e-06,-3.5132181655772e-07,2.2455167131911e-07,-0.0015947773683935,0.0015900111218997,-0.0015903971466861,0.001594369342288,-0.0015946470884666,0.0015901745652084,-0.0015901881543424,0.0015946185686926,-0.001363324927388,0.0013502068550541,-0.0013502419277632,0.0013632817601784,5.1079932078509e-07,-6.1593241834741e-08,4.1326933900308e-07,1.2367840600468e-07,-0.0015219345521434,0.0015224249493437,-0.0015920389783013,0.0015928023832921,-0.0015920999054522,0.0015927000745344,-0.0015921698709249,0.0015925882313831,-0.0015923053604691,0.0015924700772684,-0.0013564035245222,0.0013570470288509,-0.0013567373291561,0.0013567928227013,-0.0015236670287648,0.0015246040177952,-0.0015242594747006,0.0015239259039655,7.0798513407209e-06,-6.195668169461e-06,-0.0010068952623573,0.0010077701110454,3.014767624062e-07,5.9158710005156e-07,-0.0010614315956977,0.0010666131360039,-0.001061286469105,0.0010667107288828,-0.0010658411398508,0.0010621933047213,-0.0010657621344465,0.0010622685998499,-0.0011284000985184,0.0011162937799974,-0.0011152791277605,0.0011293330603147,0.0036564053326804,0.0035826716018545,0.75095687072334,1473840,32975,0.006321806615033,0.0063218362062871,0.0041906734110647,37.193608438002,0.00021274886750402,0.00021274886750402,0.00021274886750402,1488302.3266134,0.016977018783201
38880000,0.99999983826306,0.016737708613312,0.005911283824778,0.0059113100293312,0.0049151147592033,-0.0015222930455182,0.0015221086331556,-6.7232409458724e-06,6.5189413386775e-06,-3.51414660017e-07,2.2493844159987e-07,-0.0015947957277116,0.0015900297662316,-0.0015904156183947,0.0015943877903002,-0.0015946652799331,0.0015901934060449,-0.0015902065175289,0.0015946371865649,-0.0013633546710371,0.0013502375848405,-0.001350272180933,0.0013633119894645,5.1111924941848e-07,-6.1752520321657e-08,4.1400394934847e-07,1.2320228093846e-07,-0.0015219627269884,0.0015224533172663,-0.0015920569880858,0.001592821171163,-0.0015921183521896,0.0015927184104102,-0.0015921880391038,0.0015926068594344,-0.0015923239637686,0.0015924882598226,-0.0013564331324175,0.0013570780104898,-0.0013567679952953,0.0013568223676304,-0.0015237045103578,0.0015246417075759,-0.0015242974179038,0.0015239631406184,7.0858069346294e-06,-6.1892371245026e-06,-0.001006784493283,0.0010076716841603,3.0708022742055e-07,5.9841922119603e-07,-0.0010613751946632,0.0010665684698772,-0.0010612296839697,0.0010666663940485,-0.0010657845857768,0.0010621487711849,-0.0010657051154081,0.0010622244042988,-0.0011282867819985,0.0011161936214439,-0.0011151663343486,0.0011292324760933,0.0036563332766555,0.0035826615233111,0.75225768132584,1473840,32975,0.006321923302626,0.0063219526616765,0.0041902407038233,37.193608404632,0.00021274886723706,0.00021274886723706,0.00021274886723706,1487195.2520082,0.016976816028461
